LAMMPS (22 Jul 2025 - Update 4)
#######################################################
# UNIAXIAL TENSION
#######################################################

include ../include/system.in
#######################################################
# SYSTEM
#######################################################

units lj
dimension 3
boundary p p p

atom_style angle

pair_style lj/cut 2.5
bond_style harmonic
angle_style harmonic

read_data ../../data/lammps/minimized.data
Reading data file ...
  orthogonal box = (-6.655793 -20.828326 -15.106076) to (119.19059 112.49095 116.82822)
  1 by 1 by 1 MPI processor grid
  reading atoms ...
  6000 atoms
  reading velocities ...
  6000 velocities
  scanning bonds ...
  2 = max bonds/atom
  scanning angles ...
  1 = max angles/atom
  orthogonal box = (-6.655793 -20.828326 -15.106076) to (119.19059 112.49095 116.82822)
  1 by 1 by 1 MPI processor grid
  reading bonds ...
  5892 bonds
  reading angles ...
  5600 angles
Finding 1-2 1-3 1-4 neighbors ...
  special bond factors lj:    0        0        0       
  special bond factors coul:  0        0        0       
     3 = max # of 1-2 neighbors
     6 = max # of 1-3 neighbors
    18 = max # of 1-4 neighbors
    14 = max # of special neighbors
  special bonds CPU = 0.001 seconds
  read_data CPU = 0.051 seconds

atom_modify sort 0 0.0
include ../include/forcefield.in
#######################################################
# FORCE FIELD
#######################################################

pair_style lj/cut 2.5

pair_coeff * * 0.50 1.0 2.5

pair_modify shift yes

bond_style harmonic

bond_coeff 1 500.0 1.0
bond_coeff 2 500.0 1.0

angle_style harmonic

angle_coeff 1 80.0 180.0

special_bonds lj 0.0 1.0 1.0
Finding 1-2 1-3 1-4 neighbors ...
  special bond factors lj:    0        1        1       
  special bond factors coul:  0        0        0       
     3 = max # of 1-2 neighbors
     6 = max # of 1-3 neighbors
    18 = max # of 1-4 neighbors
    14 = max # of special neighbors
  special bonds CPU = 0.001 seconds

neighbor 2.0 bin

comm_modify cutoff 10.0

neigh_modify every 1 delay 0 check no

reset_timestep 0

fix NVT all nvt temp 1.0 1.0 1.0

fix DEF all deform 1 x erate 5.0e-4 units box remap x
thermo 100

thermo_style custom step temp pxx pyy pzz lx ly lz pe ke etotal

dump TRAJ all custom 100 tension.lammpstrj id type x y z

run 100000
Generated 0 of 0 mixed pair_coeff terms from geometric mixing rule
Neighbor list info ...
  update: every = 1 steps, delay = 0 steps, check = no
  max neighbors/atom: 2000, page size: 100000
  master list distance cutoff = 4.5
  ghost atom cutoff = 10
  binsize = 2.25, bins = 56 60 59
  1 neighbor lists, perpetual/occasional/extra = 1 0 0
  (1) pair lj/cut, perpetual
      attributes: half, newton on
      pair build: half/bin/newton
      stencil: half/bin/3d
      bin: standard
WARNING: Inconsistent image flags
For more information see https://docs.lammps.org/err0027 (src/domain.cpp:1052)
Per MPI rank memory allocation (min/avg/max) = 6.712 | 6.712 | 6.712 Mbytes
   Step          Temp           Pxx            Pyy            Pzz             Lx             Ly             Lz           PotEng         KinEng         TotEng    
         0   3.359058e-05   2.0144459e-05  6.2359359e-05  3.8698644e-05  125.84638      133.31928      131.93429     -0.018606634    5.0377472e-05 -0.018556257  
       100   0.00036283876 -3.5597769e-05  3.5352878e-05  1.9075776e-05  125.87784      133.31928      131.93429     -0.019073526    0.00054416743 -0.018529359  
       200   0.0011074396   1.2799536e-05  4.3042886e-05  2.8842864e-05  125.9093       133.31928      131.93429     -0.02004347     0.0016608826  -0.018382587  
       300   0.0024148308   4.6922812e-05  5.3777999e-05  3.4734501e-05  125.94077      133.31928      131.93429     -0.021607645    0.0036216425  -0.017986002  
       400   0.0045702077  -1.9034181e-06  2.0501671e-05  8.5302141e-06  125.97223      133.31928      131.93429     -0.023986301    0.006854169   -0.017132132  
       500   0.0059912606  -5.0590585e-05 -3.9722257e-05 -3.3090468e-05  126.00369      133.31928      131.93429     -0.024726925    0.008985393   -0.015741532  
       600   0.0088566767   1.4115059e-05 -5.0207172e-05  1.122094e-06   126.03515      133.31928      131.93429     -0.026953266    0.013282801   -0.013670466  
       700   0.011813657   -1.4328059e-05  1.4799531e-05  2.3254054e-05  126.06661      133.31928      131.93429     -0.028414457    0.017717533   -0.010696924  
       800   0.015543338   -8.9249849e-05 -3.867845e-05  -9.6691202e-05  126.09807      133.31928      131.93429     -0.029960254    0.023311121   -0.0066491329 
       900   0.020191462   -6.3394689e-05 -0.00010503237 -9.5853587e-05  126.12954      133.31928      131.93429     -0.031537899    0.030282145   -0.0012557535 
      1000   0.025727492   -4.8491877e-05 -0.00010139581 -0.00012138428  126.161        133.31928      131.93429     -0.032717216    0.038584806    0.0058675898 
      1100   0.032020996   -7.7965825e-05 -0.00010752634 -8.8534122e-05  126.19246      133.31928      131.93429     -0.033055272    0.048023489    0.014968217  
      1200   0.03833753    -0.00017962203 -4.3075908e-05 -2.5840038e-05  126.22392      133.31928      131.93429     -0.031290918    0.05749671     0.026205793  
      1300   0.044870474   -0.0001661426  -0.0001577804  -0.00010146382  126.25538      133.31928      131.93429     -0.027470506    0.067294493    0.039823987  
      1400   0.052147568   -0.00014646879 -0.00016485011 -0.00015955149  126.28684      133.31928      131.93429     -0.02246337     0.078208315    0.055744945  
      1500   0.062256127   -0.00019617366 -8.8292439e-05 -0.00018916484  126.3183       133.31928      131.93429     -0.018547786    0.093368627    0.07482084   
      1600   0.073142457   -0.00016701463 -5.1569124e-05  3.5454951e-06  126.34977      133.31928      131.93429     -0.01210791     0.1096954      0.09758749   
      1700   0.084491898   -0.00032996773 -1.3302429e-05 -3.100455e-05   126.38123      133.31928      131.93429     -0.0022658269   0.12671672     0.1244509    
      1800   0.099826787   -7.5528914e-05  2.3724544e-05 -8.5187977e-06  126.41269      133.31928      131.93429      0.0063405467   0.14971522     0.15605577   
      1900   0.11694318    -0.00010478861  4.9002201e-05 -3.5213011e-05  126.44415      133.31928      131.93429      0.017806328    0.17538553     0.19319186   
      2000   0.13313408    -0.00035904062 -2.2034212e-05 -0.00011751835  126.47561      133.31928      131.93429      0.036616927    0.19966784     0.23628477   
      2100   0.15595292    -6.2061692e-06 -0.0001359228   1.5540867e-05  126.50707      133.31928      131.93429      0.052377999    0.23389039     0.28626839   
      2200   0.18146805     0.00015737391 -9.4400493e-05  0.00021427086  126.53854      133.31928      131.93429      0.072375098    0.27215671     0.3445318    
      2300   0.20493102    -0.0003926517  -0.00028853904  2.2532387e-05  126.57         133.31928      131.93429      0.10361583     0.3073453      0.41096112   
      2400   0.24521398     0.00025964824  6.4105381e-05  0.00064643451  126.60146      133.31928      131.93429      0.12052839     0.36775966     0.48828805   
      2500   0.28678406     0.00067009391  6.8237769e-05  0.00022420424  126.63292      133.31928      131.93429      0.14780554     0.43010439     0.57790993   
      2600   0.34313653     7.1907827e-05  0.00021245883  0.00021468433  126.66438      133.31928      131.93429      0.16803371     0.51461901     0.68265272   
      2700   0.39971031     0.00055264874  0.00018125422 -6.4634248e-05  126.69584      133.31928      131.93429      0.20373378     0.59946553     0.80319931   
      2800   0.47536717     0.0008669271   0.00067915803  0.00036128557  126.72731      133.31928      131.93429      0.2287981      0.71293192     0.94173002   
      2900   0.54990653     0.00065780895 -0.00029920677 -0.00030110536  126.75877      133.31928      131.93429      0.27244385     0.82472231     1.0971662    
      3000   0.6366067      0.00085554754 -0.00035074518 -0.00025349857  126.79023      133.31928      131.93429      0.31347203     0.9547509      1.2682229    
      3100   0.72298551     0.0010773467  -0.00019228854  0.00056801813  126.82169      133.31928      131.93429      0.36679602     1.0842975      1.4510935    
      3200   0.82292858     0.0010841621   0.00059969408  0.00044991839  126.85315      133.31928      131.93429      0.40632885     1.2341871      1.640516     
      3300   0.91955436     0.00094251422  0.0010479931   0.00074445815  126.88461      133.31928      131.93429      0.44798201     1.3791016      1.8270837    
      3400   1.0045891      0.0010622819   0.0015516819   1.7225701e-05  126.91608      133.31928      131.93429      0.48872123     1.5066325      1.9953537    
      3500   1.0591676      0.00057162627  0.00076987788  0.0013983668   126.94754      133.31928      131.93429      0.53764247     1.5884866      2.126129     
      3600   1.0771699      0.00068865654  0.0012662548  -7.9581595e-05  126.979        133.31928      131.93429      0.5851083      1.6154856      2.2005939    
      3700   1.0515898      0.00060909195  0.00059706574 -6.2958071e-05  127.01046      133.31928      131.93429      0.6373288      1.5771218      2.2144506    
      3800   1.0123007      0.0019875839   0.0005724174   0.0006831936   127.04192      133.31928      131.93429      0.66882698     1.518198       2.187025     
      3900   0.97794648     0.000875691    0.00070473159  0.0010449392   127.07338      133.31928      131.93429      0.684311       1.4666752      2.1509862    
      4000   0.95437959     0.00098601265  0.00011822087 -0.00028759694  127.10484      133.31928      131.93429      0.69963661     1.4313308      2.1309674    
      4100   0.94437652     0.0014067669   0.00067226087  0.00091228123  127.13631      133.31928      131.93429      0.72613748     1.4163287      2.1424662    
      4200   0.96512039     5.7218338e-05 -0.0002399396   0.00098810167  127.16777      133.31928      131.93429      0.74000288     1.4474393      2.1874422    
      4300   0.99535064     0.00028375433  0.00057081989  0.00040138951  127.19923      133.31928      131.93429      0.76198473     1.4927771      2.2547619    
      4400   1.0398728      0.00079017585  0.00046210271  0.00085620153  127.23069      133.31928      131.93429      0.76414836     1.5595493      2.3236977    
      4500   1.044675       0.0010055633   0.00060448388  0.00012978658  127.26215      133.31928      131.93429      0.80237176     1.5667513      2.3691231    
      4600   1.046344      -0.00090497693  0.0011326733   0.00083822088  127.29361      133.31928      131.93429      0.81351997     1.5692544      2.3827744    
      4700   1.0226647     -0.00054819558  0.00069712585  0.00073733902  127.32508      133.31928      131.93429      0.82754136     1.5337414      2.3612828    
      4800   0.99966614     0.00086458039  0.00047332345  0.0012778048   127.35654      133.31928      131.93429      0.82415417     1.4992493      2.3234035    
      4900   0.9653723      0.0002336727   0.00037468339  0.00041442974  127.388        133.31928      131.93429      0.84414369     1.4478171      2.2919608    
      5000   0.9457402     -0.00043584446  0.00045186289  0.00074767231  127.41946      133.31928      131.93429      0.87028504     1.4183739      2.2886589    
      5100   0.97967959     0.00028660544  0.0010213464   0.0004911502   127.45092      133.31928      131.93429      0.84687914     1.4692745      2.3161536    
      5200   1.0075264      0.0013622942   0.0007525655   0.00031754942  127.48238      133.31928      131.93429      0.84706019     1.5110378      2.358098     
      5300   1.0141279     -0.00071038508 -0.00070553178 -0.00048393942  127.51385      133.31928      131.93429      0.87724756     1.5209383      2.3981859    
      5400   1.01967        0.00076095642 -0.00014440182  0.0017297255   127.54531      133.31928      131.93429      0.89851325     1.52925        2.4277633    
      5500   1.0220801      0.00065157545  0.0010669785   0.00047398576  127.57677      133.31928      131.93429      0.90882891     1.5328646      2.4416935    
      5600   0.99492318    -0.00033249118 -0.00088284162 -0.00080051768  127.60823      133.31928      131.93429      0.94840156     1.492136       2.4405376    
      5700   0.99989193     0.00068493832  0.00031224543  0.0017305311   127.63969      133.31928      131.93429      0.93901176     1.4995879      2.4385997    
      5800   0.99166498     0.0012652578   0.00074796195 -0.00097472976  127.67115      133.31928      131.93429      0.95141296     1.4872496      2.4386625    
      5900   0.97923437     0.00013215344 -0.00037118549  0.0010842407   127.70262      133.31928      131.93429      0.97337932     1.4686068      2.4419861    
      6000   0.99259205     0.0013149748   0.001010941   -8.8361733e-05  127.73408      133.31928      131.93429      0.96633322     1.4886399      2.4549732    
      6100   0.99276459     0.00086248692  0.00014997901  0.00088021703  127.76554      133.31928      131.93429      0.98718914     1.4888987      2.4760878    
      6200   1.0150702      0.00049374543  0.00013070646 -2.5009828e-06  127.797        133.31928      131.93429      0.97768434     1.5223516      2.5000359    
      6300   1.0094895      0.00037914846 -0.00019257846  0.00089445019  127.82846      133.31928      131.93429      1.0044219      1.5139819      2.5184038    
      6400   1.0112491      0.00091505358 -9.7234181e-06  0.00032497879  127.85992      133.31928      131.93429      1.0135976      1.5166208      2.5302184    
      6500   1.0022298      0.00072501359  0.00060602674 -0.0011482256   127.89138      133.31928      131.93429      1.0300964      1.5030942      2.5331905    
      6600   1.0148363      0.00026933206 -4.7868068e-05  0.00060078192  127.92285      133.31928      131.93429      1.0069617      1.5220008      2.5289625    
      6700   1.0026478      0.0005664542   0.00042215961 -0.00048408334  127.95431      133.31928      131.93429      1.0137502      1.503721       2.5174712    
      6800   0.99525026     0.00062448658  0.0005486853  -0.00034823769  127.98577      133.31928      131.93429      1.0103041      1.4926266      2.5029306    
      6900   0.99884791     0.00065844842  0.00022135389  0.0007259685   128.01723      133.31928      131.93429      0.99440179     1.4980221      2.4924239    
      7000   1.0019589     -5.5020525e-05  0.00043538124  0.0014285913   128.04869      133.31928      131.93429      0.98535012     1.5026879      2.488038     
      7100   0.99625388     5.5367147e-05 -0.00018864378  0.00012034161  128.08015      133.31928      131.93429      0.99290037     1.4941318      2.4870321    
      7200   0.9782681     -0.00039585661 -0.00037653969 -1.0626292e-05  128.11162      133.31928      131.93429      1.0232155      1.4671576      2.4903731    
      7300   1.0025752      0.00020444371  0.001384905    0.0011935539   128.14308      133.31928      131.93429      0.99836348     1.5036122      2.5019757    
      7400   0.99583615     0.00012288645 -0.00012782428  0.00053049293  128.17454      133.31928      131.93429      1.0200738      1.4935053      2.5135791    
      7500   0.99585257     0.00036311578 -0.00040462092  0.00040792521  128.206        133.31928      131.93429      1.0333793      1.4935299      2.5269092    
      7600   1.0100784     -2.4517778e-05  0.0006104105   0.00020994324  128.23746      133.31928      131.93429      1.0262987      1.514865       2.5411637    
      7700   1.0051574     -0.00018272731  0.00085568713 -0.00049268003  128.26892      133.31928      131.93429      1.0420483      1.5074848      2.5495331    
      7800   1.0160858     -4.214401e-05  -0.00011780263  0.00044131247  128.30039      133.31928      131.93429      1.0215635      1.5238746      2.5454382    
      7900   1.0061433      0.00082303713  0.00023237997  0.00012183417  128.33185      133.31928      131.93429      1.0210959      1.5089634      2.5300592    
      8000   0.98131835     0.00050653598  0.00085246861 -0.00039054198  128.36331      133.31928      131.93429      1.0374608      1.4717322      2.509193     
      8100   0.97746094    -0.00029319413  0.00019433572 -7.6793711e-05  128.39477      133.31928      131.93429      1.0293363      1.465947       2.4952834    
      8200   0.97263204     0.00068019828 -0.00011253936  0.00096730789  128.42623      133.31928      131.93429      1.0379247      1.4587049      2.4966296    
      8300   0.98493138     0.00093888118 -6.2271079e-05  0.00042082827  128.45769      133.31928      131.93429      1.0356055      1.4771508      2.5127564    
      8400   0.98899726    -0.00013932164  0.00045834794  0.00057674848  128.48916      133.31928      131.93429      1.055784       1.4832486      2.5390327    
      8500   1.0106407      0.00069478156 -0.00053167089  4.6004016e-05  128.52062      133.31928      131.93429      1.0587161      1.5157084      2.5744246    
      8600   1.0113729      0.0018261954   0.0012017703   0.0018719907   128.55208      133.31928      131.93429      1.0918552      1.5168064      2.6086617    
      8700   1.0259308      0.00038853907  0.00076361598  0.0012322872   128.58354      133.31928      131.93429      1.0966077      1.5386397      2.6352474    
      8800   1.03741       -0.00043050406 -0.0014354205  -0.00053019457  128.615        133.31928      131.93429      1.08808        1.5558557      2.6439358    
      8900   1.0357452      0.00042460047  0.00075079385  0.0004031332   128.64646      133.31928      131.93429      1.0722633      1.5533588      2.6256221    
      9000   0.99361008     0.0005269894   0.00043598856  0.00050207313  128.67792      133.31928      131.93429      1.093897       1.4901667      2.5840637    
      9100   0.98401747     0.00032062407 -0.0013376854   0.00026034241  128.70939      133.31928      131.93429      1.0652746      1.4757802      2.5410548    
      9200   0.96110069     0.00027874587 -0.00056258406 -0.00034459906  128.74085      133.31928      131.93429      1.0658865      1.4414108      2.5072972    
      9300   0.96746572     0.00015371144  5.029636e-05  -0.00012931597  128.77231      133.31928      131.93429      1.0429779      1.4509567      2.4939346    
      9400   0.98475227     0.0015685604   0.00072803404  0.00042785052  128.80377      133.31928      131.93429      1.027806       1.4768822      2.5046882    
      9500   0.98791959     0.00025893602 -0.00024456514 -9.090662e-05   128.83523      133.31928      131.93429      1.0542108      1.4816324      2.5358432    
      9600   0.99935849     0.00019385582  0.0015349931   0.0010886466   128.86669      133.31928      131.93429      1.0812753      1.4987879      2.5800632    
      9700   1.0224428      0.0009935452   0.00026694316  0.00039631353  128.89816      133.31928      131.93429      1.0906617      1.5334086      2.6240702    
      9800   1.0191495      1.8564986e-05 -0.00026837386 -0.00045508629  128.92962      133.31928      131.93429      1.1252319      1.5284695      2.6537015    
      9900   1.0307785      0.00084411678  0.00031340496  0.00094737258  128.96108      133.31928      131.93429      1.1147707      1.5459101      2.6606808    
     10000   1.0155113      0.00075805834  0.001189292    0.0010371533   128.99254      133.31928      131.93429      1.1214934      1.523013       2.6445064    
     10100   1.0093825      0.00031795701  0.00089067676 -0.00081133015  129.024        133.31928      131.93429      1.100698       1.5138214      2.6145194    
     10200   0.98487956     0.00010705394  0.0004233773   0.00084574265  129.05546      133.31928      131.93429      1.100821       1.4770731      2.5778941    
     10300   0.98067621    -0.00057816405  0.00042744331 -0.0006825078   129.08693      133.31928      131.93429      1.0744576      1.4707691      2.5452268    
     10400   0.96205517     5.8823993e-05  3.4493629e-06  0.00041292246  129.11839      133.31928      131.93429      1.0856451      1.4428422      2.5284874    
     10500   0.98134493     0.0010302708   0.0014995602   0.00019635689  129.14985      133.31928      131.93429      1.0613819      1.4717721      2.533154     
     10600   0.99247957     0.00011082412  3.9874134e-05  0.00058292529  129.18131      133.31928      131.93429      1.070721       1.4884712      2.5591922    
     10700   0.98917935    -0.00034570546  0.00016193307 -1.4354372e-05  129.21277      133.31928      131.93429      1.1123712      1.4835217      2.5958929    
     10800   0.99836139     0.00015996191  0.000389474    0.00095502542  129.24423      133.31928      131.93429      1.1360319      1.4972925      2.6333244    
     10900   1.0280285     -0.00025027224  0.00049329269  3.9858224e-05  129.27569      133.31928      131.93429      1.1192127      1.5417857      2.6609984    
     11000   1.0403628      0.00096968947  6.0544138e-05  0.00066505817  129.30716      133.31928      131.93429      1.1088317      1.5602841      2.6691158    
     11100   1.023372       0.0012303464   0.00078613322  0.001337745    129.33862      133.31928      131.93429      1.1226679      1.5348021      2.6574701    
     11200   1.021244       0.00055832259  0.0003218025   0.00088743086  129.37008      133.31928      131.93429      1.1000033      1.5316107      2.6316141    
     11300   0.99514935     0.00029728002  0.00033676477 -0.00028108098  129.40154      133.31928      131.93429      1.1062063      1.4924752      2.5986815    
     11400   0.99208174     0.00074307079  5.2412049e-05  0.00062464211  129.433        133.31928      131.93429      1.079257       1.4878746      2.5671316    
     11500   0.97554979     0.00038912837 -0.00040816265 -0.00056152363  129.46446      133.31928      131.93429      1.0785842      1.4630808      2.541665     
     11600   0.97006768     0.00030809711  0.0011724553   0.00083911592  129.49593      133.31928      131.93429      1.079461       1.454859       2.53432      
     11700   0.9723502      0.00045395821  0.0010544763   0.0011114078   129.52739      133.31928      131.93429      1.0943161      1.4582822      2.5525983    
     11800   0.990508      -6.0789134e-05  0.00019365117  0.00046131889  129.55885      133.31928      131.93429      1.1094932      1.4855144      2.5950076    
     11900   1.022075       0.00025081756  0.0010260815  -0.0004408513   129.59031      133.31928      131.93429      1.110494       1.532857       2.6433511    
     12000   1.0201607     -0.00051205637  0.00026187807  0.00030512428  129.62177      133.31928      131.93429      1.1471026      1.529986       2.6770886    
     12100   1.0481935      0.0011625431   0.0006660433   0.0010117729   129.65323      133.31928      131.93429      1.1139423      1.5720283      2.6859706    
     12200   1.0245638     -0.00027909343  0.00061763466  0.00019528517  129.6847       133.31928      131.93429      1.1268142      1.5365896      2.6634038    
     12300   1.0000695      0.001213515    0.00024397838  0.00047579341  129.71616      133.31928      131.93429      1.1218165      1.4998543      2.6216708    
     12400   0.98983059     9.6478936e-05 -0.00065469412 -9.8370385e-05  129.74762      133.31928      131.93429      1.0911887      1.4844984      2.5756872    
     12500   0.97887826     0.00012139977  0.00076588652  0.0013409873   129.77908      133.31928      131.93429      1.0741941      1.4680727      2.5422667    
     12600   0.96645034     0.00093899944  0.0010093363   0.0012267075   129.81054      133.31928      131.93429      1.0795388      1.4494339      2.5289727    
     12700   0.97384208     0.00057041928 -0.00061425466 -0.0010146758   129.842        133.31928      131.93429      1.0785519      1.4605197      2.5390716    
     12800   0.98271356    -0.0011991548   0.00054511824 -0.00057943809  129.87347      133.31928      131.93429      1.0934526      1.4738247      2.5672773    
     12900   1.0028498      0.001041285    0.00013229799  0.00090483641  129.90493      133.31928      131.93429      1.0971375      1.504024       2.6011615    
     13000   1.0009444      0.00053768477  0.00064660433  0.0010075268   129.93639      133.31928      131.93429      1.1319527      1.5011664      2.6331191    
     13100   1.0049934     -0.0013456856   7.0043431e-05 -0.00038010395  129.96785      133.31928      131.93429      1.1502481      1.5072388      2.657487     
     13200   1.0222297      0.00059643769  0.00080512317  0.00047672313  129.99931      133.31928      131.93429      1.1390697      1.533089       2.6721587    
     13300   1.0052611      0.0018085453   0.00051601144  0.00099634117  130.03077      133.31928      131.93429      1.1641193      1.5076403      2.6717596    
     13400   0.99875865     0.0001429464   0.00074648175 -0.00041651549  130.06223      133.31928      131.93429      1.1614221      1.4978883      2.6593104    
     13500   1.0122638     -0.00030484971  0.00072791372 -0.00037730455  130.0937       133.31928      131.93429      1.1220705      1.5181426      2.6402131    
     13600   0.99798468     0.0012247435   0.00046718901  0.00071014685  130.12516      133.31928      131.93429      1.1222308      1.4967275      2.6189584    
     13700   0.98594356    -0.00028121658  0.00028002239  0.00090544456  130.15662      133.31928      131.93429      1.1209044      1.4786689      2.5995732    
     13800   0.98510148     0.00040810932  0.00070773437 -7.483976e-05   130.18808      133.31928      131.93429      1.1169611      1.4774059      2.5943671    
     13900   0.98071966     0.00061834436  0.0008963723   0.00068045079  130.21954      133.31928      131.93429      1.1341978      1.4708343      2.6050321    
     14000   0.99174169    -4.2732689e-05  0.00044888275  0.00051761458  130.251        133.31928      131.93429      1.139437       1.4873646      2.6268016    
     14100   1.008351       0.00019180952  0.00019964764 -0.00034427343  130.28247      133.31928      131.93429      1.1418143      1.5122744      2.6540887    
     14200   1.0361821      0.00168656     0.001128621    0.0013158655   130.31393      133.31928      131.93429      1.1248751      1.5540142      2.6788893    
     14300   1.0348042     -0.00079551747  0.00074345249  0.00051908064  130.34539      133.31928      131.93429      1.1339518      1.5519477      2.6858994    
     14400   1.0345571     -0.0008039974  -0.00085129094 -5.8299501e-05  130.37685      133.31928      131.93429      1.1196349      1.551577       2.6712119    
     14500   1.0012689      0.0020919645   0.0010673489   0.000678283    130.40831      133.31928      131.93429      1.1382239      1.501653       2.6398769    
     14600   0.9838579      4.7171389e-05  0.00021668559  8.056479e-05   130.43977      133.31928      131.93429      1.1300497      1.4755409      2.6055906    
     14700   0.97968202    -0.00042000414 -0.00027538543  0.00045296575  130.47124      133.31928      131.93429      1.1146346      1.4692781      2.5839127    
     14800   0.96620773     0.00093898469  0.00085743007  0.00035832243  130.5027       133.31928      131.93429      1.1334941      1.44907        2.5825641    
     14900   0.99108188    -0.00040664353  0.00011765441  0.0014994955   130.53416      133.31928      131.93429      1.1165202      1.486375       2.6028953    
     15000   1.0049108      0.00039893266 -0.00057086288 -0.00031009735  130.56562      133.31928      131.93429      1.1285938      1.507115       2.6357088    
     15100   1.012125       0.00093590498  0.00072861707  0.00052008521  130.59708      133.31928      131.93429      1.149744       1.5179345      2.6676784    
     15200   1.022034       0.00028207037  0.00048667401  0.00093552857  130.62854      133.31928      131.93429      1.1561718      1.5327955      2.6889674    
     15300   1.0185903     -0.00031285693 -0.00012089816 -0.00037268727  130.66001      133.31928      131.93429      1.1649141      1.5276308      2.692545     
     15400   1.0270222      0.00041617221  0.00053499133  0.00070592944  130.69147      133.31928      131.93429      1.1397571      1.5402766      2.6800337    
     15500   0.99723939    -0.00030941629 -0.00033301487 -0.00056803248  130.72293      133.31928      131.93429      1.1570813      1.4956098      2.6526911    
     15600   0.98894812     0.00047573719  0.00084801923  0.0013537988   130.75439      133.31928      131.93429      1.1401577      1.4831749      2.6233326    
     15700   0.97942939     0.00038477868  0.0010686812  -8.7252457e-05  130.78585      133.31928      131.93429      1.1339607      1.4688992      2.6028599    
     15800   0.98386924     0.00066640674  0.00075269308  0.00098735529  130.81731      133.31928      131.93429      1.1236815      1.4755579      2.5992394    
     15900   0.98617134    -0.00017004098 -8.824293e-05   0.00012825358  130.84877      133.31928      131.93429      1.1323744      1.4790105      2.6113849    
     16000   0.98723777     0.00014836821 -0.00067640262 -0.00054849042  130.88024      133.31928      131.93429      1.1568374      1.4806098      2.6374473    
     16100   1.0002332      0.0011821348   0.00075594926  0.00042698271  130.9117       133.31928      131.93429      1.1672472      1.5000997      2.6673469    
     16200   1.0076166      0.00066783391  0.00045112281  0.0014888431   130.94316      133.31928      131.93429      1.1843805      1.511173       2.6955535    
     16300   1.0121104      0.0003017254  -0.00036127092  3.0227368e-05  130.97462      133.31928      131.93429      1.1973933      1.5179125      2.7153058    
     16400   1.0062676      0.00029882535  0.00058418958 -0.00013247464  131.00608      133.31928      131.93429      1.21099        1.5091498      2.7201398    
     16500   1.0300824      0.00026502112 -0.00012385794  0.00079274734  131.03754      133.31928      131.93429      1.1661779      1.5448661      2.7110439    
     16600   0.99973821    -0.00030038632 -0.00073579782  0.0005519235   131.06901      133.31928      131.93429      1.1897916      1.4993574      2.689149     
     16700   0.99054768     0.0011312079   0.00098510503  0.00029797159  131.10047      133.31928      131.93429      1.176021       1.4855739      2.6615949    
     16800   0.98467688     0.00054321351  8.5116057e-06  0.00053617221  131.13193      133.31928      131.93429      1.1577252      1.4767692      2.6344944    
     16900   0.97876564    -0.0001726377  -0.00037442453  0.00039776118  131.16339      133.31928      131.93429      1.1520385      1.4679038      2.6199423    
     17000   0.9820213      4.6136294e-05  0.000450491   -4.451143e-05   131.19485      133.31928      131.93429      1.1501269      1.4727864      2.6229133    
     17100   0.98760823     0.00084309149  0.00059428985 -0.00039643976  131.22631      133.31928      131.93429      1.1580978      1.4811654      2.6392632    
     17200   1.0038615      0.00076661402  0.00068368093  0.00093520002  131.25778      133.31928      131.93429      1.157534       1.5055413      2.6630753    
     17300   1.0125449      0.00020161817  8.3321977e-05  0.00010658051  131.28924      133.31928      131.93429      1.1681376      1.5185642      2.6867018    
     17400   1.0260649      0.00045259147  0.00067979201  0.00038705134  131.3207       133.31928      131.93429      1.1647472      1.5388408      2.7035879    
     17500   1.012833       0.00046090913  0.00054148437  0.00024657792  131.35216      133.31928      131.93429      1.1878386      1.5189963      2.7068349    
     17600   1.0036022      0.00023111252 -0.00037512509 -0.00011847768  131.38362      133.31928      131.93429      1.1945933      1.5051524      2.6997458    
     17700   1.0075514      0.00022515756  0.00065145589  3.4773765e-05  131.41508      133.31928      131.93429      1.1747805      1.5110753      2.6858558    
     17800   0.99053253     0.00033855044  0.00011616233  0.0016581613   131.44654      133.31928      131.93429      1.1841144      1.4855512      2.6696656    
     17900   0.97587485    -0.00015647011  0.00059675667 -7.0359045e-05  131.47801      133.31928      131.93429      1.194362       1.4635683      2.6579303    
     18000   0.98492125     0.0001461727   9.8493467e-05  0.00066844452  131.50947      133.31928      131.93429      1.1797882      1.4771357      2.6569239    
     18100   0.99604493     0.00052274944  0.001618451    0.00048107158  131.54093      133.31928      131.93429      1.1735329      1.4938184      2.6673513    
     18200   1.0056351      0.00040915503 -0.00047483478  0.00039578992  131.57239      133.31928      131.93429      1.1737053      1.5082012      2.6819066    
     18300   0.9959798     -0.00041695671  0.00024079828  0.0010041421   131.60385      133.31928      131.93429      1.2042779      1.4937207      2.6979986    
     18400   1.0119195      0.00014365653  0.0011399008  -0.00016857706  131.63531      133.31928      131.93429      1.1930982      1.5176263      2.7107245    
     18500   1.0183404      0.00012303403  0.00041929542 -7.833174e-05   131.66678      133.31928      131.93429      1.1888062      1.527256       2.7160622    
     18600   1.0069645      5.743581e-05   1.0045271e-05  0.00089136462  131.69824      133.31928      131.93429      1.2009818      1.5101951      2.7111768    
     18700   0.99710535     0.00077642476  0.0014334863   0.0010563145   131.7297       133.31928      131.93429      1.2032702      1.4954087      2.6986789    
     18800   1.0026061     -0.00017433924  0.00049246357 -0.00015735886  131.76116      133.31928      131.93429      1.1810599      1.5036585      2.6847184    
     18900   0.98689231     8.9323608e-05  0.00028995073 -0.00015550551  131.79262      133.31928      131.93429      1.1942262      1.4800917      2.6743179    
     19000   0.99005959     0.00072338225  0.00024851322  0.000809783    131.82408      133.31928      131.93429      1.187448       1.4848419      2.6722898    
     19100   0.9858756      0.0001685171  -0.00032517625 -0.0010693617   131.85555      133.31928      131.93429      1.1973595      1.4785669      2.6759265    
     19200   0.99826825     8.9019905e-05  0.00073484827  0.00013554402  131.88701      133.31928      131.93429      1.1855632      1.4971528      2.682716     
     19300   1.0023812     -0.00031197271  0.00087863438  0.00035206869  131.91847      133.31928      131.93429      1.1852724      1.5033211      2.6885936    
     19400   1.0108292      0.00054832655  0.00057086685  0.00076023886  131.94993      133.31928      131.93429      1.1791466      1.5159911      2.6951377    
     19500   1.0067326      0.00040552744  0.00081334861  0.0005030757   131.98139      133.31928      131.93429      1.1880782      1.5098472      2.6979253    
     19600   0.99343645    -0.00010808167  0.00018833945 -0.0004717135   132.01285      133.31928      131.93429      1.2048608      1.4899063      2.6947671    
     19700   1.0017241     -0.00023229093 -0.00021837437 -0.00027744609  132.04432      133.31928      131.93429      1.1844436      1.5023358      2.6867794    
     19800   0.99246103    -6.7172158e-05  0.00048885103  0.001035072    132.07578      133.31928      131.93429      1.1888692      1.4884434      2.6773126    
     19900   0.99072678     0.0010225834  -0.00013167979  8.3230842e-05  132.10724      133.31928      131.93429      1.1837492      1.4858425      2.6695917    
     20000   0.97763301     0.0004197438  -0.00015530276 -0.00012611067  132.1387       133.31928      131.93429      1.2008392      1.4662051      2.6670443    
     20100   0.98352867     0.00068073025  0.0011165358   0.00051856668  132.17016      133.31928      131.93429      1.195866       1.4750471      2.6709132    
     20200   0.99197411    -0.00053609845 -0.00035670975  0.00014428979  132.20162      133.31928      131.93429      1.1909364      1.4877132      2.6786496    
     20300   0.98906838    -8.1734559e-05  0.00064371776  0.00048411038  132.23308      133.31928      131.93429      1.2069656      1.4833553      2.6903209    
     20400   1.0057636      0.0013874915   0.00075055585  0.00052130177  132.26455      133.31928      131.93429      1.1943174      1.5083939      2.7027113    
     20500   1.020824      -0.00012125579 -0.00013964646  9.5037306e-05  132.29601      133.31928      131.93429      1.1838281      1.5309808      2.714809     
     20600   1.0142615      5.8502617e-05  1.2758593e-05  0.000352687    132.32747      133.31928      131.93429      1.1988374      1.5211387      2.7199762    
     20700   1.0131841      0.00050023497  0.0013753375   0.0015063047   132.35893      133.31928      131.93429      1.2003687      1.5195229      2.7198916    
     20800   1.0049659     -0.00012402457 -0.00066075123  0.00051485619  132.39039      133.31928      131.93429      1.2074533      1.5071976      2.7146508    
     20900   1.0116939     -0.00044059589 -0.00020361664 -0.00096656353  132.42185      133.31928      131.93429      1.1878527      1.5172879      2.7051407    
     21000   0.99528019     0.00052911488 -0.00020568197  0.00068856658  132.45332      133.31928      131.93429      1.2000124      1.4926715      2.6926839    
     21100   0.975395      -0.00017190351  0.00056268139  0.00098921046  132.48478      133.31928      131.93429      1.2165862      1.4628486      2.6794349    
     21200   0.99610046     0.00053114754  0.00058640349  0.00077614322  132.51624      133.31928      131.93429      1.1782521      1.4939017      2.6721538    
     21300   0.98576541    -0.00079315696 -0.00014493453 -0.00040383565  132.5477       133.31928      131.93429      1.1916819      1.4784017      2.6700835    
     21400   0.99621225     0.00046530657  0.00035790699  0.0003138766   132.57916      133.31928      131.93429      1.1797381      1.4940693      2.6738074    
     21500   0.99874507     0.00055984936  5.4505479e-05  0.00056930768  132.61062      133.31928      131.93429      1.183348       1.4978679      2.6812159    
     21600   1.0155937     -0.00021756458  0.00077994117  0.0003993164   132.64209      133.31928      131.93429      1.1663701      1.5231367      2.6895068    
     21700   1.0171011      0.00059211369 -0.00040029528  7.9798335e-05  132.67355      133.31928      131.93429      1.1687044      1.5253973      2.6941017    
     21800   1.0303874      6.2378607e-05 -0.00012721947 -4.0364243e-05  132.70501      133.31928      131.93429      1.1476797      1.5453236      2.6930033    
     21900   1.0021245      0.00029098005  0.00033618084  0.00034750034  132.73647      133.31928      131.93429      1.1771432      1.5029363      2.6800794    
     22000   0.98994048     0.00038564706 -3.0778207e-05  0.00068134945  132.76793      133.31928      131.93429      1.1808584      1.4846632      2.6655217    
     22100   0.99020989     0.00027977655 -8.0206578e-05 -0.00054128235  132.79939      133.31928      131.93429      1.1718631      1.4850673      2.6569304    
     22200   0.98829633     0.00032223314  6.7546671e-05  0.00052536324  132.83086      133.31928      131.93429      1.1762106      1.4821974      2.658408     
     22300   0.99461797     0.00035819438  0.00052546404  0.00067375079  132.86232      133.31928      131.93429      1.1785004      1.4916783      2.6701787    
     22400   0.98500635     0.0004586036   3.6679724e-05 -0.00060726265  132.89378      133.31928      131.93429      1.2147644      1.4772633      2.6920277    
     22500   1.0190656      0.00068556536  0.00036585972  2.3359425e-05  132.92524      133.31928      131.93429      1.1900877      1.5283436      2.7184313    
     22600   1.0072719      0.00018737569 -0.00014877954  0.00044401712  132.9567       133.31928      131.93429      1.2277484      1.510656       2.7384044    
     22700   1.0189743      0.00058719792  0.00073933091  0.00033820693  132.98816      133.31928      131.93429      1.2180716      1.5282067      2.7462783    
     22800   1.0095298      0.00021970594 -8.3364216e-05  0.00026203571  133.01962      133.31928      131.93429      1.2258862      1.5140423      2.7399285    
     22900   0.99114701    -0.00084394933  0.00022145378  9.6523905e-05  133.05109      133.31928      131.93429      1.2370483      1.4864727      2.723521     
     23000   0.98511409     0.00041079201 -0.00064716611 -0.00015571396  133.08255      133.31928      131.93429      1.2260363      1.4774249      2.7034611    
     23100   0.98559338     0.00089812274  4.6672152e-05  0.00067324154  133.11401      133.31928      131.93429      1.2109326      1.4781437      2.6890762    
     23200   0.99063718     0.00080471798  0.00099331714  0.0002171918   133.14547      133.31928      131.93429      1.196077       1.4857081      2.6817851    
     23300   0.99853413     0.00026271955  2.1441648e-05 -0.00069243427  133.17693      133.31928      131.93429      1.1847945      1.4975516      2.682346     
     23400   1.0081348     -0.00049193802  0.0004114991   3.6657631e-05  133.20839      133.31928      131.93429      1.1751846      1.5119501      2.6871347    
     23500   1.0039985      0.0007398712   0.00048578203  0.0010115973   133.23986      133.31928      131.93429      1.1845756      1.5057467      2.6903224    
     23600   1.0013543     -0.00023272953 -5.6845838e-05  7.2967356e-05  133.27132      133.31928      131.93429      1.1851446      1.5017812      2.6869258    
     23700   1.0038619      2.8607283e-05  0.00094454029  0.00048096893  133.30278      133.31928      131.93429      1.177286       1.5055419      2.6828278    
     23800   0.99860524    -6.5029185e-05  0.00056210725  0.00023468714  133.33424      133.31928      131.93429      1.1822257      1.4976582      2.679884     
     23900   0.9898353      0.0001554307  -0.0011528639   5.7453591e-07  133.3657       133.31928      131.93429      1.1938594      1.4845055      2.6783649    
     24000   0.99397774     0.0004837445   0.00015185408 -0.00016772744  133.39716      133.31928      131.93429      1.1920556      1.4907181      2.6827737    
     24100   1.0080135      0.00041799284  0.00041093303  0.00028271668  133.42863      133.31928      131.93429      1.176435       1.5117683      2.6882033    
     24200   0.99674747    -0.00052407879 -0.00040560103  9.6984191e-05  133.46009      133.31928      131.93429      1.1931528      1.494872       2.6880248    
     24300   1.0015196     -0.00019587578 -0.0012484954   0.00027055231  133.49155      133.31928      131.93429      1.1798211      1.5020291      2.6818502    
     24400   1.0050455      0.00056850651  0.0011577816   0.00093436464  133.52301      133.31928      131.93429      1.1646587      1.507317       2.6719757    
     24500   0.99562141    -0.00056912601  0.00091168995 -4.5049249e-05  133.55447      133.31928      131.93429      1.1695123      1.4931832      2.6626955    
     24600   0.99387555    -0.00017485518  7.6265233e-05  7.6925809e-05  133.58593      133.31928      131.93429      1.1677722      1.4905649      2.6583371    
     24700   0.99171057     0.00077812626  0.00024914256  0.00064918564  133.6174       133.31928      131.93429      1.1725461      1.4873179      2.6598641    
     24800   0.99731599    -0.00010993469  0.0013619664   0.0005228569   133.64886      133.31928      131.93429      1.1738514      1.4957246      2.6695761    
     24900   0.99560765     0.00046738257 -0.00012853436 -6.5882176e-05  133.68032      133.31928      131.93429      1.1929387      1.4931626      2.6861013    
     25000   1.0166732      0.0001430598  -0.00014802386  0.00020227122  133.71178      133.31928      131.93429      1.1823285      1.5247557      2.7070842    
     25100   1.0131231      0.00034841987  0.0007029869   0.00077516633  133.74324      133.31928      131.93429      1.2036235      1.5194314      2.7230549    
     25200   1.0204565      0.00021504572  0.0014908278   0.00096609802  133.7747       133.31928      131.93429      1.2028501      1.5304296      2.7332797    
     25300   1.0032657     -0.00011971697 -0.00071087886 -0.00052813283  133.80616      133.31928      131.93429      1.2325675      1.5046477      2.7372152    
     25400   0.99558612    -0.00036366938  5.765861e-05   0.00031518375  133.83763      133.31928      131.93429      1.2388197      1.4931303      2.73195      
     25500   1.0061772      0.00038396636  0.00060308935  0.0011964189   133.86909      133.31928      131.93429      1.2062407      1.5090143      2.7152549    
     25600   0.99305678    -9.5427542e-05 -0.00026851008 -0.00020933314  133.90055      133.31928      131.93429      1.2026081      1.4893369      2.691945     
     25700   0.98904777     0.00052631477 -9.4989642e-05  0.00031482838  133.93201      133.31928      131.93429      1.1862465      1.4833244      2.6695709    
     25800   0.98848066     0.00079446517  0.00043795921  0.0012190643   133.96347      133.31928      131.93429      1.1756623      1.4824739      2.6581361    
     25900   0.98557535     1.5298533e-05  0.00024263686 -2.3824866e-05  133.99493      133.31928      131.93429      1.1819009      1.4781166      2.6600175    
     26000   1.0072721     -0.00013818151  0.00018650089 -8.6228972e-05  134.0264       133.31928      131.93429      1.1625838      1.5106563      2.67324      
     26100   1.0020793      0.00072187404  0.00020097016  0.00082885459  134.05786      133.31928      131.93429      1.1897913      1.5028684      2.6926597    
     26200   0.99373764    -0.00015240735  6.3781263e-05  2.7073519e-05  134.08932      133.31928      131.93429      1.2222381      1.490358       2.7125961    
     26300   1.010599      -0.00030181395  0.00026930265 -0.00051509271  134.12078      133.31928      131.93429      1.208198       1.5156458      2.7238437    
     26400   1.0162926      0.00038707315  1.8298322e-05  0.00021532952  134.15224      133.31928      131.93429      1.1958337      1.5241848      2.7200185    
     26500   0.99219616     0.00080591981 -0.00027600032  0.00049705984  134.1837       133.31928      131.93429      1.2197044      1.4880462      2.7077506    
     26600   0.98285154    -0.00079534563  0.000875251    0.00021945873  134.21517      133.31928      131.93429      1.2222775      1.4740316      2.6963091    
     26700   1.008206       0.00044647289  0.00021328637  0.00047106813  134.24663      133.31928      131.93429      1.1768043      1.512057       2.6888613    
     26800   1.0021752     -0.00022959824 -0.00098236432 -0.00022055813  134.27809      133.31928      131.93429      1.1803298      1.5030122      2.683342     
     26900   1.0024806     -5.8177154e-05  0.00039448424  0.00098182941  134.30955      133.31928      131.93429      1.178516       1.5034703      2.6819863    
     27000   0.99918348     0.00041195573  0.0015753008   0.0013652347   134.34101      133.31928      131.93429      1.1892443      1.4985254      2.6877697    
     27100   1.0045067      0.00063247942 -0.00058202957 -0.00027788738  134.37247      133.31928      131.93429      1.1933156      1.5065089      2.6998246    
     27200   0.99982371    -0.00082212483 -0.00034586284 -0.00082329548  134.40393      133.31928      131.93429      1.2147684      1.4994856      2.714254     
     27300   1.001168       0.0010927672   0.00061496963  0.00028352474  134.4354       133.31928      131.93429      1.2276494      1.5015017      2.7291511    
     27400   1.0018828      0.0007962401   0.00088565594  0.00070625145  134.46686      133.31928      131.93429      1.2382904      1.5025737      2.7408641    
     27500   1.0188138     -0.00019279615 -0.00032966771 -0.00061587654  134.49832      133.31928      131.93429      1.2206439      1.5279659      2.7486099    
     27600   1.0117756     -0.0001329706   0.00012529158  0.00027745875  134.52978      133.31928      131.93429      1.2315292      1.5174105      2.7489397    
     27700   1.0076852      0.00060533761  0.00024021387  0.0013373728   134.56124      133.31928      131.93429      1.2243856      1.511276       2.7356615    
     27800   1.0006311      0.00013937479  0.00023173582  0.00013119013  134.5927       133.31928      131.93429      1.2125982      1.5006964      2.7132947    
     27900   1.0036536     -0.00044563481 -0.00036611337 -0.00040184212  134.62417      133.31928      131.93429      1.1786668      1.5052295      2.6838963    
     28000   0.98677895     0.00066997778  0.00024631372  9.4974895e-06  134.65563      133.31928      131.93429      1.173173       1.4799217      2.6530948    
     28100   0.98159928     0.00031224803 -0.00010273317  0.00090694722  134.68709      133.31928      131.93429      1.1553316      1.4721535      2.6274851    
     28200   0.96719815     0.00013126903  6.6788511e-05 -0.0003480664   134.71855      133.31928      131.93429      1.1664722      1.4505554      2.6170276    
     28300   0.99678516     5.0438498e-08  0.0008089735   0.00013448605  134.75001      133.31928      131.93429      1.132621       1.4949285      2.6275496    
     28400   0.99964861    -0.00021601628  6.9607336e-05  0.0010362223   134.78147      133.31928      131.93429      1.1529379      1.499223       2.6521609    
     28500   1.0142878     -0.00034451965  0.00027720214 -0.00024170908  134.81294      133.31928      131.93429      1.1571517      1.5211782      2.6783298    
     28600   1.0042853      0.00079641518 -0.00014154859 -0.00097146466  134.8444       133.31928      131.93429      1.1949582      1.5061769      2.7011351    
     28700   1.0291776      0.00029428127  0.00026366139  0.00076739478  134.87586      133.31928      131.93429      1.1690709      1.5435091      2.71258      
     28800   1.0082485     -0.00031179942 -0.00060243877 -3.1447471e-05  134.90732      133.31928      131.93429      1.1964511      1.5121207      2.7085718    
     28900   1.0046946      0.00097042431  0.00073459957 -0.00014091199  134.93878      133.31928      131.93429      1.1896708      1.5067907      2.6964616    
     29000   0.98352467     0.0011533823   0.00085674077  0.00067097513  134.97024      133.31928      131.93429      1.2092601      1.4750411      2.6843013    
     29100   0.99264067    -0.00041181298 -0.00013684126 -0.00042660655  135.00171      133.31928      131.93429      1.1898537      1.4887128      2.6785666    
     29200   0.99033578    -0.0010643442  -0.00020349206  0.00029503163  135.03317      133.31928      131.93429      1.1935099      1.4852561      2.6787659    
     29300   1.0023249      0.001429905    3.1347941e-05  0.00086680388  135.06463      133.31928      131.93429      1.1800843      1.5032368      2.6833211    
     29400   0.99600447     0.00084187764  0.00084323061  0.00034980308  135.09609      133.31928      131.93429      1.1970751      1.4937577      2.6908329    
     29500   1.0026737     -0.0006785447   0.00038514595 -0.00024114877  135.12755      133.31928      131.93429      1.1957887      1.50376        2.6995487    
     29600   0.99956164    -0.00026349231  0.00012756639 -0.00030424     135.15901      133.31928      131.93429      1.2079203      1.4990926      2.7070129    
     29700   0.98943861     0.00060467048  0.00015836765  0.00030332843  135.19047      133.31928      131.93429      1.2313462      1.4839106      2.7152568    
     29800   1.0007525      0.00053739125  5.9126214e-05  0.00077661475  135.22194      133.31928      131.93429      1.2262026      1.5008786      2.7270811    
     29900   1.0000217     -0.00049963498 -0.00028586099  2.7702729e-05  135.2534       133.31928      131.93429      1.2370173      1.4997826      2.7367999    
     30000   1.0261846     -0.00010862858  0.00096281198  0.00021589965  135.28486      133.31928      131.93429      1.1979668      1.5390203      2.7369871    
     30100   1.0112229     -9.9788131e-05 -0.00028347216  0.00052458881  135.31632      133.31928      131.93429      1.2044806      1.5165816      2.7210622    
     30200   0.99053773    -0.0003217407  -0.0005766768  -0.00098385385  135.34778      133.31928      131.93429      1.2093155      1.485559       2.6948744    
     30300   1.0034514      0.00077781586  0.0003117594   0.00021189586  135.37924      133.31928      131.93429      1.1603376      1.5049262      2.6652638    
     30400   0.98011805     0.00069600389  0.00026239285  0.0011148233   135.41071      133.31928      131.93429      1.1697891      1.469932       2.6397212    
     30500   0.97714517    -0.00040263959  0.00016679136  2.5126107e-05  135.44217      133.31928      131.93429      1.1577773      1.4654735      2.6232507    
     30600   0.97952726     0.0011331889   0.00014383011  9.5921756e-05  135.47363      133.31928      131.93429      1.1562559      1.469046       2.6253019    
     30700   0.97972084     0.00036397184  0.00040705202  0.00017957196  135.50509      133.31928      131.93429      1.1763087      1.4693363      2.6456451    
     30800   1.0048308     -0.00058063227 -7.2389424e-05 -0.00011246232  135.53655      133.31928      131.93429      1.1692248      1.506995       2.6762197    
     30900   1.0233967     -0.00010817409  0.00090475346  0.00015916463  135.56801      133.31928      131.93429      1.1695221      1.5348392      2.7043613    
     31000   1.0083025      0.00047735165 -0.0005326267  -0.00014392952  135.59948      133.31928      131.93429      1.2094862      1.5122016      2.7216879    
     31100   1.0203107      0.0011094209   0.00040778499  0.00038496228  135.63094      133.31928      131.93429      1.2011573      1.530211       2.7313682    
     31200   1.0132463     -0.00057886878 -0.00023968887  0.00018479856  135.6624       133.31928      131.93429      1.2094982      1.5196161      2.7291144    
     31300   1.0119488      0.00010197748  0.00041551459  0.00029431764  135.69386      133.31928      131.93429      1.2005311      1.5176703      2.7182014    
     31400   0.98529583     0.00027031111  0.00018528819  5.3769935e-05  135.72532      133.31928      131.93429      1.2204601      1.4776974      2.6981576    
     31500   0.98739936     3.7049865e-05  0.00010117537 -1.2565873e-06  135.75678      133.31928      131.93429      1.1977065      1.4808522      2.6785587    
     31600   1.0017168      2.9052068e-05  0.00067266181 -0.00074587911  135.78825      133.31928      131.93429      1.1619611      1.5023248      2.6642859    
     31700   0.97392613     0.00057630148 -0.00059839324  0.00046480687  135.81971      133.31928      131.93429      1.1968548      1.4606457      2.6575005    
     31800   0.99176378    -1.1422687e-06  0.00017067413  0.00055254596  135.85117      133.31928      131.93429      1.1759591      1.4873977      2.6633568    
     31900   0.9865563     -0.00082587245 -0.0004719348  -0.00014930358  135.88263      133.31928      131.93429      1.2004468      1.4795878      2.6800346    
     32000   0.99419679     0.00092968798  0.00052762886  0.00021191993  135.91409      133.31928      131.93429      1.2146645      1.4910466      2.7057111    
     32100   1.0104961      5.426841e-05   0.00070226372  0.0010147829   135.94555      133.31928      131.93429      1.2145817      1.5154915      2.7300733    
     32200   1.0087067     -0.0012657646  -0.0009746198  -0.00054630368  135.97701      133.31928      131.93429      1.2315764      1.5128079      2.7443843    
     32300   1.0138071      5.1447143e-05 -6.5865457e-05 -0.00096836161  136.00848      133.31928      131.93429      1.2249593      1.5204571      2.7454165    
     32400   1.0173823      0.00075822891  0.001264465    0.0013817947   136.03994      133.31928      131.93429      1.2048365      1.5258191      2.7306556    
     32500   1.005637       0.00016886575 -8.6414554e-05  0.00042675339  136.0714       133.31928      131.93429      1.198483       1.5082041      2.7066871    
     32600   0.98799153    -0.00093156569 -0.0015041815  -0.0011057873   136.10286      133.31928      131.93429      1.197654       1.4817403      2.6793943    
     32700   0.99345302     0.00086748227  0.0011294185   0.00082297313  136.13432      133.31928      131.93429      1.166849       1.4899312      2.6567802    
     32800   0.99114986     0.00079828505  0.0010004417   0.00010386319  136.16578      133.31928      131.93429      1.1578339      1.486477       2.644311     
     32900   0.98581863     4.9248621e-06 -8.8333211e-05  0.00020532241  136.19725      133.31928      131.93429      1.1691542      1.4784815      2.6476357    
     33000   0.97536051    -0.00019449059 -0.00036372788 -0.00026838355  136.22871      133.31928      131.93429      1.2009066      1.4627969      2.6637035    
     33100   1.0125036      0.00013749918  0.00035064421  6.6500195e-05  136.26017      133.31928      131.93429      1.1660514      1.5185023      2.6845537    
     33200   1.0056032     -0.00019137309 -0.00028249276 -3.1120936e-05  136.29163      133.31928      131.93429      1.1987805      1.5081534      2.7069339    
     33300   1.004105       0.00026766289 -9.8846904e-05  0.00088407422  136.32309      133.31928      131.93429      1.2203994      1.5059064      2.7263059    
     33400   1.0087822     -7.543897e-05   0.0011982317   0.00092538201  136.35455      133.31928      131.93429      1.2250339      1.5129211      2.737955     
     33500   1.0127854      0.00018411877 -0.000562028   -0.00010620695  136.38602      133.31928      131.93429      1.2191967      1.5189249      2.7381216    
     33600   1.0055899      0.00044617678  0.00068855699  4.4761165e-05  136.41748      133.31928      131.93429      1.218609       1.5081334      2.7267424    
     33700   0.99368661     0.00024074159 -0.00064222462  0.00064749558  136.44894      133.31928      131.93429      1.2200458      1.4902815      2.7103273    
     33800   1.0016932     -0.00036551384 -0.00032049394 -0.0003005105   136.4804       133.31928      131.93429      1.1865666      1.5022894      2.6888559    
     33900   1.0030604      0.00026613233  0.00093202196  0.00033162415  136.51186      133.31928      131.93429      1.1642902      1.5043399      2.6686301    
     34000   0.97911973     0.00048056328  0.00028202369  0.00065321434  136.54332      133.31928      131.93429      1.1869585      1.4684348      2.6553934    
     34100   0.98426201     8.6389781e-05 -0.0005004549  -9.070421e-05   136.57478      133.31928      131.93429      1.1754628      1.476147       2.6516098    
     34200   0.97998714    -0.00049091543  0.00062400974 -7.4910463e-05  136.60625      133.31928      131.93429      1.1876354      1.4697357      2.6573711    
     34300   1.004041       0.00068088113  0.00033647543  0.00084130766  136.63771      133.31928      131.93429      1.1650956      1.5058105      2.6709061    
     34400   1.0185492     -0.00035641723 -7.6438535e-05  0.00012397765  136.66917      133.31928      131.93429      1.1603526      1.5275691      2.6879218    
     34500   1.0137941     -0.00019318642 -0.00029489641 -0.00087861247  136.70063      133.31928      131.93429      1.1784886      1.5204376      2.6989263    
     34600   0.99632342     0.00020223821  0.00042875956 -0.00040074506  136.73209      133.31928      131.93429      1.2040037      1.494236       2.6982397    
     34700   1.0136587     -0.00056897399  0.00017941469  0.00052293641  136.76355      133.31928      131.93429      1.1665856      1.5202346      2.6868201    
     34800   0.98064409     6.3350917e-05 -0.00052498873 -0.00035586187  136.79502      133.31928      131.93429      1.2014145      1.470721       2.6721355    
     34900   0.99671142     0.00075880354  0.00042044005 -5.7046304e-05  136.82648      133.31928      131.93429      1.1670196      1.494818       2.6618376    
     35000   0.99072288    -0.00032095943  0.00027562794  0.00019935103  136.85794      133.31928      131.93429      1.1714459      1.4858366      2.6572825    
     35100   0.9867896     -0.00028102251  8.0212898e-05  0.00028128947  136.8894       133.31928      131.93429      1.1822978      1.4799377      2.6622355    
     35200   1.0075329      0.00035847037  0.00032639772  0.00051028837  136.92086      133.31928      131.93429      1.1651807      1.5110474      2.6762281    
     35300   1.0078853      0.00056291574  0.00076424043 -0.00012100398  136.95232      133.31928      131.93429      1.1828282      1.5115759      2.6944041    
     35400   1.0184457     -0.00030779549 -0.00056490463  0.00036862726  136.98379      133.31928      131.93429      1.1812012      1.527414       2.7086151    
     35500   1.0170082     -0.00022226869 -0.00028996616  2.5493071e-05  137.01525      133.31928      131.93429      1.1879932      1.525258       2.7132513    
     35600   0.99505659     0.00037162051  0.001309588    0.0011544151   137.04671      133.31928      131.93429      1.2184857      1.4923361      2.7108219    
     35700   0.99686795     0.00023715865 -7.0252488e-05  0.00081793958  137.07817      133.31928      131.93429      1.2106078      1.4950527      2.7056605    
     35800   1.0097032     -0.00026505333 -0.0010299932  -0.0007796897   137.10963      133.31928      131.93429      1.1877838      1.5143023      2.7020861    
     35900   1.0093453      0.00038836144  0.00052280508 -0.00053978331  137.14109      133.31928      131.93429      1.1821018      1.5137656      2.6958674    
     36000   1.0118937      0.00091640071  0.0012081296   0.00099927372  137.17256      133.31928      131.93429      1.1705056      1.5175875      2.6880932    
     36100   1.0048873      0.00046255025 -0.00034005395  0.00041988246  137.20402      133.31928      131.93429      1.1710735      1.5070797      2.6781533    
     36200   1.0109083     -0.00030839698 -1.9154856e-05 -0.0012172664   137.23548      133.31928      131.93429      1.1522968      1.5161097      2.6684065    
     36300   0.99416224     0.00071294654  7.1847464e-05 -1.9135232e-05  137.26694      133.31928      131.93429      1.1722556      1.4909948      2.6632504    
     36400   0.9727049      0.00028324688  0.00065098366  0.00068980454  137.2984       133.31928      131.93429      1.2046368      1.4588142      2.6634509    
     36500   0.98628568    -0.00027832218 -1.8279445e-05  0.00021225329  137.32986      133.31928      131.93429      1.1960175      1.4791819      2.6751994    
     36600   0.99714242     0.00038164282 -3.5873838e-06  0.00050235145  137.36132      133.31928      131.93429      1.1981858      1.4954643      2.6936501    
     36700   1.0199968      0.00072356708 -0.00040715066 -5.1823209e-05  137.39279      133.31928      131.93429      1.1799504      1.5297402      2.7096906    
     36800   1.0214292     -0.0010237252   0.00045507015 -7.5390828e-05  137.42425      133.31928      131.93429      1.1847201      1.5318884      2.7166085    
     36900   1.0134991      0.00039586836  0.00038278161 -4.3062073e-05  137.45571      133.31928      131.93429      1.1950552      1.5199953      2.7150505    
     37000   1.0262248      0.00072467339  8.4208117e-05  8.8215969e-05  137.48717      133.31928      131.93429      1.1648263      1.5390807      2.703907     
     37100   1.0031829     -0.00013512596  1.2571582e-05 -0.0001872997   137.51863      133.31928      131.93429      1.1797487      1.5045235      2.6842722    
     37200   0.98367402    -0.00014285864  8.4836777e-05  0.00088165313  137.55009      133.31928      131.93429      1.185544       1.4752651      2.6608091    
     37300   0.97961468     4.9703214e-05  2.040666e-05   0.00021895268  137.58156      133.31928      131.93429      1.1720226      1.4691771      2.6411997    
     37400   0.98531        6.4600455e-05  0.00015791369 -0.00054929554  137.61302      133.31928      131.93429      1.1544005      1.4777187      2.6321192    
     37500   0.98966487    -0.00026656592  0.00027077914 -0.00032284866  137.64448      133.31928      131.93429      1.1471626      1.4842499      2.6314124    
     37600   0.98756568     0.00071128462  0.00033816332  0.0011752759   137.67594      133.31928      131.93429      1.1591525      1.4811016      2.6402541    
     37700   0.98408541     0.00073650356  0.00093354646  0.00053022664  137.7074       133.31928      131.93429      1.1826691      1.4758821      2.6585512    
     37800   0.999578      -0.00013312859 -7.9672466e-05 -0.00066700706  137.73886      133.31928      131.93429      1.1869744      1.4991171      2.6860915    
     37900   1.0076251      7.4100885e-05  0.00037498916 -0.00043267349  137.77033      133.31928      131.93429      1.2044047      1.5111858      2.7155905    
     38000   1.0094882      9.2480157e-05  0.00094700171  0.0008835519   137.80179      133.31928      131.93429      1.2256664      1.5139799      2.7396463    
     38100   1.0278717     -0.00019635653 -0.00038477644 -0.00017191359  137.83325      133.31928      131.93429      1.2089899      1.5415505      2.7505405    
     38200   1.0288175      0.00062044106 -0.00020092898 -7.7580508e-05  137.86471      133.31928      131.93429      1.2013946      1.5429691      2.7443636    
     38300   1.0044424      0.00018062563 -0.00023071202  0.00084731368  137.89617      133.31928      131.93429      1.2152812      1.5064125      2.7216937    
     38400   0.99993827    -0.00014381434 -0.00022036697 -0.0015046079   137.92763      133.31928      131.93429      1.1860184      1.4996574      2.6856758    
     38500   0.99383393    -0.00013035055  0.00045946372  0.00064918515  137.9591       133.31928      131.93429      1.1584691      1.4905024      2.6489715    
     38600   0.98926664     0.00088671153  0.00017872331  0.0019592585   137.99056      133.31928      131.93429      1.1403122      1.4836526      2.6239648    
     38700   0.96164863    -2.7207501e-05 -8.7089685e-05  3.3786963e-06  138.02202      133.31928      131.93429      1.1734413      1.4422325      2.6156738    
     38800   0.99475638     0.00019420635 -0.00041524556 -0.00040603661  138.05348      133.31928      131.93429      1.1344848      1.4918859      2.6263707    
     38900   0.98994503    -0.00012467828  0.00034897343  0.00033716431  138.08494      133.31928      131.93429      1.1660454      1.4846701      2.6507154    
     39000   1.0053191     -7.7352771e-05 -0.00017463261  0.00062170628  138.1164       133.31928      131.93429      1.1701088      1.5077273      2.6778362    
     39100   1.0179611      0.00027986172  0.00043050576 -0.00064616671  138.14786      133.31928      131.93429      1.1748593      1.5266872      2.7015465    
     39200   1.0302015      0.00024697011  0.0004632067   0.00059580069  138.17933      133.31928      131.93429      1.1696912      1.5450446      2.7147358    
     39300   1.0150083     -0.00011396157 -0.00076675836  0.00018647238  138.21079      133.31928      131.93429      1.1901402      1.5222587      2.7123989    
     39400   1.003862      -0.0002583709  -0.00021999922 -0.00065187256  138.24225      133.31928      131.93429      1.1919395      1.5055421      2.6974816    
     39500   1.000771      -2.9157081e-05 -0.00031482508  0.0004167197   138.27371      133.31928      131.93429      1.173839       1.5009063      2.6747454    
     39600   0.99338721     0.00083483716  0.00055933538  0.00076733134  138.30517      133.31928      131.93429      1.1681151      1.4898325      2.6579475    
     39700   0.97744764     0.00025040521  0.00027919192 -0.00021939352  138.33663      133.31928      131.93429      1.1838113      1.4659271      2.6497384    
     39800   0.98893532    -6.4393723e-05 -0.00012821602  0.00040852261  138.3681       133.31928      131.93429      1.1708785      1.4831557      2.6540343    
     39900   0.97405171    -0.00041181572 -0.00055639899 -3.8611966e-05  138.39956      133.31928      131.93429      1.2073766      1.460834       2.6682106    
     40000   0.9942829      0.00025282782 -0.00026836526  0.00018391089  138.43102      133.31928      131.93429      1.1974116      1.4911758      2.6885874    
     40100   1.0073077      0.00021530183  0.00028782679  4.1930493e-05  138.46248      133.31928      131.93429      1.1982305      1.5107097      2.7089402    
     40200   0.9847049     -0.00044892667 -2.3923899e-05 -0.00018585694  138.49394      133.31928      131.93429      1.2485824      1.4768112      2.7253935    
     40300   1.0117087      0.00075733857  0.0010990626   0.00078806726  138.5254       133.31928      131.93429      1.2223366      1.5173101      2.7396466    
     40400   1.0194848      0.0002538184   0.00065133128  0.00019405595  138.55687      133.31928      131.93429      1.2207619      1.5289723      2.7497343    
     40500   1.0163948     -0.00040249198 -0.00099091327 -0.00025082421  138.58833      133.31928      131.93429      1.2259057      1.5243381      2.7502439    
     40600   1.0100725     -8.8163206e-05  0.00042265478  0.00027296651  138.61979      133.31928      131.93429      1.2223249      1.5148562      2.7371811    
     40700   1.0019417     -7.0422862e-05  0.00079774772  0.00047529558  138.65125      133.31928      131.93429      1.2106032      1.5026621      2.7132653    
     40800   1.0088694      0.00012209061 -0.00012055434  0.00031778902  138.68271      133.31928      131.93429      1.1696586      1.5130519      2.6827105    
     40900   0.99130683    -0.00011985825 -0.0001492217  -0.00015006077  138.71417      133.31928      131.93429      1.1679547      1.4867124      2.6546672    
     41000   0.99151349    -0.00043857683  0.00022332732  0.00039342756  138.74564      133.31928      131.93429      1.1488146      1.4870224      2.6358369    
     41100   0.98087192     0.00019126236  0.00068816164  0.00085917775  138.7771       133.31928      131.93429      1.1599381      1.4710627      2.6310007    
     41200   1.0013483      0.00084526394 -0.00045450065  0.00026667943  138.80856      133.31928      131.93429      1.1403162      1.501772       2.6420882    
     41300   0.98875361    -0.00014094703 -0.00052096549 -0.0008668725   138.84002      133.31928      131.93429      1.1821281      1.4828832      2.6650113    
     41400   1.0173212      0.00016880753  0.0012011249  -0.00056274314  138.87148      133.31928      131.93429      1.1651037      1.5257275      2.6908312    
     41500   1.0033077      1.8986658e-05 -1.1099661e-05  0.00042505493  138.90294      133.31928      131.93429      1.205567       1.5047107      2.7102777    
     41600   1.0129498     -0.00011153402 -0.00062971766 -9.6902146e-05  138.9344       133.31928      131.93429      1.1986549      1.5191714      2.7178263    
     41700   1.0152902      0.0010733469   0.00022741079  0.0001640672   138.96587      133.31928      131.93429      1.192576       1.5226814      2.7152574    
     41800   1.0078949     -0.00018848159  4.1791526e-05  0.00049426399  138.99733      133.31928      131.93429      1.1919148      1.5115903      2.7035051    
     41900   0.99606745    -0.00085539387 -0.0007654017   0.00049591037  139.02879      133.31928      131.93429      1.1939791      1.4938522      2.6878312    
     42000   1.008968      -3.0540074e-05  7.4137482e-05 -4.9745367e-05  139.06025      133.31928      131.93429      1.1598205      1.5131998      2.6730203    
     42100   0.98863685     0.00021285147  0.00069767225  0.00046510621  139.09171      133.31928      131.93429      1.1792133      1.4827081      2.6619214    
     42200   0.98616716     0.0003002368  -0.00010251288  0.00034195487  139.12317      133.31928      131.93429      1.1802791      1.4790042      2.6592833    
     42300   0.98769027    -0.00011669996  6.587896e-05   7.3364273e-05  139.15464      133.31928      131.93429      1.1839702      1.4812885      2.6652587    
     42400   0.99601468     0.00051282721 -0.00013649422  0.00076087578  139.1861       133.31928      131.93429      1.1867775      1.493773       2.6805505    
     42500   0.99122187    -5.3374055e-05  0.00051922389 -0.00079922372  139.21756      133.31928      131.93429      1.2138494      1.486585       2.7004344    
     42600   1.0131996      0.00011612209  0.00022708784  0.00089944003  139.24902      133.31928      131.93429      1.1991767      1.5195462      2.7187229    
     42700   1.0224601     -0.0002441503   0.00038152251 -0.00031524072  139.28048      133.31928      131.93429      1.1931474      1.5334345      2.7265819    
     42800   1.0173073      0.00044289763  0.00019421443  0.00020156588  139.31194      133.31928      131.93429      1.1959905      1.5257067      2.7216971    
     42900   0.9968493      0.00030049971  0.00048335779  0.00036030209  139.34341      133.31928      131.93429      1.2123125      1.4950247      2.7073372    
     43000   0.99663074    -0.00065378813 -5.0036435e-06 -0.00086779566  139.37487      133.31928      131.93429      1.1950465      1.4946969      2.6897434    
     43100   1.0000319     -0.0001195835   0.00062972494  2.3735208e-05  139.40633      133.31928      131.93429      1.1721596      1.4997978      2.6719574    
     43200   0.98596475     0.0013858697   0.00045971298  0.00068240136  139.43779      133.31928      131.93429      1.1761028      1.4787006      2.6548034    
     43300   0.99593544     0.00046891515  0.00026304841  0.00028115722  139.46925      133.31928      131.93429      1.1523897      1.4936542      2.6460439    
     43400   0.97071776    -0.001145034   -0.00034260485 -0.00058739208  139.50071      133.31928      131.93429      1.1883854      1.455834       2.6442193    
     43500   0.98118852    -6.9263436e-05 -0.00038271221  0.00028558722  139.53217      133.31928      131.93429      1.1780369      1.4715375      2.6495743    
     43600   1.0087167      0.00033601923 -0.00015166658  0.00036201054  139.56364      133.31928      131.93429      1.1470143      1.5128228      2.6598371    
     43700   0.98902561    -0.000340523    0.00040256717 -0.00023548814  139.5951       133.31928      131.93429      1.1865121      1.4832912      2.6698032    
     43800   1.0159068     -0.00016110218  0.00077680117  0.0011203812   139.62656      133.31928      131.93429      1.1561949      1.5236062      2.6798011    
     43900   1.0184536      1.7117301e-05 -0.00070068761  0.00021062525  139.65802      133.31928      131.93429      1.1596554      1.5274258      2.6870812    
     44000   0.99849502    -0.00046466367 -0.00026107288 -0.00090466673  139.68948      133.31928      131.93429      1.1925074      1.4974929      2.6900003    
     44100   1.001114       0.00032019798  0.00035893986  0.00011786134  139.72094      133.31928      131.93429      1.1863883      1.5014207      2.687809     
     44200   0.99393586     0.00016632136  0.00043197331  0.0011144011   139.75241      133.31928      131.93429      1.1917088      1.4906553      2.6823642    
     44300   0.99429896    -9.1888778e-05 -0.00010946527 -0.0001865858   139.78387      133.31928      131.93429      1.1807153      1.4911999      2.6719152    
     44400   0.99742365    -1.6593193e-05 -0.0004625678  -6.9432914e-05  139.81533      133.31928      131.93429      1.1638085      1.4958861      2.6596946    
     44500   0.98569412    -5.8259978e-05 -0.00029352105 -6.2003733e-05  139.84679      133.31928      131.93429      1.1729182      1.4782948      2.651213     
     44600   0.97915711    -0.00015130575  0.0011540718   0.00017947819  139.87825      133.31928      131.93429      1.1841899      1.4684909      2.6526807    
     44700   0.99054272     0.00024657273 -0.00030612544 -6.856642e-05   139.90971      133.31928      131.93429      1.1799417      1.4855664      2.6655081    
     44800   1.0133294     -0.00014699013 -0.00033593782  0.00010435377  139.94118      133.31928      131.93429      1.1626363      1.5197407      2.682377     
     44900   1.0160806      0.00010259436  0.00092978413 -0.00048835637  139.97264      133.31928      131.93429      1.1754296      1.5238669      2.6992965    
     45000   1.0045281      0.00020332479  0.00028963033  0.00010776149  140.0041       133.31928      131.93429      1.2047573      1.506541       2.7112983    
     45100   1.0125644     -0.00025627625 -0.000772224    0.00029910128  140.03556      133.31928      131.93429      1.1973566      1.5185935      2.7159501    
     45200   1.0190599     -0.00047489031 -0.00019616387  0.00033562364  140.06702      133.31928      131.93429      1.1820081      1.528335       2.7103431    
     45300   1.0031766      0.00057250823  0.00095430955 -0.00017300316  140.09848      133.31928      131.93429      1.1912132      1.5045142      2.6957274    
     45400   0.99729012     8.0736835e-05 -0.00012491491  0.0010912486   140.12995      133.31928      131.93429      1.1817109      1.4956859      2.6773968    
     45500   1.0000219     -0.0002908402  -0.00048880986  5.820419e-05   140.16141      133.31928      131.93429      1.1593921      1.4997829      2.6591751    
     45600   0.98296914    -0.00067215905 -2.5677788e-05 -0.00047463793  140.19287      133.31928      131.93429      1.1680992      1.474208       2.6423072    
     45700   0.97990121     0.0012832925   0.0005587367   0.00038347489  140.22433      133.31928      131.93429      1.1639915      1.4696068      2.6335983    
     45800   0.992323       0.0011053778   0.00043734803  0.00025971208  140.25579      133.31928      131.93429      1.1460983      1.4882364      2.6343347    
     45900   0.98432694    -0.00065147359 -0.00030243148 -0.00044163958  140.28725      133.31928      131.93429      1.1686381      1.4762443      2.6448824    
     46000   1.0075342      0.00025659094  0.00015519733  0.00025630517  140.31871      133.31928      131.93429      1.1505402      1.5110494      2.6615896    
     46100   1.0217096      0.00055190009  0.00040455948  0.00051908811  140.35018      133.31928      131.93429      1.1449114      1.532309       2.6772204    
     46200   1.0002187      0.00035899764  0.00029307693 -0.00050794235  140.38164      133.31928      131.93429      1.1883307      1.500078       2.6884088    
     46300   1.0057808     -0.00090261554 -0.00058507799 -0.00069006044  140.4131       133.31928      131.93429      1.1847209      1.5084197      2.6931406    
     46400   0.99540144     0.00033770722  0.00021150595  0.00091070006  140.44456      133.31928      131.93429      1.1984031      1.4928533      2.6912564    
     46500   1.0048336      0.0011446388   0.0005440977   0.00072498861  140.47602      133.31928      131.93429      1.1776686      1.5069992      2.6846678    
     46600   1.0022895     -6.1813952e-05  2.8025075e-05 -0.00083985141  140.50748      133.31928      131.93429      1.1716171      1.5031837      2.6748008    
     46700   0.99187692    -0.00056230357  0.00014421142 -5.200873e-05   140.53895      133.31928      131.93429      1.1757337      1.4875674      2.6633011    
     46800   0.98907985     0.00046641165  0.0011215218   0.00064569783  140.57041      133.31928      131.93429      1.1709081      1.4833725      2.6542806    
     46900   1.0024892      0.00067577507 -0.00072655157 -0.00062744926  140.60187      133.31928      131.93429      1.1454998      1.5034831      2.6489829    
     47000   1.0083462     -0.00078017522 -0.00024265194  1.6917169e-05  140.63333      133.31928      131.93429      1.1379248      1.5122672      2.650192     
     47100   1.0087364     -5.1689613e-05  0.00032580204  0.00078279803  140.66479      133.31928      131.93429      1.1437445      1.5128524      2.6565969    
     47200   0.99714961     0.00081514982  1.3543363e-05 -0.00016554843  140.69625      133.31928      131.93429      1.1691327      1.4954751      2.6646079    
     47300   0.98997144    -6.7834937e-05 -0.0003605525  -0.00087672565  140.72772      133.31928      131.93429      1.1895135      1.4847097      2.6742232    
     47400   0.99893807    -0.00058944823  0.00025335745  0.00080752393  140.75918      133.31928      131.93429      1.1870594      1.4981574      2.6852167    
     47500   1.0144749      0.00093328316 -0.00016579218  0.00097756978  140.79064      133.31928      131.93429      1.1719725      1.5214587      2.6934311    
     47600   1.0170003     -0.0002710677  -1.0138183e-05  0.00085961842  140.8221       133.31928      131.93429      1.1687978      1.5252462      2.694044     
     47700   1.0101762     -0.0005581681   0.00011408546  0.00011716282  140.85356      133.31928      131.93429      1.1695596      1.5150117      2.6845713    
     47800   1.0243845      0.00045399628  0.00013360822  0.0007153639   140.88502      133.31928      131.93429      1.1294228      1.5363207      2.6657434    
     47900   0.99780804     0.00065633246  0.00015360831  0.00024949137  140.91649      133.31928      131.93429      1.1484334      1.4964626      2.644896     
     48000   1.0054544      0.00052380433  0.00014961406  0.00033901032  140.94795      133.31928      131.93429      1.1220923      1.5079303      2.6300226    
     48100   0.99035741     3.9885143e-05 -0.00012523346  0.00015051457  140.97941      133.31928      131.93429      1.1392857      1.4852885      2.6245742    
     48200   0.99931661    -0.00044593618 -0.00016539015 -0.00046459576  141.01087      133.31928      131.93429      1.1301589      1.4987251      2.628884     
     48300   1.0066409      1.4712506e-05 -9.6661892e-05  0.00037957425  141.04233      133.31928      131.93429      1.1284345      1.5097096      2.6381442    
     48400   1.0116625     -2.9767415e-05  0.0011746628   0.00014968358  141.07379      133.31928      131.93429      1.1315974      1.5172409      2.6488382    
     48500   1.0090801     -0.00017741643  2.217302e-05  -0.00032677585  141.10525      133.31928      131.93429      1.147387       1.5133679      2.6607548    
     48600   1.009708       0.00033413924 -0.0007071189  -7.0090105e-05  141.13672      133.31928      131.93429      1.1560735      1.5143095      2.6703831    
     48700   1.0113617      0.00035773871  0.000539683    0.00034719761  141.16818      133.31928      131.93429      1.1561952      1.5167897      2.6729849    
     48800   1.0082291      0.00019517152  0.00068658424 -5.6855965e-06  141.19964      133.31928      131.93429      1.1576706      1.5120916      2.6697622    
     48900   1.0059391     -0.00012055799 -0.00036174514  0.00013242685  141.2311       133.31928      131.93429      1.1554686      1.5086572      2.6641258    
     49000   1.0024576      0.00060501387 -2.8578308e-05 -0.00038094274  141.26256      133.31928      131.93429      1.1547522      1.5034358      2.658188     
     49100   0.99986677    -0.00016504658  0.00020893372 -0.00022089434  141.29402      133.31928      131.93429      1.1486487      1.4995502      2.6481988    
     49200   0.99110183     0.0004082642  -1.6624806e-05  0.00092186785  141.32549      133.31928      131.93429      1.1499303      1.486405       2.6363353    
     49300   1.0005336      0.00034088965  0.00049432508  0.00012364348  141.35695      133.31928      131.93429      1.1288809      1.5005503      2.6294312    
     49400   0.97699115    -0.00045802784 -0.00040800386 -0.00023602215  141.38841      133.31928      131.93429      1.1615755      1.4652425      2.626818     
     49500   0.99130402     0.0006446544   0.00073737992  0.00017674808  141.41987      133.31928      131.93429      1.1431688      1.4867082      2.629877     
     49600   1.0085366      0.00053648797  0.00056305191  0.0005390788   141.45133      133.31928      131.93429      1.1250072      1.5125528      2.63756      
     49700   1.0223053     -0.00030320251 -0.00038249461  0.00055673382  141.48279      133.31928      131.93429      1.1138965      1.5332024      2.6470989    
     49800   1.0073334     -0.00081158633  0.00031982164 -0.00018760532  141.51426      133.31928      131.93429      1.145975       1.5107482      2.6567232    
     49900   1.0225163      0.0011320769  -0.00020121598  0.00010252321  141.54572      133.31928      131.93429      1.1278663      1.5335189      2.6613851    
     50000   0.99831057     0.00059290143 -0.00048456201 -7.6490135e-06  141.57718      133.31928      131.93429      1.1604726      1.4972163      2.6576889    
     50100   0.99944271    -0.0007205246   0.00070087525 -2.6427531e-05  141.60864      133.31928      131.93429      1.149006       1.4989142      2.6479202    
     50200   1.0078487     -0.00027252684  0.0011549305   0.00041203988  141.6401       133.31928      131.93429      1.1245575      1.5115211      2.6360786    
     50300   0.97399365     0.00031756769 -0.00043958774 -0.00021220245  141.67156      133.31928      131.93429      1.1638908      1.460747       2.6246378    
     50400   0.98931709     3.8754063e-05 -0.00019280572  0.00024458419  141.70303      133.31928      131.93429      1.1360213      1.4837283      2.6197496    
     50500   0.99888254    -0.0006985649  -4.5033114e-05  0.00023735273  141.73449      133.31928      131.93429      1.1201118      1.4980741      2.6181859    
     50600   0.99690074     0.0004535229   0.00031240076 -0.00027007598  141.76595      133.31928      131.93429      1.1255062      1.4951019      2.6206081    
     50700   1.0064006      0.00019955605  4.6029833e-05 -0.0003244674   141.79741      133.31928      131.93429      1.1148706      1.5093493      2.6242199    
     50800   1.0011077     -0.00019142252  0.00044508407  0.00045309347  141.82887      133.31928      131.93429      1.129145       1.5014113      2.6305563    
     50900   1.0005551      6.7137401e-05 -7.2122006e-05  0.00071029916  141.86033      133.31928      131.93429      1.1375645      1.5005826      2.6381471    
     51000   0.99068638    -0.00040217167  6.9787479e-06 -0.00061038976  141.89179      133.31928      131.93429      1.1618673      1.4857819      2.6476492    
     51100   0.99189152     0.000739101   -0.00015795799  4.3913835e-05  141.92326      133.31928      131.93429      1.1719385      1.4875893      2.6595278    
     51200   1.0054471      3.5140949e-05  0.00041683728  7.4860544e-05  141.95472      133.31928      131.93429      1.1582108      1.5079193      2.6661301    
     51300   1.0023287     -0.00010981262 -0.00020168583  0.0003963423   141.98618      133.31928      131.93429      1.1630346      1.5032424      2.666277     
     51400   1.0206439     -0.00015800031  6.3976392e-05 -0.00046126953  142.01764      133.31928      131.93429      1.1312362      1.5307107      2.661947     
     51500   1.0040987     -3.1868032e-06  0.0001301152  -0.00037021013  142.0491       133.31928      131.93429      1.1473527      1.505897       2.6532497    
     51600   0.98067472    -0.00023336316 -7.6071042e-05  0.00037428456  142.08056      133.31928      131.93429      1.1708862      1.4707669      2.6416531    
     51700   0.98587782     0.00019585279 -0.000253927    0.00053907078  142.11203      133.31928      131.93429      1.1541278      1.4785703      2.6326981    
     51800   0.993342      -7.0699986e-05  0.00010105106  0.00031308369  142.14349      133.31928      131.93429      1.1386772      1.4897647      2.6284419    
     51900   1.0004074      1.0300401e-06  0.00046246554 -0.00028982521  142.17495      133.31928      131.93429      1.1282807      1.500361       2.6286417    
     52000   1.0054026     -0.0005366633  -0.00043795212  0.00057270884  142.20641      133.31928      131.93429      1.1236508      1.5078525      2.6315032    
     52100   1.0053018      0.0010429938   0.00014128569  0.00056059327  142.23787      133.31928      131.93429      1.1274145      1.5077014      2.6351159    
     52200   0.99520927     0.00030352091  0.00078267652 -0.00038876777  142.26933      133.31928      131.93429      1.1464852      1.4925651      2.6390503    
     52300   1.0030777     -0.00058626403 -0.00071081669 -0.00025442818  142.3008       133.31928      131.93429      1.1350998      1.5043658      2.6394656    
     52400   1.0039919      0.00022861954 -3.3607072e-05  0.00091573586  142.33226      133.31928      131.93429      1.1321636      1.5057368      2.6379004    
     52500   0.99973067     1.6992961e-05 -0.00011112405 -0.00031968544  142.36372      133.31928      131.93429      1.1328715      1.4993461      2.6322176    
     52600   1.0085459     -0.00046205223 -0.00025940242 -0.00019567713  142.39518      133.31928      131.93429      1.113319       1.5125667      2.6258857    
     52700   0.98652556     0.00071165688  0.00017028241  9.3298214e-05  142.42664      133.31928      131.93429      1.1401715      1.4795417      2.6197132    
     52800   0.99154727    -0.00023601772  0.00086174265  0.00038158298  142.4581       133.31928      131.93429      1.1284675      1.487073       2.6155405    
     52900   0.99562218    -0.00029609303 -0.00027996444 -0.00027288503  142.48956      133.31928      131.93429      1.1207682      1.4931844      2.6139526    
     53000   0.99511347     0.0001307329  -0.00097951822 -0.00027312919  142.52103      133.31928      131.93429      1.1209694      1.4924214      2.6133908    
     53100   1.0017695     -0.00020436652  0.00080717045  0.00095405123  142.55249      133.31928      131.93429      1.1140089      1.5024037      2.6164127    
     53200   1.0011277     -0.000197948   -0.00016125858  0.00023090703  142.58395      133.31928      131.93429      1.1215729      1.5014413      2.6230143    
     53300   1.002387       0.0002185817  -0.0007770047   0.00012199078  142.61541      133.31928      131.93429      1.1292453      1.5033299      2.6325751    
     53400   0.99255062     0.00066271483  0.00042979751 -0.00017025169  142.64687      133.31928      131.93429      1.1517622      1.4885778      2.64034      
     53500   0.9978644      0.0004597309   0.0010067506   0.0001639279   142.67833      133.31928      131.93429      1.1522659      1.4965471      2.648813     
     53600   1.0055101     -0.00022559135 -0.00065866882 -0.00011792351  142.7098       133.31928      131.93429      1.1436048      1.5080138      2.6516186    
     53700   1.0194622     -8.0594609e-05  0.00016657083  0.00052819047  142.74126      133.31928      131.93429      1.1185007      1.5289384      2.6474392    
     53800   1.0132391     -6.4177379e-07  0.00055088311  0.00028668246  142.77272      133.31928      131.93429      1.1177355      1.5196053      2.6373408    
     53900   0.99541546    -0.00010079734  2.9554683e-05  9.9810903e-06  142.80418      133.31928      131.93429      1.1336822      1.4928743      2.6265565    
     54000   0.98996154     0.00090588035 -0.00029835181  0.00065307472  142.83564      133.31928      131.93429      1.1310847      1.4846948      2.6157795    
     54100   0.99920412    -0.00083206118  6.5804473e-05 -0.00011659315  142.8671       133.31928      131.93429      1.1050762      1.4985564      2.6036325    
     54200   0.97889025    -0.00045235338  0.00044852695 -0.00013634213  142.89857      133.31928      131.93429      1.1257764      1.4680906      2.593867     
     54300   0.9959413      0.00059168594  0.00018284505 -0.00021004598  142.93003      133.31928      131.93429      1.0954771      1.493663       2.58914      
     54400   0.99290903     0.00037509737  0.00057127816  0.00083258869  142.96149      133.31928      131.93429      1.1046132      1.4891153      2.5937285    
     54500   0.98967642    -0.00042531046 -0.00031576196  0.00025149239  142.99295      133.31928      131.93429      1.1201075      1.4842672      2.6043747    
     54600   1.0058222     -0.00094182631 -0.00059704388  2.5401963e-05  143.02441      133.31928      131.93429      1.1093188      1.5084818      2.6178006    
     54700   1.008792       0.00040132172  0.00064113538  0.00047400922  143.05587      133.31928      131.93429      1.1181487      1.5129358      2.6310845    
     54800   1.002415       0.00047030156 -0.00031483328  8.8066807e-05  143.08734      133.31928      131.93429      1.1349599      1.5033719      2.6383318    
     54900   0.98955925    -0.00071339796 -0.00061085997 -0.00046425504  143.1188       133.31928      131.93429      1.1545803      1.4840915      2.6386718    
     55000   1.0144329     -0.0001669334   5.3493615e-05  0.0007221861   143.15026      133.31928      131.93429      1.1109837      1.5213958      2.6323794    
     55100   1.0065415      0.0011601828   0.00046172447  0.00088179385  143.18172      133.31928      131.93429      1.1117357      1.5095607      2.6212964    
     55200   0.99265179    -0.0009480341  -0.00032927603 -0.00073556118  143.21318      133.31928      131.93429      1.1191972      1.4887295      2.6079267    
     55300   1.0022978     -0.00013018838 -0.00011942679 -8.5137513e-06  143.24464      133.31928      131.93429      1.0965827      1.5031961      2.5997788    
     55400   0.98542612     0.0013559388  -3.0611076e-05  0.0005903105   143.2761       133.31928      131.93429      1.1182565      1.4778928      2.5961493    
     55500   0.9826789      3.4083299e-05  4.7477981e-05  0.00038070985  143.30757      133.31928      131.93429      1.1262317      1.4737727      2.6000043    
     55600   0.9917884     -0.00019172436 -0.00023957518 -0.00053459674  143.33903      133.31928      131.93429      1.12375        1.4874347      2.6111846    
     55700   1.0045045      0.00024172922  0.00031324409  0.00051477475  143.37049      133.31928      131.93429      1.1211319      1.5065056      2.6276375    
     55800   1.0037245      0.00031066083 -1.0165083e-05  0.00045385614  143.40195      133.31928      131.93429      1.1360168      1.5053358      2.6413525    
     55900   1.0229981      0.00025693834 -0.00017434705  0.00038563915  143.43341      133.31928      131.93429      1.1136819      1.5342415      2.6479234    
     56000   1.0241707      0.00039584365  0.00042297022  0.00014763529  143.46487      133.31928      131.93429      1.111183       1.5360001      2.647183     
     56100   1.0198011     -0.00042249458  6.3046744e-05  0.00022380899  143.49634      133.31928      131.93429      1.1081522      1.5294467      2.6375989    
     56200   0.99703285     1.62259e-05   -0.00098868135 -0.00027274811  143.5278       133.31928      131.93429      1.1277314      1.4953         2.6230315    
     56300   0.99497597     0.00010025902  0.0010194096   0.000119004    143.55926      133.31928      131.93429      1.1129322      1.4922152      2.6051475    
     56400   1.0016732      0.00091439401  0.0011440538   0.00025048307  143.59072      133.31928      131.93429      1.0885063      1.5022594      2.5907657    
     56500   0.99573705    -0.00036673958 -0.00080127598  0.00015346544  143.62218      133.31928      131.93429      1.089275       1.4933566      2.5826317    
     56600   0.98671637    -0.00031073179 -0.00039758398 -0.00021868552  143.65364      133.31928      131.93429      1.105815       1.4798279      2.5856429    
     56700   0.98442355     5.8207747e-06  0.00039805008  0.00024243281  143.68511      133.31928      131.93429      1.1182228      1.4763892      2.594612     
     56800   1.0156218      1.5633844e-05  0.00086993666  0.00021677342  143.71657      133.31928      131.93429      1.0836252      1.5231788      2.606804     
     56900   1.0103404      8.0823107e-05 -0.00083161806  0.00018569792  143.74803      133.31928      131.93429      1.1035648      1.515258       2.6188227    
     57000   1.009267       0.00039579193  0.00029618214  0.00042876551  143.77949      133.31928      131.93429      1.1164679      1.5136482      2.6301161    
     57100   1.0073759      0.00057121146  0.00078100835 -0.00047841279  143.81095      133.31928      131.93429      1.1230708      1.510812       2.6338829    
     57200   0.99329587    -0.00019053577 -0.00056628341 -0.00032228399  143.84241      133.31928      131.93429      1.1424638      1.4896955      2.6321593    
     57300   1.0077647     -0.00064055399  0.00085302124  0.00015776685  143.87388      133.31928      131.93429      1.1159582      1.5113951      2.6273533    
     57400   1.0067506      0.00067497766  0.00093164529  0.00067746027  143.90534      133.31928      131.93429      1.1103045      1.5098742      2.6201787    
     57500   0.99604047     0.00056084858  0.00023578801 -5.9834769e-05  143.9368       133.31928      131.93429      1.1193652      1.4938117      2.6131769    
     57600   0.98963662    -0.00075511293 -8.6024215e-05 -0.00021272166  143.96826      133.31928      131.93429      1.1233608      1.4842075      2.6075683    
     57700   0.98938717    -4.5597835e-05  0.00041364601  0.00016278007  143.99972      133.31928      131.93429      1.1209667      1.4838334      2.6048001    
     57800   1.0026391      0.00034878191 -0.00065250374  6.1602682e-05  144.03118      133.31928      131.93429      1.1000208      1.5037079      2.6037288    
     57900   0.98953407     4.72806e-05   -0.00017801661  5.3848613e-05  144.06264      133.31928      131.93429      1.1203913      1.4840537      2.604445     
     58000   1.0048123      0.0012081876   0.00077825433  0.0004823587   144.09411      133.31928      131.93429      1.1021325      1.5069673      2.6090998    
     58100   1.0012816     -0.0002828632  -0.00089677565 -0.00025521376  144.12557      133.31928      131.93429      1.111703       1.5016721      2.6133752    
     58200   1.0040633     -0.00056668554 -0.00052067922  0.00021493359  144.15703      133.31928      131.93429      1.1111909      1.505844       2.6170349    
     58300   1.0148733      0.00011162812  0.00095048223  0.00034068178  144.18849      133.31928      131.93429      1.0956668      1.5220562      2.617723     
     58400   1.0049529      0.0012875646   0.00072921453  9.8695185e-05  144.21995      133.31928      131.93429      1.1096736      1.5071781      2.6168517    
     58500   0.99833889    -0.00082851705 -0.00057436687 -0.0001284643   144.25141      133.31928      131.93429      1.1182121      1.4972587      2.6154708    
     58600   1.0035368     -0.00032011186 -0.00067677882  9.7642889e-06  144.28288      133.31928      131.93429      1.1047227      1.5050544      2.6097771    
     58700   0.99655412     0.00040958908  0.00072444204 -0.00020838714  144.31434      133.31928      131.93429      1.1055529      1.494582       2.6001349    
     58800   0.99508142     0.0005523296   0.00078416186  0.00028104476  144.3458       133.31928      131.93429      1.0978733      1.4923734      2.5902467    
     58900   0.99005336    -0.00060960704 -0.0003884173   0.00024283613  144.37726      133.31928      131.93429      1.0976483      1.4848325      2.5824809    
     59000   0.99055972    -1.7350001e-05  0.00055844061  0.00023688625  144.40872      133.31928      131.93429      1.093954       1.4855919      2.5795459    
     59100   1.0007902      0.00025744101  6.3128771e-05  8.1356219e-05  144.44018      133.31928      131.93429      1.0800265      1.500935       2.5809615    
     59200   1.0021666     -0.00029736045 -0.0010477397  -0.000204852    144.47165      133.31928      131.93429      1.0826605      1.5029993      2.5856599    
     59300   1.0029241     -0.00040338695 -0.00037870847 -0.00020589259  144.50311      133.31928      131.93429      1.0875195      1.5041354      2.5916549    
     59400   1.0195211      0.00049812902  0.0010148062   0.00048282437  144.53457      133.31928      131.93429      1.0666879      1.5290267      2.5957146    
     59500   0.99645524     0.00038645448  0.00041251552  0.00025646427  144.56603      133.31928      131.93429      1.1026938      1.4944338      2.5971275    
     59600   0.99504359    -2.931686e-05  -0.00052186721  2.7672664e-05  144.59749      133.31928      131.93429      1.1067846      1.4923166      2.5991013    
     59700   1.0178185      0.00022990796  1.0469462e-05  0.00015023872  144.62895      133.31928      131.93429      1.0739526      1.5264732      2.6004258    
     59800   1.0047836     -8.3451414e-05 -0.00026982528  0.00065160076  144.66041      133.31928      131.93429      1.0921639      1.5069243      2.5990881    
     59900   0.99639196     5.1652017e-05 -0.00016426264  0.00017051502  144.69188      133.31928      131.93429      1.1014062      1.4943388      2.595745     
     60000   1.0004865      8.9050182e-05  7.7965691e-05 -0.00016724179  144.72334      133.31928      131.93429      1.0928138      1.5004796      2.5932934    
     60100   1.0189303     -0.00027238835 -0.00013733649  3.5003354e-05  144.7548       133.31928      131.93429      1.0622068      1.5281408      2.5903476    
     60200   0.99736798     0.00055750212  0.00034044589  0.0010180283   144.78626      133.31928      131.93429      1.0893566      1.4958026      2.5851592    
     60300   0.99468509    -1.0525842e-05  0.00090566423  0.00071148555  144.81772      133.31928      131.93429      1.0886249      1.491779       2.5804038    
     60400   0.99536129    -0.0002673504  -0.00062990449 -0.00056764725  144.84918      133.31928      131.93429      1.0855181      1.4927931      2.5783112    
     60500   0.99757275     0.00044928409 -0.00045759534  0.00042300859  144.88065      133.31928      131.93429      1.0839958      1.4961097      2.5801055    
     60600   0.9963716      0.00035635464  0.00055378194  6.9802218e-05  144.91211      133.31928      131.93429      1.0891256      1.4943083      2.5834339    
     60700   1.0217262     -0.00024144428  0.00044569748  4.194172e-05   144.94357      133.31928      131.93429      1.0560041      1.5323339      2.588338     
     60800   1.0042639      0.00055522265 -1.7050688e-05  0.00059704898  144.97503      133.31928      131.93429      1.0861606      1.5061448      2.5923054    
     60900   1.017171      -0.0002574246   0.00075845681 -0.00054911549  145.00649      133.31928      131.93429      1.0663044      1.5255022      2.5918066    
     61000   1.0363257      0.00018817259  0.00028469872  4.0851054e-05  145.03795      133.31928      131.93429      1.034913       1.5542294      2.5891425    
     61100   0.99452808     0.00027429075 -0.00082624752  9.0100783e-05  145.06942      133.31928      131.93429      1.0911862      1.4915435      2.5827297    
     61200   1.0045879      0.00017925696  0.00049475825  0.00013010145  145.10088      133.31928      131.93429      1.0686739      1.5066308      2.5753047    
     61300   0.98611227    -7.6594594e-05 -0.00022653287 -0.00055499553  145.13234      133.31928      131.93429      1.0883807      1.4789219      2.5673025    
     61400   0.98938624    -0.0001218208  -8.3236982e-05  2.5597961e-05  145.1638       133.31928      131.93429      1.078373       1.483832       2.562205     
     61500   1.0068006      0.00055594115  0.00030257939  0.00077630882  145.19526      133.31928      131.93429      1.0523344      1.5099492      2.5622836    
     61600   0.99711312    -0.00032768731  0.00057399255  0.00039528964  145.22672      133.31928      131.93429      1.0713229      1.4954204      2.5667433    
     61700   1.0013318     -0.00019352775 -2.4299529e-05 -0.00047656665  145.25819      133.31928      131.93429      1.074503       1.5017473      2.5762503    
     61800   0.99708399    -0.00014834619 -0.00042503643 -1.0827802e-05  145.28965      133.31928      131.93429      1.0927564      1.4953767      2.5881331    
     61900   0.9998488      5.5064004e-05  0.00080756424  0.00066712238  145.32111      133.31928      131.93429      1.1014574      1.4995232      2.6009806    
     62000   0.99374367     0.00043957543 -0.00023505393 -0.00029843144  145.35257      133.31928      131.93429      1.1204911      1.4903671      2.6108581    
     62100   1.0124456      1.697546e-05  -0.00032609985  0.00028757338  145.38403      133.31928      131.93429      1.097558       1.5184154      2.6159734    
     62200   1.0098661      0.00013124277  0.00049510817  0.00018576334  145.41549      133.31928      131.93429      1.0996022      1.5145467      2.6141489    
     62300   1.0117634     -3.440074e-05   0.00031118753  5.4121369e-06  145.44695      133.31928      131.93429      1.0865236      1.5173921      2.6039157    
     62400   1.007317      -0.0004928142  -0.00069633448 -0.00012893091  145.47842      133.31928      131.93429      1.0799749      1.5107237      2.5906986    
     62500   0.99692545     0.000595629    0.00073088295  0.00023324072  145.50988      133.31928      131.93429      1.0816215      1.4951389      2.5767604    
     62600   0.99173979     0.00074893966  0.00013599003  9.2006527e-05  145.54134      133.31928      131.93429      1.0774108      1.4873617      2.5647726    
     62700   0.98938356    -0.00073312347 -0.00044643979 -0.00059503075  145.5728       133.31928      131.93429      1.0723511      1.483828       2.5561791    
     62800   0.98393244    -2.2899278e-05  0.00012719403  0.00046442248  145.60426      133.31928      131.93429      1.0810181      1.4756527      2.5566708    
     62900   0.98287959     0.00034369222  0.0006378161   0.000424779    145.63572      133.31928      131.93429      1.0919956      1.4740737      2.5660692    
     63000   0.99382793     5.9606836e-05 -0.00028812773 -7.0062573e-05  145.66719      133.31928      131.93429      1.0931791      1.4904934      2.5836726    
     63100   1.0053701     -0.00018487429 -0.0003130138   0.00010259155  145.69865      133.31928      131.93429      1.0898997      1.5078038      2.5977036    
     63200   0.99270389     0.00017888609  0.00054286571  0.00064013336  145.73011      133.31928      131.93429      1.1156493      1.4888077      2.604457     
     63300   1.0065298      9.6290182e-06  0.00074317451  1.333207e-05   145.76157      133.31928      131.93429      1.0955286      1.5095431      2.6050716    
     63400   1.0130251      0.00022198993 -0.00035516634 -0.00058227522  145.79303      133.31928      131.93429      1.07942        1.5192844      2.5987044    
     63500   0.99771902     0.00016889851 -0.00018422381  0.00015609393  145.82449      133.31928      131.93429      1.085592       1.4963291      2.5819211    
     63600   0.99333886     0.00034860607  0.0007422618   0.00044031282  145.85596      133.31928      131.93429      1.0702905      1.48976        2.5600504    
     63700   0.99169106    -0.00034750026  0.0008622026  -3.1226631e-05  145.88742      133.31928      131.93429      1.0618578      1.4872887      2.5491464    
     63800   0.99470058    -0.00043976    -0.0010586991  -9.039269e-05   145.91888      133.31928      131.93429      1.05696        1.4918022      2.5487622    
     63900   1.0021568     -0.00030604786 -0.00025949286  0.00013751681  145.95034      133.31928      131.93429      1.049866       1.5029846      2.5528506    
     64000   1.007167       0.00047999576  0.0010872454   0.00054700866  145.9818       133.31928      131.93429      1.0489066      1.5104987      2.5594053    
     64100   0.98880002     0.00010202065 -0.00024042414  0.00035109163  146.01326      133.31928      131.93429      1.0838945      1.4829528      2.5668473    
     64200   0.99040014     0.00020481319 -0.0012875234  -3.1095398e-05  146.04473      133.31928      131.93429      1.0900223      1.4853526      2.5753749    
     64300   1.0126844     -0.00031565136 -0.000170813   -2.6868406e-05  146.07619      133.31928      131.93429      1.0640632      1.5187734      2.5828366    
     64400   1.0043446     -0.00013120119  0.0018707786   0.00058602101  146.10765      133.31928      131.93429      1.0806691      1.5062657      2.5869348    
     64500   1.0204102      0.00091279491 -0.00040506986 -0.00020575838  146.13911      133.31928      131.93429      1.0571142      1.5303602      2.5874744    
     64600   1.0084492      0.00035063368 -0.0010987458  -0.00038032418  146.17057      133.31928      131.93429      1.0671783      1.5124217      2.5796       
     64700   0.98953488    -0.00022645378  7.5904007e-05 -3.060679e-05   146.20203      133.31928      131.93429      1.0802689      1.4840549      2.5643238    
     64800   0.98965731    -0.00030751066  0.0015476875  -0.00016521835  146.23349      133.31928      131.93429      1.0662286      1.4842386      2.5504672    
     64900   0.98290158    -0.00015776864 -0.00060855882  0.00035021459  146.26496      133.31928      131.93429      1.0712023      1.4741066      2.545309     
     65000   0.99974809     0.00030301531 -0.00078097981  0.00031290394  146.29642      133.31928      131.93429      1.0468828      1.4993722      2.546255     
     65100   1.0050707      2.7810222e-05  0.00082836845 -5.8533407e-05  146.32788      133.31928      131.93429      1.0458629      1.5073549      2.5532178    
     65200   1.002238       0.00028500857  0.00034207521  3.3333253e-05  146.35934      133.31928      131.93429      1.064491       1.5031064      2.5675974    
     65300   1.0177812      0.00084755611 -0.0010772085   0.00011578081  146.3908       133.31928      131.93429      1.0592434      1.5264174      2.5856608    
     65400   1.0218038     -0.00057341738 -1.6581271e-06  0.00025376424  146.42226      133.31928      131.93429      1.064203       1.5324503      2.5966533    
     65500   1.0151077     -0.00044936     0.0011543508   3.9474518e-05  146.45373      133.31928      131.93429      1.0724658      1.5224077      2.5948735    
     65600   1.0039041      0.00047014153  2.6494132e-05  6.3734013e-05  146.48519      133.31928      131.93429      1.0755202      1.5056052      2.5811254    
     65700   1.0025073      0.00055087366 -0.00067821683 -0.00018807821  146.51665      133.31928      131.93429      1.0574281      1.5035104      2.5609385    
     65800   1.0128583     -0.00030560261  0.0002980393  -3.5023442e-05  146.54811      133.31928      131.93429      1.0285397      1.5190342      2.5475739    
     65900   0.99488184    -0.00044797619 -6.3077473e-05  0.00010531206  146.57957      133.31928      131.93429      1.0520016      1.492074       2.5440756    
     66000   1.0002396      0.0002512198   0.00013401022 -0.00040791098  146.61103      133.31928      131.93429      1.0430374      1.5001093      2.5431467    
     66100   0.99898726     0.00094980141  0.00021578478  0.00015411577  146.6425       133.31928      131.93429      1.0464906      1.4982311      2.5447217    
     66200   1.001261      -4.1272661e-05  0.00054816058  0.00018768157  146.67396      133.31928      131.93429      1.0475136      1.5016411      2.5491547    
     66300   0.99031528    -0.00079458297 -0.00046415435  0.00011957617  146.70542      133.31928      131.93429      1.0693883      1.4852253      2.5546137    
     66400   1.0066409      0.00015016714 -0.00011299611  0.00018265529  146.73688      133.31928      131.93429      1.050762       1.5097097      2.5604717    
     66500   1.0153673     -7.7899519e-05 -0.000555123    0.00088233606  146.76834      133.31928      131.93429      1.041692       1.5227972      2.5644892    
     66600   0.99944685     1.9169188e-05 -0.0009472183  -0.00030902928  146.7998       133.31928      131.93429      1.067666       1.4989204      2.5665864    
     66700   1.0137159     -0.00011166035 -0.00032223809 -0.0002239894   146.83127      133.31928      131.93429      1.0418176      1.5203203      2.5621379    
     66800   1.0024289     -0.00022390561  0.00051710242  0.00020536855  146.86273      133.31928      131.93429      1.0476138      1.5033928      2.5510066    
     66900   0.99824781    -0.00033474257  0.00014635373  0.00029268631  146.89419      133.31928      131.93429      1.0363196      1.4971222      2.5334417    
     67000   1.003661       0.00086471803  0.00026629209  0.00050644789  146.92565      133.31928      131.93429      1.015709       1.5052406      2.5209496    
     67100   0.98270976     0.00019231222 -0.00011457402 -0.00021679467  146.95711      133.31928      131.93429      1.0419597      1.473819       2.5157787    
     67200   0.98853349    -0.0002442706  -0.0005669224  -0.00020941443  146.98857      133.31928      131.93429      1.0380854      1.4825531      2.5206385    
     67300   0.99051424    -0.00016284181 -0.00051036624 -0.00014194316  147.02003      133.31928      131.93429      1.0475642      1.4855237      2.5330879    
     67400   1.0051104     -0.00025834728  0.00051104172 -7.2149012e-05  147.0515       133.31928      131.93429      1.0457971      1.5074144      2.5532115    
     67500   1.0147777      0.00036840115  0.00033252827 -0.00017006899  147.08296      133.31928      131.93429      1.0464081      1.5219129      2.5683211    
     67600   1.0036814     -3.1314936e-05 -0.00076531808  0.00014650919  147.11442      133.31928      131.93429      1.0689401      1.5052712      2.5742114    
     67700   1.0102167      0.00047263924  0.00035259814  0.00089845938  147.14588      133.31928      131.93429      1.0570749      1.5150726      2.5721474    
     67800   0.99752208    -1.7745901e-05  0.00032651691 -0.00039670155  147.17734      133.31928      131.93429      1.0712907      1.4960337      2.5673245    
     67900   0.99841717     0.00019328927  0.00032064326 -0.0003060082   147.2088       133.31928      131.93429      1.0648751      1.4973761      2.5622512    
     68000   0.99543543    -0.00019454268 -0.00044911205 -0.00027542394  147.24027      133.31928      131.93429      1.0633685      1.4929043      2.5562728    
     68100   1.000913       0.00093299071  0.00041254723  0.00023273924  147.27173      133.31928      131.93429      1.0482456      1.5011193      2.5493649    
     68200   0.99871411    -0.00012457848 -0.00018524327  0.00030295727  147.30319      133.31928      131.93429      1.0427434      1.4978215      2.5405649    
     68300   1.004705      -0.00097189181 -0.00036277951 -6.6438649e-05  147.33465      133.31928      131.93429      1.0244904      1.5068063      2.5312968    
     68400   0.98726146     0.00011175517  5.4553574e-05 -0.0004059396   147.36611      133.31928      131.93429      1.0367973      1.4806454      2.5174427    
     68500   0.97130731     0.00031141436  0.0006645178   0.00019655914  147.39757      133.31928      131.93429      1.0452683      1.4567181      2.5019865    
     68600   0.99455671    -0.00014538063 -0.00028934302  0.000569753    147.42904      133.31928      131.93429      1.0010908      1.4915864      2.4926773    
     68700   0.99515476     0.00015841308 -0.0003195614   4.9977855e-05  147.4605       133.31928      131.93429      1.0056951      1.4924834      2.4981785    
     68800   0.99601225     6.0497738e-05  0.00044890654 -0.00030064441  147.49196      133.31928      131.93429      1.0300785      1.4937694      2.5238478    
     68900   1.006998      -5.9944641e-05  0.00072516971 -1.0118323e-05  147.52342      133.31928      131.93429      1.0352285      1.5102453      2.5454738    
     69000   1.003799       0.00022880813 -0.00018558994  0.00040436242  147.55488      133.31928      131.93429      1.0479811      1.5054476      2.5534286    
     69100   1.0120627      0.00039647143 -0.00025919097  0.00017637273  147.58634      133.31928      131.93429      1.038486       1.5178411      2.5563271    
     69200   1.0155505     -0.00045407702 -0.00049567727 -0.00025536174  147.6178       133.31928      131.93429      1.0310793      1.5230718      2.5541511    
     69300   0.99613833    -0.00058675179  0.00037898763  0.00015864648  147.64927      133.31928      131.93429      1.0531817      1.4939585      2.5471401    
     69400   0.99240781     0.00063205678  0.00093508198 -0.00013302723  147.68073      133.31928      131.93429      1.047092       1.4883636      2.5354557    
     69500   0.9951443      3.0521604e-05  0.00041920233  0.00029154044  147.71219      133.31928      131.93429      1.0293158      1.4924677      2.5217835    
     69600   0.98243601     0.0001511168  -0.00052978803  0.00013700741  147.74365      133.31928      131.93429      1.0382462      1.4734084      2.5116546    
     69700   0.9926489      0.00031690691 -0.00041738047  0.00049359061  147.77511      133.31928      131.93429      1.0183111      1.4887252      2.5070362    
     69800   0.98838423    -0.0003307481   2.6266685e-05 -0.00023753472  147.80657      133.31928      131.93429      1.0219125      1.4823292      2.5042417    
     69900   0.98900509    -0.00092108482  4.3798272e-05 -0.0002633344   147.83804      133.31928      131.93429      1.0235108      1.4832604      2.5067712    
     70000   0.9883674      0.00063045906  0.0011683541   9.2955197e-07  147.8695       133.31928      131.93429      1.0382312      1.482304       2.5205352    
     70100   0.99774745     0.00064273467 -0.00062635008  0.00067502086  147.90096      133.31928      131.93429      1.0443725      1.4963717      2.5407442    
     70200   1.0236665     -0.00014089098  8.6732723e-05  0.00011656563  147.93242      133.31928      131.93429      1.020943       1.5352438      2.5561869    
     70300   1.0065472     -0.00091566321 -0.00067274298 -0.00066375584  147.96388      133.31928      131.93429      1.0503692      1.5095692      2.5599384    
     70400   1.0094793      0.00081024504  0.00087729545  0.0003335863   147.99534      133.31928      131.93429      1.0426208      1.5139666      2.5565874    
     70500   0.99405483     0.000820334    4.2716131e-05  0.00028541693  148.02681      133.31928      131.93429      1.0549507      1.4908337      2.5457845    
     70600   1.0140564     -0.00015142878 -7.7991356e-05  0.00023210047  148.05827      133.31928      131.93429      1.008658       1.5208311      2.5294891    
     70700   0.9860711      0.00031246269 -0.00015544891  0.00015229036  148.08973      133.31928      131.93429      1.0353313      1.4788601      2.5141915    
     70800   0.999855      -0.00052853733 -0.00065464105  0.00043537311  148.12119      133.31928      131.93429      1.0060368      1.4995325      2.5055693    
     70900   0.99483549    -0.000449884    0.00027069061 -0.00021430738  148.15265      133.31928      131.93429      1.0123163      1.4920045      2.5043208    
     71000   1.000736      -0.00037461359  0.00036986322  0.00040114242  148.18411      133.31928      131.93429      1.0060013      1.5008538      2.5068551    
     71100   0.99670804     0.00039998141 -6.0197167e-05 -0.00028316306  148.21558      133.31928      131.93429      1.0146625      1.4948129      2.5094754    
     71200   0.99467871     4.7900237e-05  0.00055575535 -0.00027724299  148.24704      133.31928      131.93429      1.0208653      1.4917694      2.5126347    
     71300   1.0034974     -0.00045316289  0.00069525235  0.00048477217  148.2785       133.31928      131.93429      1.0116726      1.5049953      2.5166679    
     71400   0.99940103     0.00027694    -0.00046891726  0.00029850283  148.30996      133.31928      131.93429      1.0212916      1.4988517      2.5201433    
     71500   0.9983879     -0.00033675365 -0.00068707916 -0.00049170347  148.34142      133.31928      131.93429      1.0249179      1.4973323      2.5222501    
     71600   1.0054401     -0.00011911567  0.00019294012 -0.00061428843  148.37288      133.31928      131.93429      1.0152262      1.5079088      2.523135     
     71700   1.0136103      0.00081381857  0.00035436097  0.0010345085   148.40434      133.31928      131.93429      1.0062693      1.520162       2.5264314    
     71800   1.0046683     -0.00013617247  0.00041973148 -0.00047627233  148.43581      133.31928      131.93429      1.0237717      1.5067513      2.530523     
     71900   1.0039404     -0.00043892262 -6.4722405e-05 -0.00015248634  148.46727      133.31928      131.93429      1.0293737      1.5056596      2.5350332    
     72000   1.0009005      0.00087121762  0.00013685827  0.0008129904   148.49873      133.31928      131.93429      1.0323198      1.5011005      2.5334203    
     72100   0.99050132     0.00033579407  0.00069690615  0.00058551421  148.53019      133.31928      131.93429      1.0425324      1.4855044      2.5280368    
     72200   1.0048511      0.00049178519  0.0002678783   4.3477164e-05  148.56165      133.31928      131.93429      1.0147454      1.5070254      2.5217707    
     72300   1.0038923      0.00020420009 -0.00065347966  0.00018038653  148.59311      133.31928      131.93429      1.0084687      1.5055875      2.5140562    
     72400   0.99880592    -0.00044065807  1.2432097e-05 -6.6518585e-05  148.62458      133.31928      131.93429      1.0048742      1.4979592      2.5028334    
     72500   0.99118613    -0.00082581841  0.00018683091 -0.00019872517  148.65604      133.31928      131.93429      1.0035553      1.4865314      2.4900867    
     72600   0.99549416    -0.00014092917  4.954188e-05   0.00070347128  148.6875       133.31928      131.93429      0.98690422     1.4929924      2.4798966    
     72700   0.99042617     0.00052218633 -0.00073219331  0.0003579034   148.71896      133.31928      131.93429      0.98841308     1.4853916      2.4738047    
     72800   0.99260838    -0.00034506744  0.00027697958 -0.00023268885  148.75042      133.31928      131.93429      0.98110197     1.4886644      2.4697664    
     72900   0.99153026    -0.00040237438  0.00022315851  0.00026464322  148.78188      133.31928      131.93429      0.98334165     1.4870475      2.4703892    
     73000   0.9932709      0.00030600914 -0.00031982955  0.0002657271   148.81335      133.31928      131.93429      0.99340702     1.489658       2.483065     
     73100   0.99595013    -4.2407828e-05 -4.6199316e-05 -9.1547033e-05  148.84481      133.31928      131.93429      1.0124623      1.4936762      2.5061385    
     73200   1.0119219     -6.6233927e-05  0.00075104614  0.00011288334  148.87627      133.31928      131.93429      1.0043719      1.5176299      2.5220018    
     73300   1.0105837     -0.00046396737 -0.00017489719 -0.00029168921  148.90773      133.31928      131.93429      1.010602       1.5156229      2.5262249    
     73400   1.0037214     -0.00012898177 -0.000533479   -0.00048489322  148.93919      133.31928      131.93429      1.0153385      1.5053311      2.5206697    
     73500   0.98874757    -0.00076032229  0.00013491943  6.2234801e-06  148.97065      133.31928      131.93429      1.0237869      1.4828742      2.5066611    
     73600   0.99593585     0.00054893977 -8.7158463e-05 -9.5062787e-05  149.00212      133.31928      131.93429      0.99663068     1.4936548      2.4902855    
     73700   0.98317324     0.00013137489 -0.00020474664  0.0001583131   149.03358      133.31928      131.93429      1.0044997      1.4745141      2.4790138    
     73800   0.98273942    -0.000193982   -0.00050560252 -0.0004598318   149.06504      133.31928      131.93429      1.0005663      1.4738634      2.4744297    
     73900   1.002107       0.00027652492  0.00059373975  0.00089365812  149.0965       133.31928      131.93429      0.97283606     1.50291        2.4757461    
     74000   0.99876589     0.00010347212  0.00059038456  0.00070814039  149.12796      133.31928      131.93429      0.9828275      1.4978991      2.4807266    
     74100   1.0006501      1.7379114e-05 -0.00028496779 -0.00062500403  149.15942      133.31928      131.93429      0.98591718     1.500725       2.4866421    
     74200   1.0025582      0.00018496685 -2.5356142e-05  0.00024027262  149.19088      133.31928      131.93429      0.9897909      1.5035867      2.4933776    
     74300   1.0073709      0.00080608878  0.00063279624  0.0012338268   149.22235      133.31928      131.93429      0.98958103     1.5108045      2.5003855    
     74400   1.0040915     -5.6798119e-05  0.00053336506 -0.0003255047   149.25381      133.31928      131.93429      0.99930054     1.5058862      2.5051867    
     74500   1.0038232     -0.0006921515  -0.00069576486 -0.00036575345  149.28527      133.31928      131.93429      1.001487       1.5054839      2.5069709    
     74600   0.99674678     0.00041822009  3.1177263e-05 -0.00021665894  149.31673      133.31928      131.93429      1.0084577      1.494871       2.5033287    
     74700   1.0034191      0.00028065973 -0.00061909095  0.00088255271  149.34819      133.31928      131.93429      0.97904517     1.5048778      2.483923     
     74800   0.98599513    -0.00070507333  0.00012043603 -0.0004141872   149.37965      133.31928      131.93429      0.98497279     1.4787462      2.463719     
     74900   0.98990007     0.00011197705  0.00051542852 -0.0004601748   149.41112      133.31928      131.93429      0.9692033      1.4846026      2.4538059    
     75000   0.98441591     0.00034440613  0.00019445592  0.00053343699  149.44258      133.31928      131.93429      0.97697802     1.4763778      2.4533558    
     75100   0.99402117    -0.00035138124 -0.00068017086  8.5581591e-05  149.47404      133.31928      131.93429      0.97320354     1.4907833      2.4639868    
     75200   0.98898867    -0.0005948454   9.5275439e-05 -0.00027168303  149.5055       133.31928      131.93429      0.99968198     1.4832358      2.4829177    
     75300   1.0104988      0.0011076994   0.0013751159  -5.5434089e-05  149.53696      133.31928      131.93429      0.98391673     1.5154955      2.4994122    
     75400   1.0131589      5.9993492e-05  0.00040587116  0.00034968346  149.56842      133.31928      131.93429      0.98787491     1.5194851      2.50736      
     75500   1.0098143     -0.00047476626 -0.00099092557 -0.00021425347  149.59989      133.31928      131.93429      0.99295927     1.514469       2.5074283    
     75600   1.0082857      0.00023917623  0.00065565493 -0.00010544364  149.63135      133.31928      131.93429      0.99010979     1.5121764      2.5022862    
     75700   0.99899976     5.0980663e-05  6.0930687e-05  0.00011048864  149.66281      133.31928      131.93429      0.99244843     1.4982499      2.4906983    
     75800   0.99339798    -0.00068431208 -0.0005405984   0.00013837049  149.69427      133.31928      131.93429      0.98563504     1.4898486      2.4754837    
     75900   0.98465335     0.00090043531  0.0006270657  -0.0004108438   149.72573      133.31928      131.93429      0.98322976     1.4767339      2.4599636    
     76000   0.98068904     0.00026737414 -0.00016917379  0.00030149716  149.75719      133.31928      131.93429      0.982464       1.4707884      2.4532524    
     76100   0.97884309    -0.00037413901 -1.476636e-05   0.00066162175  149.78865      133.31928      131.93429      0.99000929     1.4680199      2.4580292    
     76200   1.016573       9.9617989e-05 -0.00040030924 -0.00036104086  149.82012      133.31928      131.93429      0.95166551     1.5246054      2.4762709    
     76300   1.0092139      3.6427481e-05  9.2798414e-05 -0.00048738379  149.85158      133.31928      131.93429      0.99626269     1.5135685      2.5098312    
     76400   0.99546778     0.00044936309  0.00042463182  0.0008645079   149.88304      133.31928      131.93429      1.0289013      1.4929528      2.5218541    
     76500   1.0212571      0.00054911631  0.00016302263  0.00060013577  149.9145       133.31928      131.93429      0.98778486     1.5316303      2.5194152    
     76600   0.99964528    -9.6375482e-05 -0.00032728623 -0.00089585692  149.94596      133.31928      131.93429      1.0089556      1.499218       2.5081736    
     76700   1.0081072     -0.00014340815  0.00025504937  0.00013906403  149.97742      133.31928      131.93429      0.98169793     1.5119088      2.4936067    
     76800   1.0032488      6.8414039e-05  0.00017602061  7.1188922e-05  150.00889      133.31928      131.93429      0.97431085     1.5046224      2.4789333    
     76900   0.99723749    -0.00023686841 -0.00036430657  0.00011241481  150.04035      133.31928      131.93429      0.97254901     1.4956069      2.4681559    
     77000   1.0008085     -0.00023170325  0.0002809551  -0.00023965341  150.07181      133.31928      131.93429      0.9586855      1.5009626      2.4596481    
     77100   0.97703962    -0.00060563799 -0.00041832015  0.0001991104   150.10327      133.31928      131.93429      0.98753671     1.4653152      2.4528519    
     77200   1.0022115      0.0011041801   0.00064767781  0.00034537617  150.13473      133.31928      131.93429      0.9460545      1.5030667      2.4491212    
     77300   1.001478       0.00032243773  0.00036175915  0.00021223403  150.16619      133.31928      131.93429      0.94604688     1.5019666      2.4480135    
     77400   1.0089161     -0.00044149892  0.00016441143  0.00013621391  150.19766      133.31928      131.93429      0.93716081     1.5131219      2.4502827    
     77500   0.99301925    -0.00030437699 -0.00034740172 -0.00016880986  150.22912      133.31928      131.93429      0.9659845      1.4892806      2.4552651    
     77600   1.0046663      0.00031251882  0.00056926123 -0.00013852258  150.26058      133.31928      131.93429      0.95447886     1.5067483      2.4612271    
     77700   0.98433028    -0.00061250703 -0.00025307259 -0.00031345668  150.29204      133.31928      131.93429      0.99056582     1.4762493      2.4668152    
     77800   0.99269174    -0.00031671871 -0.00034548484  6.1990465e-05  150.3235       133.31928      131.93429      0.98419251     1.4887894      2.472982     
     77900   1.0062946      0.00037835684  0.00017205137  0.00065020142  150.35496      133.31928      131.93429      0.97366487     1.5091903      2.4828552    
     78000   1.0109745     -0.00018929528  6.6943187e-05 -0.00020288559  150.38643      133.31928      131.93429      0.97723253     1.5162091      2.4934416    
     78100   1.0215262      0.0007487308   0.00037219355 -1.6782347e-05  150.41789      133.31928      131.93429      0.9703274      1.5320339      2.5023612    
     78200   1.01461        0.00029878587 -0.00037099976  5.7302742e-05  150.44935      133.31928      131.93429      0.97948096     1.5216613      2.5011423    
     78300   1.0161454      2.5940377e-05  0.00048899592 -0.0002988612   150.48081      133.31928      131.93429      0.96108066     1.5239641      2.4850447    
     78400   0.99481281    -0.00082957043  0.0003976238   0.0002673543   150.51227      133.31928      131.93429      0.96758075     1.4919705      2.4595513    
     78500   0.98697711     0.00061991747 -2.0643549e-05  0.00041365731  150.54373      133.31928      131.93429      0.96908899     1.4802189      2.4493079    
     78600   0.99879036     0.00016023056  0.00021227038 -4.5088711e-05  150.57519      133.31928      131.93429      0.94990809     1.4979358      2.4478439    
     78700   0.99083236    -0.00067585708 -0.00036674927 -0.00057881527  150.60666      133.31928      131.93429      0.96481249     1.4860008      2.4508133    
     78800   1.0041149     -0.00043254102 -6.3142925e-06 -3.0765489e-05  150.63812      133.31928      131.93429      0.95136508     1.5059213      2.4572864    
     78900   0.99642809     4.8769094e-05  0.00014397016  0.00020186698  150.66958      133.31928      131.93429      0.97233658     1.494393       2.4667296    
     79000   1.0054292      0.00045204182  0.00058122204 -0.00017922798  150.70104      133.31928      131.93429      0.97095929     1.5078924      2.4788517    
     79100   1.0061367      0.00031327622 -0.00059187184 -0.00025929533  150.7325       133.31928      131.93429      0.98387003     1.5089535      2.4928236    
     79200   1.0165084      0.00031162892  0.00014350976  0.0003449969   150.76396      133.31928      131.93429      0.98199684     1.5245084      2.5065052    
     79300   1.0103163      0.0004499752   0.00058672012  0.00046980988  150.79543      133.31928      131.93429      0.99806635     1.5152219      2.5132882    
     79400   1.0285099      8.70489e-05    0.0007444044  -6.9010726e-05  150.82689      133.31928      131.93429      0.96853284     1.5425078      2.5110406    
     79500   1.0115871     -0.00025311385 -8.3461756e-05  4.009439e-05   150.85835      133.31928      131.93429      0.97035824     1.5171278      2.4874861    
     79600   1.0041991      5.8455304e-05 -0.00069227719  0.00028577969  150.88981      133.31928      131.93429      0.95648708     1.5060476      2.4625347    
     79700   1.005667       0.00015976659  0.00038413915 -0.00012809781  150.92127      133.31928      131.93429      0.94278363     1.5082491      2.4510327    
     79800   0.98207609     0.00014490445  9.6636327e-05 -0.00015759131  150.95273      133.31928      131.93429      0.97540169     1.4728686      2.4482703    
     79900   1.0026099     -0.00027221956  0.00015695289  0.00027510465  150.9842       133.31928      131.93429      0.95189135     1.5036643      2.4555556    
     80000   0.99406009     0.00098217615 -1.2084336e-06  0.0010602464   151.01566      133.31928      131.93429      0.9770635      1.4908416      2.4679051    
     80100   1.0007231     -2.2143383e-06  0.0001541676  -1.5399308e-06  151.04712      133.31928      131.93429      0.98024348     1.5008345      2.481078     
     80200   0.99407773    -0.00076385871 -0.00062436656 -0.00069741558  151.07858      133.31928      131.93429      0.99964346     1.4908681      2.4905115    
     80300   1.0118395      3.3183507e-05 -0.00015130373 -0.00024630365  151.11004      133.31928      131.93429      0.97478407     1.5175063      2.4922904    
     80400   1.0130179      0.0005520049   0.00065417778  6.7044436e-05  151.1415       133.31928      131.93429      0.96550929     1.5192736      2.4847829    
     80500   1.0005038     -0.00058482694  0.00038971376  0.000344495    151.17297      133.31928      131.93429      0.96170258     1.5005055      2.4622081    
     80600   0.97617294    -0.00081686271 -0.00035204221  0.00029249287  151.20443      133.31928      131.93429      0.97677815     1.4640154      2.4407935    
     80700   0.97968672     0.00076404225 -5.3857598e-05 -9.0047305e-05  151.23589      133.31928      131.93429      0.96794052     1.4692852      2.4372257    
     80800   0.98232432     0.00030850819 -5.9407843e-05  0.00050095216  151.26735      133.31928      131.93429      0.96889221     1.4732409      2.4421331    
     80900   0.99390765    -0.00087491045 -6.5059237e-05 -0.00063480817  151.29881      133.31928      131.93429      0.95760933     1.490613       2.4482223    
     81000   1.002527       0.00020736281  0.00040792314  0.00022043414  151.33027      133.31928      131.93429      0.95488664     1.5035398      2.4584265    
     81100   1.0010754      0.0005710643   9.6019053e-05  0.00024965434  151.36173      133.31928      131.93429      0.96690318     1.5013628      2.4682659    
     81200   1.0155662     -0.00017764681 -0.00054904602 -0.00043581385  151.3932       133.31928      131.93429      0.9545184      1.5230954      2.4776138    
     81300   1.0134033     -0.00053321628  5.3481161e-05 -0.00013948104  151.42466      133.31928      131.93429      0.96264621     1.5198516      2.4824978    
     81400   1.0030273      0.00071580626  0.00020154149  0.00021649703  151.45612      133.31928      131.93429      0.97603635     1.5042902      2.4803266    
     81500   1.0052403      0.00044613142  0.000525605    0.00028126527  151.48758      133.31928      131.93429      0.95637756     1.5076091      2.4639867    
     81600   0.9928981     -0.00050345473 -0.00070275395  9.9869005e-05  151.51904      133.31928      131.93429      0.94701302     1.4890989      2.4361119    
     81700   0.99067701    -0.00066076405 -0.00032411646 -0.00066202747  151.5505       133.31928      131.93429      0.93807238     1.4857678      2.4238402    
     81800   0.99540518     0.00038319442  0.00013264765 -6.1093527e-05  151.58197      133.31928      131.93429      0.93042998     1.4928589      2.4232889    
     81900   0.98979735     0.00093261978  0.00080909054  0.00091474334  151.61343      133.31928      131.93429      0.9450324      1.4844486      2.429481     
     82000   0.99584531     0.00026388411 -8.8110249e-05  0.00063892473  151.64489      133.31928      131.93429      0.95101894     1.493519       2.4445379    
     82100   1.0079897     -5.025815e-06  -0.00043855783 -0.00052918698  151.67635      133.31928      131.93429      0.95106697     1.5117326      2.4627995    
     82200   0.99369107     0.00012113537 -0.00041365597 -0.00037924468  151.70781      133.31928      131.93429      0.98155627     1.4902882      2.4718445    
     82300   0.99585702    -0.00063344113  0.0001402335  -3.5445587e-05  151.73927      133.31928      131.93429      0.9797494      1.4935366      2.473286     
     82400   0.98875032    -7.932775e-05   0.0001549697   0.00044793507  151.77074      133.31928      131.93429      0.99089886     1.4828783      2.4737772    
     82500   0.99833604     0.00051657005 -0.00010317738 -0.00052495731  151.8022       133.31928      131.93429      0.97719445     1.4972545      2.4744489    
     82600   0.99209177    -0.00047720905 -0.00021825378  5.5062538e-05  151.83366      133.31928      131.93429      0.98371776     1.4878896      2.4716074    
     82700   0.99267718    -0.00049168938  0.0002845238   0.00019728266  151.86512      133.31928      131.93429      0.97351319     1.4887676      2.4622808    
     82800   0.99085193    -2.6054638e-05  0.0004846869   0.00018737668  151.89658      133.31928      131.93429      0.9529067      1.4860302      2.4389369    
     82900   0.97951053     0.00036105324  7.6419495e-05 -0.0002010843   151.92804      133.31928      131.93429      0.94820458     1.4690209      2.4172255    
     83000   1.0038534      0.00055611735  1.8920663e-05  0.0011188004   151.95951      133.31928      131.93429      0.9073254      1.5055292      2.4128546    
     83100   0.98309204     0.00023627971 -4.1008792e-05 -7.3733861e-05  151.99097      133.31928      131.93429      0.9426453      1.4743923      2.4170376    
     83200   0.98280828    -0.00075360179 -0.00033881451 -0.00027355642  152.02243      133.31928      131.93429      0.95370632     1.4739667      2.427673     
     83300   1.0059261      0.00058642889  0.00050106922  4.6906339e-05  152.05389      133.31928      131.93429      0.93143108     1.5086377      2.4400687    
     83400   1.0017355      0.00037800187 -0.0003448843   0.00021303559  152.08535      133.31928      131.93429      0.94543208     1.5023529      2.4477849    
     83500   1.0141408     -0.0002508758   0.00016722568  0.00013007472  152.11681      133.31928      131.93429      0.92995727     1.5209577      2.4509149    
     83600   1.004506       0.00010140405  0.00079387958 -9.4567976e-06  152.14827      133.31928      131.93429      0.94410043     1.5065079      2.4506084    
     83700   1.0103067      0.00048968597  0.00072100414  0.00030914547  152.17974      133.31928      131.93429      0.93304235     1.5152075      2.4482499    
     83800   1.0052661     -0.0004197665  -0.00042320961  4.1695325e-05  152.2112       133.31928      131.93429      0.93532383     1.5076479      2.4429717    
     83900   1.0031674     -8.3895964e-05 -0.00050239647 -0.00021241115  152.24266      133.31928      131.93429      0.93152644     1.5045003      2.4360267    
     84000   0.9955679      0.00033860314  0.00085927458  0.00050645522  152.27412      133.31928      131.93429      0.93868671     1.493103       2.4317897    
     84100   0.97386626    -0.00024818424 -2.2698971e-05  0.00021540373  152.30558      133.31928      131.93429      0.96925473     1.4605559      2.4298107    
     84200   0.9897608     -0.00059714384 -0.00059069938 -0.00064386315  152.33704      133.31928      131.93429      0.94874112     1.4843938      2.4331349    
     84300   0.99726435     5.888101e-05  -0.00017632377  0.00040540956  152.36851      133.31928      131.93429      0.95457531     1.4956472      2.4502225    
     84400   1.0014348      0.00053207225  0.00092562814  0.00024505935  152.39997      133.31928      131.93429      0.96820188     1.5019018      2.4701037    
     84500   1.0138808      0.00012452472  0.0002264487   0.00038483112  152.43143      133.31928      131.93429      0.96270179     1.5205678      2.4832695    
     84600   1.0230046     -0.00051624089 -0.00095214578 -0.00034211341  152.46289      133.31928      131.93429      0.95280423     1.5342511      2.4870553    
     84700   1.0200131     -5.5199028e-05 -0.00032645896 -0.00031652619  152.49435      133.31928      131.93429      0.94867883     1.5297647      2.4784435    
     84800   0.99764205     0.000578875    0.00056603341  8.6171803e-05  152.52581      133.31928      131.93429      0.96264203     1.4962137      2.4588557    
     84900   0.99650414     0.0007123682   0.00019114462  0.00082726901  152.55728      133.31928      131.93429      0.94732138     1.4945071      2.4418285    
     85000   1.0042202     -0.00011634117 -0.00023426243 -0.00027561045  152.58874      133.31928      131.93429      0.92798428     1.5060792      2.4340635    
     85100   0.99862178     6.8991689e-05 -5.586054e-06   1.7071361e-05  152.6202       133.31928      131.93429      0.93419265     1.497683       2.4318757    
     85200   0.99916416    -0.00051093539  0.00024738396  0.00069719653  152.65166      133.31928      131.93429      0.93101629     1.4984964      2.4295127    
     85300   0.99563838     0.00029808641 -0.00043529978 -1.2053234e-05  152.68312      133.31928      131.93429      0.93852531     1.4932087      2.431734     
     85400   1.0000387      0.00033967913  0.00048910858  3.6859139e-06  152.71458      133.31928      131.93429      0.93948934     1.4998081      2.4392974    
     85500   1.0063196      5.7258573e-05  0.00020850642 -0.00028209001  152.74604      133.31928      131.93429      0.94509489     1.5092279      2.4543227    
     85600   1.0133926     -0.00070348302 -0.00037527354  3.1956619e-05  152.77751      133.31928      131.93429      0.95351119     1.5198355      2.4733467    
     85700   1.0144434      1.3458385e-05 -5.3788517e-05 -0.00016221511  152.80897      133.31928      131.93429      0.96346555     1.5214115      2.4848771    
     85800   1.0364038      0.0007905581  -8.3502344e-05  6.3421337e-05  152.84043      133.31928      131.93429      0.92810947     1.5543466      2.482456     
     85900   1.0047459      0.000140579   -0.00026283519 -2.4750512e-05  152.87189      133.31928      131.93429      0.95648935     1.5068676      2.4633569    
     86000   0.99908536    -0.00013642964  0.00075912851  0.00020989078  152.90335      133.31928      131.93429      0.94545605     1.4983783      2.4438343    
     86100   0.99881492    -0.00057911487 -0.00033054085 -0.00051493939  152.93481      133.31928      131.93429      0.93776659     1.4979727      2.4357393    
     86200   0.98258378    -0.00021423554 -0.00049982025 -0.00033789759  152.96628      133.31928      131.93429      0.95795321     1.47363        2.4315832    
     86300   0.98759405     0.00079331256  0.00062692902  0.00054206509  152.99774      133.31928      131.93429      0.94895364     1.4811442      2.4300978    
     86400   0.99246391     0.00078922833  0.00086915165  0.00051087869  153.0292       133.31928      131.93429      0.94301438     1.4884478      2.4314621    
     86500   0.99791198    -0.00020476995 -0.00076584866 -0.00040872054  153.06066      133.31928      131.93429      0.94075302     1.4966185      2.4373715    
     86600   1.005922      -0.00090304197 -0.00093129339 -0.00030328738  153.09212      133.31928      131.93429      0.93517204     1.5086316      2.4438036    
     86700   0.99780968    -0.00011204036  0.00075010911 -0.00023893469  153.12358      133.31928      131.93429      0.95192377     1.4964651      2.4483888    
     86800   1.0054064      0.00059875366 -8.2953261e-05  0.00086948266  153.15505      133.31928      131.93429      0.94555154     1.5078582      2.4534097    
     86900   1.0044185     -0.00044225425 -0.00030957461 -3.3281649e-05  153.18651      133.31928      131.93429      0.94954898     1.5063766      2.4559256    
     87000   1.0039687     -0.00034170827  0.00040315108 -0.00010852468  153.21797      133.31928      131.93429      0.94861799     1.505702       2.45432      
     87100   0.9922217      0.00013836327  0.0002520389  -8.3401225e-06  153.24943      133.31928      131.93429      0.95695387     1.4880845      2.4450384    
     87200   0.99271924    -0.00014200972 -0.00049556829  0.00021759724  153.28089      133.31928      131.93429      0.94288069     1.4888307      2.4317114    
     87300   0.98692143     0.00029429158  0.00043837218 -0.00013285834  153.31235      133.31928      131.93429      0.93959838     1.4801354      2.4197338    
     87400   0.98723425     0.00029754453  0.00039966976 -2.4848608e-05  153.34382      133.31928      131.93429      0.92866222     1.4806046      2.4092668    
     87500   0.99144883     0.00064663129  0.00044938496  0.00042125194  153.37528      133.31928      131.93429      0.91651433     1.4869254      2.4034397    
     87600   0.99419167    -0.00060960535  0.00013484589 -0.00011530753  153.40674      133.31928      131.93429      0.90953263     1.491039       2.4005716    
     87700   0.99945274    -0.00096649632 -0.0006387803  -0.00053804181  153.4382       133.31928      131.93429      0.90491106     1.4989292      2.4038403    
     87800   0.99728087     0.0001290014   0.00017285035  0.00013388428  153.46966      133.31928      131.93429      0.92383453     1.495672       2.4195065    
     87900   0.99737805     0.00071819734  0.00062729789  0.0006118173   153.50112      133.31928      131.93429      0.94823372     1.4958177      2.4440515    
     88000   1.0224203     -0.00013451225  3.8527555e-05 -0.00032934972  153.53258      133.31928      131.93429      0.92489093     1.5333748      2.4582657    
     88100   1.0108067     -0.00089370956 -0.00065825285 -0.00027493572  153.56405      133.31928      131.93429      0.94577063     1.5159573      2.4617279    
     88200   1.0201191      0.00039963711  0.00079097216  0.00085990868  153.59551      133.31928      131.93429      0.92414177     1.5299237      2.4540654    
     88300   1.0015236      0.00072496098  0.00041916734  0.00051553337  153.62697      133.31928      131.93429      0.9380788      1.502035       2.4401138    
     88400   0.99326909     0.0001184802  -0.00033018136 -0.00054526959  153.65843      133.31928      131.93429      0.93531361     1.4896553      2.4249689    
     88500   1.0035816     -0.00042828533 -0.00054998986 -0.00048027164  153.68989      133.31928      131.93429      0.91011807     1.5051215      2.4152396    
     88600   1.0106804     -3.0140628e-05  0.00012137381 -0.00022553373  153.72135      133.31928      131.93429      0.89482255     1.5157679      2.4105904    
     88700   0.98560384     0.00044404287  0.00045824206  0.0004488542   153.75282      133.31928      131.93429      0.93208837     1.4781594      2.4102477    
     88800   1.0047855     -0.00015403057 -1.6966423e-05  0.0005306658   153.78428      133.31928      131.93429      0.90459155     1.5069271      2.4115187    
     88900   0.99071942    -4.22317e-05    3.3853256e-05 -0.00022088287  153.81574      133.31928      131.93429      0.92975463     1.4858315      2.4155861    
     89000   1.0117271      0.00015620942  0.00029150054  0.00023849917  153.8472       133.31928      131.93429      0.90397965     1.5173377      2.4213173    
     89100   0.99987705     0.00049510219  0.00013346882  9.7091347e-05  153.87866      133.31928      131.93429      0.92882865     1.4995656      2.4283943    
     89200   0.9861814     -0.0006321261  -4.2268552e-06 -0.00018822709  153.91012      133.31928      131.93429      0.95767479     1.4790256      2.4367003    
     89300   1.0231838     -0.00051475807  0.00053502599  0.00012861698  153.94159      133.31928      131.93429      0.91541241     1.5345199      2.4499323    
     89400   1.0197999      0.00036747063 -0.00030101232 -0.00047834218  153.97305      133.31928      131.93429      0.94643328     1.5294448      2.4758781    
     89500   1.0238151      0.00022984006 -0.00014157075  0.00056725252  154.00451      133.31928      131.93429      0.95567844     1.5354668      2.4911452    
     89600   1.0255648     -2.0617493e-05  0.00027487473  0.00017825141  154.03597      133.31928      131.93429      0.94680559     1.5380908      2.4848964    
     89700   1.0207811     -0.00014871275  0.00012764148 -0.0003332029   154.06743      133.31928      131.93429      0.93251225     1.5309165      2.4634287    
     89800   1.0110988      0.00036676573  0.00049493399  0.00035242754  154.09889      133.31928      131.93429      0.92719452     1.5163954      2.4435899    
     89900   1.003025      -0.0006787951  -0.00031275844 -4.14317e-05    154.13036      133.31928      131.93429      0.92478156     1.5042868      2.4290684    
     90000   1.009431      -0.00034133876 -0.00011933838 -0.00058011887  154.16182      133.31928      131.93429      0.90283006     1.5138942      2.4167243    
     90100   1.0092809     -0.00052590978  0.00047402276  0.00020805048  154.19328      133.31928      131.93429      0.89099558     1.5136691      2.4046646    
     90200   0.98834028    -7.3826494e-06  0.00013943148  0.00025609906  154.22474      133.31928      131.93429      0.91404561     1.4822633      2.3963089    
     90300   0.98529324    -0.00055417374 -0.00081146608  9.5843283e-06  154.2562       133.31928      131.93429      0.91619642     1.4776935      2.39389      
     90400   1.0052586     -0.00028863549  0.0003028232  -6.2211974e-05  154.28766      133.31928      131.93429      0.88952612     1.5076366      2.3971628    
     90500   1.0157391     -0.00018337759  0.00043239614 -3.619198e-05   154.31912      133.31928      131.93429      0.88086418     1.5233548      2.4042189    
     90600   1.0053465      0.00018586875  0.00032251612 -0.00014063158  154.35059      133.31928      131.93429      0.9109335      1.5077684      2.4187019    
     90700   1.0022699      0.001050872   -0.00035070853 -8.8840919e-05  154.38205      133.31928      131.93429      0.93513356     1.5031544      2.4382879    
     90800   1.0130563     -0.00020513976  0.00037492442  0.00031009376  154.41351      133.31928      131.93429      0.93191126     1.5193312      2.4512425    
     90900   1.0151896     -0.000726702    0.00017840478  0.00016723272  154.44497      133.31928      131.93429      0.93341905     1.5225306      2.4559497    
     91000   1.0091861     -0.00040771005  0.00017192859 -0.00035524609  154.47643      133.31928      131.93429      0.93780184     1.5135268      2.4513286    
     91100   1.0144484      0.00015131686  7.5282231e-05  3.0489438e-05  154.50789      133.31928      131.93429      0.92125649     1.521419       2.4426755    
     91200   0.99380163     0.00057665438  9.4822847e-05  0.0005253187   154.53936      133.31928      131.93429      0.9401023      1.490454       2.4305563    
     91300   0.99451335    -6.0610458e-05 -0.00016238256  4.5828798e-05  154.57082      133.31928      131.93429      0.93247268     1.4915214      2.4239941    
     91400   0.99832327    -0.0002961466  -0.00049649146 -0.00063374733  154.60228      133.31928      131.93429      0.92414503     1.4972353      2.4213804    
     91500   0.99945702    -0.00021053073  0.00013385532  0.00018280545  154.63374      133.31928      131.93429      0.92091131     1.4989357      2.419847     
     91600   1.0116036      0.00018249917  0.00015491965  2.7582815e-05  154.6652       133.31928      131.93429      0.89954144     1.5171525      2.416694     
     91700   1.013405      -4.2998324e-05  0.00021123068  0.00030371799  154.69666      133.31928      131.93429      0.89067231     1.5198541      2.4105264    
     91800   1.0061716      0.00033969362  0.00027084234 -0.00010861633  154.72813      133.31928      131.93429      0.88947351     1.5090058      2.3984793    
     91900   0.98262093    -0.00042472334  8.7126629e-05 -0.00063831128  154.75959      133.31928      131.93429      0.90755793     1.4736857      2.3812437    
     92000   0.98965891    -0.00020543183 -0.00010952495  0.00034069604  154.79105      133.31928      131.93429      0.88696934     1.484241       2.3712103    
     92100   0.99266797     0.00021196433 -0.0001772651  -0.00013664847  154.82251      133.31928      131.93429      0.88084472     1.4887538      2.3695985    
     92200   0.98890277     0.00019120283  8.4603447e-05 -0.00013671387  154.85397      133.31928      131.93429      0.89267368     1.4831069      2.3757806    
     92300   0.98006283     8.0314266e-05  5.9691898e-05 -7.078202e-05   154.88543      133.31928      131.93429      0.92055508     1.4698492      2.3904043    
     92400   0.99951612    -0.0004928179   0.00013373777  0.00020302142  154.9169       133.31928      131.93429      0.91312975     1.4990243      2.412154     
     92500   1.0266556     -5.0693953e-05  0.00025049346 -0.00025016214  154.94836      133.31928      131.93429      0.88886929     1.5397268      2.4285961    
     92600   1.0146815     -0.00013283924  0.00012698116 -0.0002708269   154.97982      133.31928      131.93429      0.906734       1.5217686      2.4285026    
     92700   1.005739       0.00045661512  0.00017959292  0.00012645676  155.01128      133.31928      131.93429      0.91453188     1.508357       2.4228889    
     92800   0.99464795    -0.00037714667 -0.00012136885 -0.00021622774  155.04274      133.31928      131.93429      0.92360307     1.4917233      2.4153263    
     92900   0.99424468    -0.00015264071  0.0001818545  -0.00016963403  155.0742       133.31928      131.93429      0.9138773      1.4911185      2.4049958    
     93000   1.0002773      0.00036416742  3.4467338e-05 -2.0604416e-05  155.10566      133.31928      131.93429      0.89457229     1.5001659      2.3947381    
     93100   0.98861001     0.00057489343 -0.0002078763   0.00013514619  155.13713      133.31928      131.93429      0.90305045     1.4826679      2.3857183    
     93200   0.98718645     0.00031126065  0.00046886513  0.00065157161  155.16859      133.31928      131.93429      0.90108702     1.4805329      2.3816199    
     93300   0.98638514    -0.00063335742  1.663201e-05  -0.0009331928   155.20005      133.31928      131.93429      0.9044734      1.4793311      2.3838045    
     93400   0.99649474    -0.00040287712 -0.00045134856  7.6859742e-05  155.23151      133.31928      131.93429      0.90520268     1.494493       2.3996957    
     93500   0.99319442     0.00070257478  0.00034746719  0.00077203231  155.26297      133.31928      131.93429      0.93355852     1.4895433      2.4231018    
     93600   0.99867327     0.00053411933  0.00047645272 -0.00016074786  155.29443      133.31928      131.93429      0.94175163     1.4977602      2.4395119    
     93700   1.0201043     -8.1652546e-05  0.00043729352  4.0359522e-05  155.3259       133.31928      131.93429      0.9134999      1.5299015      2.4434014    
     93800   1.0141606     -0.00079741896 -0.00039374641  6.7329482e-05  155.35736      133.31928      131.93429      0.91896756     1.5209874      2.4399549    
     93900   1.0006334      0.00013318451 -0.00023713249 -0.0004637774   155.38882      133.31928      131.93429      0.93009207     1.5006999      2.430792     
     94000   1.0042185      0.00031104456  0.00032168453  0.00011909368  155.42028      133.31928      131.93429      0.91179895     1.5060766      2.4178756    
     94100   1.0008975     -0.00063958898 -0.00020706222  4.4450962e-05  155.45174      133.31928      131.93429      0.90214839     1.501096       2.4032444    
     94200   1.0078768      0.00078420778 -5.2010121e-05  0.00019504495  155.4832       133.31928      131.93429      0.88290482     1.5115632      2.3944681    
     94300   1.0089455      0.00092348325  0.00046103226  0.0003292785   155.51467      133.31928      131.93429      0.87630101     1.513166       2.389467     
     94400   1.0027999      0.00019136238 -5.2176448e-05 -0.00059611876  155.54613      133.31928      131.93429      0.88340334     1.5039491      2.3873524    
     94500   1.0086065     -0.00066826826 -0.00059327752 -0.00014478213  155.57759      133.31928      131.93429      0.87354614     1.5126575      2.3862037    
     94600   1.0011959     -8.7894895e-05  0.0001485123   0.00065812156  155.60905      133.31928      131.93429      0.88398294     1.5015435      2.3855265    
     94700   0.99624294     0.00032683317  0.00067172914 -9.336434e-05   155.64051      133.31928      131.93429      0.89185515     1.4941153      2.3859705    
     94800   0.99698899     0.00018804499 -2.1628392e-05 -0.00072244531  155.67197      133.31928      131.93429      0.8922905      1.4952342      2.3875247    
     94900   0.99864567     0.00030273991 -0.00027245201  8.6203907e-05  155.70343      133.31928      131.93429      0.89493623     1.4977188      2.3926551    
     95000   0.99039446    -0.00069331725 -0.00045162772 -0.00015192153  155.7349       133.31928      131.93429      0.91991613     1.4853441      2.4052602    
     95100   1.0116513      0.00054650882  0.00030143536 -0.00036073115  155.76636      133.31928      131.93429      0.91892923     1.517224       2.4361532    
     95200   1.0189251     -0.00039575251 -0.00034427697 -0.00029274597  155.79782      133.31928      131.93429      0.92430048     1.5281329      2.4524334    
     95300   1.0324863      0.00015195465  2.4430502e-05 -0.0001980894   155.82928      133.31928      131.93429      0.90058628     1.5484714      2.4490577    
     95400   1.010819       0.00021213151 -0.00012703417 -5.1844306e-06  155.86074      133.31928      131.93429      0.91698099     1.5159758      2.4329568    
     95500   1.0039128     -0.00031649304 -0.0003451585   8.2033863e-05  155.8922       133.31928      131.93429      0.90810966     1.5056182      2.4137279    
     95600   1.0142994      0.00079856688  0.00064865301  0.00068435819  155.92367      133.31928      131.93429      0.8802672      1.5211955      2.4014627    
     95700   0.98346605     0.00054653746 -0.00028263286 -0.00073014871  155.95513      133.31928      131.93429      0.91893668     1.4749532      2.3938899    
     95800   1.0048308     -0.00047514271 -0.00054047312  0.00029861937  155.98659      133.31928      131.93429      0.88383768     1.506995       2.3908327    
     95900   0.99711411    -0.00045812747 -0.00040919796  0.00017340343  156.01805      133.31928      131.93429      0.8919         1.4954219      2.3873219    
     96000   0.99338211     0.00011577208  0.00042399109 -0.00021558649  156.04951      133.31928      131.93429      0.89533996     1.4898248      2.3851648    
     96100   0.99848827     0.00028303798  0.00044908872 -0.00038423598  156.08097      133.31928      131.93429      0.88527261     1.4974828      2.3827554    
     96200   0.99193204     5.6073527e-05 -0.00021320657  0.00027067223  156.11244      133.31928      131.93429      0.89349479     1.4876501      2.3811449    
     96300   1.0024313     -0.00017796383  5.7621368e-05  0.00068716711  156.1439       133.31928      131.93429      0.87562564     1.5033963      2.3790219    
     96400   0.99132989     0.00014749738  0.00022003331 -0.00020163423  156.17536      133.31928      131.93429      0.89062733     1.486747       2.3773743    
     96500   0.99931858    -0.00016511559 -0.00035140962 -0.00020064159  156.20682      133.31928      131.93429      0.88238074     1.498728       2.3811088    
     96600   0.9992085     -6.9992167e-05 -7.2161391e-05  0.00075066529  156.23828      133.31928      131.93429      0.89048965     1.4985629      2.3890526    
     96700   0.99633211     0.00065472987  8.359073e-05   4.1053095e-05  156.26974      133.31928      131.93429      0.90195416     1.4942491      2.3962032    
     96800   1.0059859      0.00010399933 -0.0003397638  -0.00032037889  156.30121      133.31928      131.93429      0.89527321     1.5087274      2.4040006    
     96900   1.0003325     -0.00032358218 -0.00013879134  0.0002001847   156.33267      133.31928      131.93429      0.90840023     1.5002487      2.4086489    
     97000   1.0072174     -0.00029766044  0.00019677498 -0.00033671182  156.36413      133.31928      131.93429      0.89693198     1.5105743      2.4075063    
     97100   0.99685595     0.00027904336  0.00010893162 -2.2834099e-05  156.39559      133.31928      131.93429      0.89862045     1.4950347      2.3936552    
     97200   0.98926868     0.00036952004  0.0002547182  -0.00013305384  156.42705      133.31928      131.93429      0.89008305     1.4836557      2.3737388    
     97300   0.99383242    -2.3227933e-05 -0.00024443597 -5.6254273e-05  156.45851      133.31928      131.93429      0.87116721     1.4905002      2.3616674    
     97400   0.9986461     -0.00033356557  0.0003045361   0.00017521852  156.48997      133.31928      131.93429      0.86156002     1.4977195      2.3592795    
     97500   0.99712563    -7.4967529e-05 -0.00020555465 -0.00056683947  156.52144      133.31928      131.93429      0.86685751     1.4954392      2.3622967    
     97600   1.0019368     -1.1309587e-05 -0.00044101339 -4.1570768e-05  156.5529       133.31928      131.93429      0.86645065     1.5026547      2.3691054    
     97700   0.99907413     0.00032000402  0.00040019336  0.00061874437  156.58436      133.31928      131.93429      0.88448779     1.4983614      2.3828492    
     97800   1.0186676     -0.00015305474  0.00095450554 -0.0004726174   156.61582      133.31928      131.93429      0.8773812      1.5277468      2.405128     
     97900   1.0225357      3.7938676e-05 -0.0002761674  -0.00010981237  156.64728      133.31928      131.93429      0.89034909     1.5335479      2.4238969    
     98000   1.0231412     -0.00010907742 -0.00043597465  0.00068693613  156.67874      133.31928      131.93429      0.89216904     1.534456       2.4266251    
     98100   1.0200484     -0.00048881011 -0.00014706617  0.00016962377  156.71021      133.31928      131.93429      0.89079357     1.5298176      2.4206112    
     98200   1.0099817      0.00043939912  0.00050262122  0.00041080402  156.74167      133.31928      131.93429      0.89803283     1.51472        2.4127528    
     98300   1.0108395      0.00052746711 -0.00029779043 -0.00015714206  156.77313      133.31928      131.93429      0.88490648     1.5160066      2.400913     
     98400   1.0037328     -3.867454e-05   0.00050546312 -0.00018421475  156.80459      133.31928      131.93429      0.88394418     1.5053483      2.3892925    
     98500   1.0041602      0.00013931668 -2.6507259e-05 -0.00021235344  156.83605      133.31928      131.93429      0.87387154     1.5059893      2.3798608    
     98600   0.98539333    -0.00013137709 -0.00067558357 -0.00050816611  156.86751      133.31928      131.93429      0.89567329     1.4778436      2.3735169    
     98700   0.98581314     1.8442436e-05  0.00025464941  0.00031860185  156.89898      133.31928      131.93429      0.89136038     1.4784733      2.3698336    
     98800   0.99152735    -0.0001493361   9.498697e-05   0.00068391181  156.93044      133.31928      131.93429      0.88614357     1.4870431      2.3731867    
     98900   0.98832749     0.00028016253 -2.5289161e-05 -0.00033634335  156.9619       133.31928      131.93429      0.90316469     1.4822442      2.3854088    
     99000   1.0175512      0.00030116446 -9.6740324e-05 -0.00010885109  156.99336      133.31928      131.93429      0.88065139     1.5260724      2.4067238    
     99100   1.0039084     -0.00034515809 -0.00037185013  0.00014419945  157.02482      133.31928      131.93429      0.91788736     1.5056117      2.423499     
     99200   1.0260214     -0.0001223254   0.00017191866 -0.00053227748  157.05628      133.31928      131.93429      0.88770046     1.5387756      2.4264761    
     99300   1.0191966      2.7589973e-05  0.00081072304  0.00041419561  157.08775      133.31928      131.93429      0.89024285     1.5285401      2.4187829    
     99400   0.99946021     0.00033088335 -0.00027227333  0.00090808371  157.11921      133.31928      131.93429      0.90351887     1.4989404      2.4024593    
     99500   1.0033307      0.00054655495 -0.000190712    0.00050585515  157.15067      133.31928      131.93429      0.8804967      1.5047452      2.3852419    
     99600   1.0091055     -0.0006914604  -0.00017197871 -0.00088451425  157.18213      133.31928      131.93429      0.86328532     1.5134059      2.3766912    
     99700   0.99714252    -0.0005616429  -0.00059572306 -0.00027268992  157.21359      133.31928      131.93429      0.87819773     1.4954645      2.3736622    
     99800   0.99279421    -2.7273652e-05 -4.8555807e-05  0.00028800802  157.24505      133.31928      131.93429      0.88217722     1.4889431      2.3711203    
     99900   0.99531525     0.00015370327 -7.0979934e-05 -0.00030003966  157.27651      133.31928      131.93429      0.87601837     1.492724       2.3687424    
    100000   0.98772907    -0.00045613285  0.0003195094  -0.00018338179  157.30798      133.31928      131.93429      0.88760631     1.4813467      2.368953     
Loop time of 186.052 on 1 procs for 100000 steps with 6000 atoms

Performance: 232193.031 tau/day, 537.484 timesteps/s, 3.225 Matom-step/s
99.5% CPU use with 1 MPI tasks x no OpenMP threads

MPI task timing breakdown:
Section |  min time  |  avg time  |  max time  |%varavg| %total
---------------------------------------------------------------
Pair    | 20.957     | 20.957     | 20.957     |   0.0 | 11.26
Bond    | 11.876     | 11.876     | 11.876     |   0.0 |  6.38
Neigh   | 137.36     | 137.36     | 137.36     |   0.0 | 73.83
Comm    | 5.4322     | 5.4322     | 5.4322     |   0.0 |  2.92
Output  | 2.7184     | 2.7184     | 2.7184     |   0.0 |  1.46
Modify  | 5.8018     | 5.8018     | 5.8018     |   0.0 |  3.12
Other   |            | 1.904      |            |       |  1.02

Nlocal:           6000 ave        6000 max        6000 min
Histogram: 1 0 0 0 0 0 0 0 0 0
Nghost:           3219 ave        3219 max        3219 min
Histogram: 1 0 0 0 0 0 0 0 0 0
Neighs:          78595 ave       78595 max       78595 min
Histogram: 1 0 0 0 0 0 0 0 0 0

Total # of neighbors = 78595
Ave neighs/atom = 13.099167
Ave special neighs/atom = 5.8643333
Neighbor list builds = 100000
Dangerous builds not checked

unfix NVT
unfix DEF

write_data ../../data/lammps/tension_final.data
System init for write_data ...
Generated 0 of 0 mixed pair_coeff terms from geometric mixing rule
Total wall time: 0:03:06
