LAMMPS (22 Jul 2025 - Update 4)
############################################################
# NPT Equilibration
############################################################

include inputs/in.main
############################################################
# Main Input
############################################################

include include/variables.in

units lj

dimension 3

boundary p p p

atom_style angle

read_data data/network.data
Reading data file ...
  orthogonal box = (0 0 0) to (100 100 100)
  1 by 1 by 1 MPI processor grid
  reading atoms ...
  5851 atoms
  scanning bonds ...
  2 = max bonds/atom
  scanning angles ...
  1 = max angles/atom
  orthogonal box = (0 0 0) to (100 100 100)
  1 by 1 by 1 MPI processor grid
  reading bonds ...
  5727 bonds
  reading angles ...
  5451 angles
Finding 1-2 1-3 1-4 neighbors ...
  special bond factors lj:    0        0        0       
  special bond factors coul:  0        0        0       
     3 = max # of 1-2 neighbors
     6 = max # of 1-3 neighbors
    18 = max # of 1-4 neighbors
    12 = max # of special neighbors
  special bonds CPU = 0.001 seconds
  read_data CPU = 0.029 seconds

include include/forcefield.in
############################################################
# Force Field
############################################################

special_bonds lj 0.0 1.0 1.0
Finding 1-2 1-3 1-4 neighbors ...
  special bond factors lj:    0        1        1       
  special bond factors coul:  0        0        0       
     3 = max # of 1-2 neighbors
     6 = max # of 1-3 neighbors
    18 = max # of 1-4 neighbors
    12 = max # of special neighbors
  special bonds CPU = 0.001 seconds

pair_style lj/cut 2.5

pair_coeff 1 1 1.0 1.0 2.5

bond_style harmonic

bond_coeff 1 30.0 1.0

bond_coeff 2 80.0 1.0

angle_style harmonic

angle_coeff 1 5.0 180.0

neighbor 1.0 bin

neigh_modify delay 0 every 1 check yes

include include/output.in
############################################################
# Output
############################################################

dump traj all custom 100 output/dump/polymer.lammpstrj id mol type x y z

dump_modify traj sort id

restart 5000 output/restart/restart.*

include include/thermo.in
############################################################
# Thermodynamic Output
############################################################

thermo 100

thermo_style custom step temp press pe ke etotal ebond eangle evdwl density

velocity all create 1.0 987654 mom yes rot yes dist gaussian

fix 1 all npt temp 1.0 1.0 1.0 iso 1.0 1.0 10.0

timestep 0.005

run 20000
Generated 0 of 0 mixed pair_coeff terms from geometric mixing rule
Neighbor list info ...
  update: every = 1 steps, delay = 0 steps, check = yes
  max neighbors/atom: 2000, page size: 100000
  master list distance cutoff = 3.5
  ghost atom cutoff = 3.5
  binsize = 1.75, bins = 58 58 58
  1 neighbor lists, perpetual/occasional/extra = 1 0 0
  (1) pair lj/cut, perpetual
      attributes: half, newton on
      pair build: half/bin/newton
      stencil: half/bin/3d
      bin: standard
WARNING: Inconsistent image flags
For more information see https://docs.lammps.org/err0027 (src/domain.cpp:1052)
Per MPI rank memory allocation (min/avg/max) = 6.915 | 6.915 | 6.915 Mbytes
   Step          Temp          Press          PotEng         KinEng         TotEng         E_bond        E_angle         E_vdwl        Density    
         0   1              0.004946388    0.24410161     1.4997436      1.7438452      0.044861542    0.26171661    -0.062476536    0.005851     
       100   0.69651913     0.0037396796   0.79190821     1.0446001      1.8365083      0.32008457     0.59254979    -0.12072615     0.0067547632 
       200   0.76456228     0.004472068    0.8189777      1.1466474      1.9656251      0.30371716     0.65457797    -0.13931744     0.0075951859 
       300   0.80390833     0.0039812585   0.89131223     1.2056564      2.0969686      0.32567889     0.71389816    -0.14826482     0.0084297249 
       400   0.85588393     0.0020036111   0.92380436     1.2836065      2.2074108      0.34304036     0.73952593    -0.15876193     0.0092750201 
       500   0.90425024     0.00038724008  0.94050406     1.3561435      2.2966476      0.36878101     0.74749469    -0.17577164     0.010136797  
       600   0.92741003    -0.0012246138   0.97633901     1.3908773      2.3672163      0.40718323     0.75470281    -0.18554703     0.011017467  
       700   0.97071164    -0.0012266073   0.97156932     1.4558186      2.4273879      0.41076544     0.75803068    -0.1972268      0.011917972  
       800   0.99054969    -0.001531363    0.99139585     1.4855706      2.4769664      0.44184625     0.75623237    -0.20668277     0.012838674  
       900   1.0235658     -0.00071531681  0.97785668     1.5350863      2.512943       0.42702187     0.77778908    -0.22695426     0.013779971  
      1000   1.0046629     -0.0020939135   1.0260153      1.5067368      2.5327521      0.47566563     0.80729924    -0.25694961     0.014742073  
      1100   1.060612       0.00040808425  0.94189487     1.590646       2.5325409      0.44371955     0.7775382     -0.27936289     0.015724829  
      1200   1.0151761     -0.001571087    0.98253723     1.5225038      2.5050411      0.47322877     0.81495021    -0.30564175     0.016728291  
      1300   1.0250814      0.00057002685  0.92654412     1.5373593      2.4639035      0.44304698     0.80732029    -0.32382314     0.017752597  
      1400   0.99807637    -0.001185128    0.92343813     1.4968587      2.4202968      0.46259692     0.8096458     -0.34880459     0.018797487  
      1500   1.0003787      0.00087622414  0.88418292     1.5003116      2.3844946      0.42665645     0.83386432    -0.37633785     0.019862879  
      1600   0.99939961     0.00082309106  0.85973135     1.4988432      2.3585745      0.43634055     0.83063269    -0.40724189     0.020948234  
      1700   0.99252622     0.00037807797  0.84882151     1.4885349      2.3373564      0.44296813     0.84007572    -0.43422235     0.022053923  
      1800   0.99453801     0.0023372582   0.82983596     1.491552       2.321388       0.45079511     0.84080015    -0.46175929     0.023179262  
      1900   1.0063607      0.0020173437   0.79476722     1.5092831      2.3040503      0.44607968     0.8392184     -0.49053086     0.02432517   
      2000   1.0076494      0.0015142917   0.77417447     1.5112158      2.2853902      0.45209793     0.8540819     -0.53200536     0.025490632  
      2100   1.0134357      0.0013979209   0.73982288     1.5198937      2.2597166      0.45738191     0.84900498    -0.56656401     0.026676467  
      2200   1.0059856     -0.00076155509  0.71904563     1.5087205      2.2277661      0.45795368     0.86141216    -0.60032021     0.027882815  
      2300   1.0048982     -0.00046166751  0.68411184     1.5070896      2.1912015      0.44713006     0.86193921    -0.62495743     0.029109234  
      2400   1.0100753      0.00097544541  0.63967821     1.514854       2.1545322      0.45011821     0.85371088    -0.66415088     0.030354774  
      2500   0.99021842    -0.00049037112  0.63381733     1.4850738      2.1188911      0.46075917     0.86861412    -0.69555596     0.031619401  
      2600   1.0012518      0.001113279    0.5883211      1.501621       2.0899421      0.45472237     0.87085389    -0.73725516     0.032902332  
      2700   1.0099835      0.0019741415   0.54936927     1.5147164      2.0640856      0.46029495     0.86770703    -0.77863271     0.034204524  
      2800   1.0142294      0.0020583691   0.51630841     1.521084       2.0373925      0.46536332     0.85899496    -0.80804986     0.035525662  
      2900   1.0034469     -0.00064171453  0.50219094     1.5049131      2.007104       0.46119816     0.88199003    -0.84099725     0.036866476  
      3000   1.0077759     -0.0010833416   0.46303188     1.5114055      1.9744374      0.46858783     0.87366053    -0.87921648     0.038227816  
      3100   1.0088473     -0.0017073037   0.42552607     1.5130123      1.9385383      0.46528984     0.88288216    -0.92264592     0.03960701   
      3200   0.99328957    -0.0019851448   0.40959485     1.4896797      1.8992746      0.47812442     0.90233609    -0.97086567     0.041005887  
      3300   1.0174142     -0.0045764729   0.33506207     1.5258605      1.8609226      0.47326791     0.88089495    -1.0191008      0.042422569  
      3400   1.0045676     -0.0033355482   0.31472549     1.5065939      1.8213194      0.46489068     0.89547141    -1.0456366      0.043857503  
      3500   0.99286364    -0.0067443094   0.29577064     1.4890409      1.7848116      0.49109842     0.89637545    -1.0917032      0.045313034  
      3600   1.0086216     -0.0031606212   0.24023259     1.5126738      1.7529064      0.48171686     0.89464244    -1.1361267      0.046785642  
      3700   1.0196118      0.0023958925   0.18936011     1.5291563      1.7185164      0.48309838     0.90295534    -1.1966936      0.048273598  
      3800   1.0127451     -0.0016369963   0.16112483     1.518858       1.6799828      0.4974208      0.90125723    -1.2375532      0.049778165  
      3900   1.0095197      0.00010062176  0.12530064     1.5140208      1.6393214      0.49175765     0.90449858    -1.2709556      0.051299396  
      4000   1.0111948     -0.0065698747   0.080019997    1.516533       1.596553       0.48327851     0.90521419    -1.3084727      0.052840689  
      4100   1.0142006     -0.006412792    0.031891954    1.521041       1.5529329      0.48637037     0.90635938    -1.3608378      0.054401812  
      4200   1.00143       -0.0053093688   0.0060695326   1.5018882      1.5079577      0.49401441     0.90521385    -1.3931587      0.055982791  
      4300   1.0171031     -0.0037784205  -0.059929227    1.5253938      1.4654646      0.50006356     0.91031905    -1.4703118      0.057582718  
      4400   1.0178481     -0.003928777   -0.10358643     1.5265112      1.4229247      0.48481833     0.92830577    -1.5167105      0.059195897  
      4500   1.0085492     -0.0054303945  -0.13278494     1.5125653      1.3797803      0.49029266     0.92425902    -1.5473366      0.06082318   
      4600   1.0050831     -0.00050005213 -0.16908095     1.5073669      1.338286       0.48785044     0.92433343    -1.5812648      0.062470056  
      4700   1.0028664     -0.0031467426  -0.20546496     1.5040424      1.2985775      0.4843535      0.9488765     -1.638695       0.064134674  
      4800   1.0090217     -0.0029299938  -0.25092295     1.5132738      1.2623509      0.49788036     0.94107137    -1.6898747      0.065815403  
      4900   1.0246553     -0.0040138826  -0.31422068     1.5367203      1.2224996      0.50515538     0.92623055    -1.7456066      0.067516621  
      5000   1.0185541     -0.0081997332  -0.34944951     1.52757        1.1781205      0.50180381     0.93466472    -1.785918       0.069232478  
      5100   1.0146058     -0.0041111119  -0.39003475     1.5216486      1.1316139      0.51481141     0.93251518    -1.8373613      0.070970224  
      5200   1.0251864     -0.0031217833  -0.4503359      1.5375168      1.0871809      0.50363351     0.94431878    -1.8982882      0.072720491  
      5300   1.0323708     -0.007540126   -0.50791201     1.5482915      1.0403795      0.50936626     0.95315768    -1.970436       0.07448712   
      5400   1.0066669     -0.015400637   -0.51880069     1.5097423      0.99094158     0.52232606     0.95234226    -1.993469       0.076270583  
      5500   1.0205854     -0.0099608411  -0.58631038     1.5306165      0.9443061      0.52024757     0.95653877    -2.0630967      0.07807747   
      5600   1.0185372     -0.0063678423  -0.62787033     1.5275446      0.89967431     0.5119877      0.96083665    -2.1006947      0.079889469  
      5700   1.0253671     -0.0014485364  -0.6830667      1.5377878      0.85472107     0.5356864      0.94893545    -2.1676886      0.081720465  
      5800   1.0092811      0.0006714347  -0.70120392     1.5136629      0.81245893     0.52799419     0.95276209    -2.1819602      0.083563036  
      5900   1.0101564     -0.0060012036  -0.74273311     1.5149756      0.77224245     0.54357266     0.95055386    -2.2368596      0.085427309  
      6000   1.0203649      0.0071013215  -0.79679121     1.5302857      0.73349448     0.53665921     0.94355972    -2.2770101      0.087307854  
      6100   1.0073658     -0.0082385985  -0.81730304     1.5107905      0.69348745     0.52938797     0.96257062    -2.3092616      0.089205107  
      6200   1.0098724     -0.012888532   -0.8585325      1.5145497      0.65601718     0.53938874     0.96037345    -2.3582947      0.091121178  
      6300   1.0120028     -0.0017567558  -0.90002873     1.5177448      0.61771609     0.55128042     0.95417586    -2.405485       0.093057637  
      6400   1.0283481     -0.00880358    -0.96353367     1.5422585      0.57872487     0.54147459     0.94092898    -2.4459373      0.095001189  
      6500   1.0084646     -0.016965779   -0.97104626     1.5124383      0.54139203     0.54170837     0.97296294    -2.4857176      0.096964584  
      6600   1.0190079     -0.00088572764 -1.0223454      1.5282506      0.50590518     0.54837695     0.96518752    -2.5359099      0.098942207  
      6700   1.0087851     -0.015563973   -1.0446082      1.5129191      0.46831092     0.54995911     0.97230559    -2.5668729      0.10093612   
      6800   1.0169336     -0.0052940044  -1.0923452      1.5251397      0.43279449     0.56774198     0.97601387    -2.6361011      0.10294885   
      6900   1.0089297     -0.003794782   -1.1152464      1.513136       0.39788955     0.55256993     0.98638419    -2.6542005      0.10496652   
      7000   1.0091552     -0.0015578357  -1.1507751      1.5134741      0.36269901     0.53581015     0.97859537    -2.6651806      0.10700795   
      7100   1.0001888     -0.018934082   -1.1688691      1.5000269      0.33115779     0.53718436     0.97425341    -2.6803068      0.10907578   
      7200   0.99439068    -0.014575777   -1.1879402      1.4913311      0.30339089     0.56154938     0.9654646     -2.7149542      0.11116043   
      7300   1.0117858     -0.0067210886  -1.2411951      1.5174194      0.27622429     0.56746538     0.95357289    -2.7622334      0.11325733   
      7400   1.0025081     -0.0018141038  -1.2535593      1.5035052      0.24994595     0.568483       0.97597224    -2.7980145      0.11535684   
      7500   1.000659      -0.01824002    -1.276205       1.5007319      0.2245269      0.56362021     0.98751992    -2.8273451      0.11747941   
      7600   1.0002236     -0.0063570773  -1.2988742      1.500079       0.20120477     0.55838534     0.99958506    -2.8568446      0.11961839   
      7700   1.0008461     -0.0054699927  -1.3226267      1.5010125      0.17838585     0.56620773     0.99457394    -2.8834084      0.12176089   
      7800   1.0103823     -0.0062418047  -1.3586222      1.5153145      0.15669223     0.55969077     1.0022518     -2.9205648      0.12392468   
      7900   1.0167826      0.005320047   -1.39041        1.5249132      0.13450325     0.56085836     0.9945345     -2.9458028      0.12609628   
      8000   1.0086538     -0.0092532803  -1.4017723      1.5127221      0.11094977     0.56030901     0.99698179    -2.9590631      0.12829125   
      8100   0.99909428    -0.0037790418  -1.4102643      1.4983853      0.088120975    0.56571344     0.99539944    -2.9713772      0.1305145    
      8200   1.003789      -0.010877308   -1.4394825      1.5054261      0.065943648    0.56618204     0.98757195    -2.9932365      0.13274431   
      8300   0.98935334    -0.0064761211  -1.4384807      1.4837764      0.045295702    0.5855594      0.99930348    -3.0233435      0.13500136   
      8400   1.0059744     -0.012173202   -1.4799427      1.5087037      0.028760981    0.56591089     0.98771067    -3.0335643      0.13725539   
      8500   0.99549782    -0.0091547088  -1.4816053      1.4929915      0.011386209    0.57024875     1.0043944     -3.0562485      0.13953242   
      8600   1.0011335     -0.013824869   -1.5104382      1.5014437     -0.0089945722   0.57068486     0.99802181    -3.0791449      0.14182628   
      8700   0.99701604    -0.024347517   -1.5284008      1.4952685     -0.033132337    0.57766724     0.99426615    -3.1003342      0.14414216   
      8800   1.0111236     -0.035224984   -1.5707256      1.5164261     -0.05429949     0.58350785     0.98938619    -3.1436197      0.1464654    
      8900   0.99836028    -0.013303913   -1.5737253      1.4972845     -0.076440826    0.58219608     1.007741      -3.1636624      0.14880758   
      9000   1.0006305     -0.020826148   -1.6004144      1.5006891     -0.099725275    0.59729757     1.0009258     -3.1986378      0.1511675    
      9100   1.0053292      0.0012414638  -1.6291895      1.507736      -0.12145344     0.59347358     1.0035251     -3.2261881      0.15351737   
      9200   1.0123032     -0.022802126   -1.6589221      1.5181953     -0.14072679     0.59153384     1.0157112     -3.2661671      0.15587764   
      9300   1.0086573     -0.012537204   -1.6744031      1.5127274     -0.16167568     0.594606       1.0165386     -3.2855477      0.1582599    
      9400   1.0105181     -0.0099820115  -1.7001861      1.5155181     -0.18466794     0.60691766     1.0043626     -3.3114663      0.16066816   
      9500   1.0274591     -0.0022624497  -1.7479994      1.5409252     -0.20707423     0.59157162     1.0130512     -3.3526223      0.16307873   
      9600   0.99617903    -0.016511397   -1.7229292      1.4940132     -0.22891602     0.6092662      1.0247948     -3.3569902      0.16550751   
      9700   1.0190095     -0.023054592   -1.7780096      1.5282531     -0.24975654     0.58628022     1.0173561     -3.3816459      0.16795281   
      9800   1.0132955     -0.0099586634  -1.7925782      1.5196834     -0.27289477     0.60157722     1.0116991     -3.4058545      0.17042066   
      9900   1.0124269     -0.013741626   -1.8148973      1.5183809     -0.29651638     0.61913062     1.0194123     -3.4534402      0.17289237   
     10000   1.0082316      0.017145026   -1.8301544      1.512089      -0.31806549     0.6059214      1.0172697     -3.4533456      0.17538063   
     10100   1.0115259     -0.011757802   -1.8546553      1.5170295     -0.33762578     0.60353559     1.0324359     -3.4906268      0.17787867   
     10200   1.0223866     -0.018471962   -1.8885413      1.5333179     -0.3552234      0.59858909     1.0201694     -3.5072997      0.18038786   
     10300   1.0142568     -0.022031263   -1.898968       1.5211251     -0.37784284     0.61974843     1.0243099     -3.5430263      0.18292929   
     10400   1.0069906     -0.019627243   -1.9108908      1.5102278     -0.400663       0.61279953     1.0201476     -3.5438379      0.18548094   
     10500   1.0093073     -0.031195643   -1.9331771      1.5137022     -0.41947489     0.58515766     1.0224799     -3.5408147      0.18805387   
     10600   1.0148504     -0.0243356     -1.9602779      1.5220154     -0.43826249     0.58992987     1.017913      -3.5681208      0.19065942   
     10700   1.0080444     -0.0035678402  -1.970108       1.5118082     -0.4582998      0.60826588     1.0085105     -3.5868844      0.19326264   
     10800   1.0134497      0.006789499   -1.9958089      1.5199148     -0.4758941      0.60106092     1.0222416     -3.6191114      0.1958515    
     10900   1.0068375     -0.023705019   -2.0030567      1.5099981     -0.49305856     0.6168152      1.0087907     -3.6286626      0.1984643    
     11000   1.0065802      4.7306768e-05 -2.0217812      1.5096123     -0.51216886     0.63753797     1.0075239     -3.6668431      0.20112488   
     11100   1.012778      -0.026764242   -2.0456796      1.5189074     -0.5267722      0.60574694     1.0160629     -3.6674894      0.20373896   
     11200   1.0087966     -0.033832305   -2.0524844      1.5129362     -0.53954816     0.59735386     1.0237606     -3.6735989      0.20641968   
     11300   1.0006476     -0.0027154954  -2.0518061      1.5007149     -0.55109128     0.60413969     1.0038612     -3.6598071      0.2091125    
     11400   0.98918877    -0.017358727   -2.0436051      1.4835296     -0.56007554     0.59546063     1.0349633     -3.674029       0.21181263   
     11500   1.0114652     -0.033480265   -2.0883863      1.5169385     -0.57144785     0.60613342     1.0164268     -3.7109465      0.21453446   
     11600   1.0070129     -0.041967569   -2.0971608      1.5102611     -0.58689967     0.63822998     1.007422      -3.7428127      0.21727713   
     11700   1.0132778     -0.005295408   -2.1247837      1.5196569     -0.60512676     0.61488958     1.0351531     -3.7748264      0.21999161   
     11800   1.0077518     -0.032152446   -2.1345779      1.5113693     -0.62320859     0.58803794     1.0441048     -3.7667207      0.22271      
     11900   0.99557326    -0.025338354   -2.1265351      1.4931047     -0.63343045     0.59491276     1.0339564     -3.7554043      0.22550324   
     12000   1.0103419     -0.029190151   -2.1550926      1.5152538     -0.6398388      0.61446395     1.0202707     -3.7898272      0.22831539   
     12100   0.9922779      0.0020269022  -2.1321471      1.4881625     -0.64398461     0.62711846     1.0377251     -3.7969907      0.23109784   
     12200   1.0039803     -0.0038948284  -2.1547041      1.5057131     -0.648991       0.62261191     1.0286093     -3.8059253      0.23388351   
     12300   1.0075288     -0.010096948   -2.172971       1.5110349     -0.66193605     0.61367606     1.0585697     -3.8452167      0.23668673   
     12400   1.0023373     -0.0084996409  -2.1873303      1.5032489     -0.68408138     0.63041893     1.031621      -3.8493702      0.23951284   
     12500   1.0067839     -0.02750682    -2.2129197      1.5099177     -0.703002       0.61803406     1.0404197     -3.8713735      0.24236333   
     12600   0.99046027    -0.011788231   -2.198626       1.4854365     -0.71318954     0.62532624     1.036161      -3.8601132      0.24520599   
     12700   0.97670814    -0.048027542   -2.1821064      1.4648118     -0.71729457     0.63018089     1.0443001     -3.8565873      0.24808398   
     12800   1.0234858      0.006606457   -2.2544335      1.5349663     -0.71946722     0.63075095     1.0229284     -3.9081129      0.25100018   
     12900   1.0143414     -0.018262309   -2.2422347      1.521252      -0.72098266     0.63370766     1.0374992     -3.9134415      0.25383983   
     13000   0.99820851    -0.018240149   -2.2242253      1.4970569     -0.72716848     0.64722581     1.0311007     -3.9025518      0.25673658   
     13100   1.0066535     -0.011612016   -2.2488552      1.5097222     -0.73913305     0.64753021     1.0596756     -3.9560611      0.2596784    
     13200   0.9962899      0.00088915376 -2.2550894      1.4941794     -0.76090992     0.65421945     1.0466533     -3.9559621      0.26257727   
     13300   0.99363846    -0.020151786   -2.2749009      1.490203      -0.78469794     0.64803111     1.0413942     -3.9643262      0.26549132   
     13400   0.98655473    -0.03751879    -2.2736343      1.4795792     -0.79405508     0.64720035     1.0381607     -3.9589953      0.26843777   
     13500   1.0057213     -0.028397072   -2.3034187      1.5083241     -0.79509458     0.63905109     1.0438233     -3.9862931      0.27142382   
     13600   1.0030121     -0.026850485   -2.2964688      1.504261      -0.79220778     0.64010761     1.0427447     -3.9793211      0.2744126    
     13700   1.0059002      0.021587748   -2.3001292      1.5085924     -0.79153683     0.63290101     1.0475318     -3.980562       0.27740547   
     13800   1.010365      -0.037488057   -2.3129205      1.5152885     -0.79763198     0.62811453     1.0398331     -3.9808681      0.28040248   
     13900   1.0026218     -0.028842223   -2.3176666      1.5036757     -0.81399089     0.63188078     1.0417089     -3.9912563      0.28347947   
     14000   1.0100284     -0.038116532   -2.356          1.5147837     -0.84121634     0.63704184     1.0349973     -4.0280392      0.2865745    
     14100   1.0051753      0.025534191   -2.3729113      1.5075053     -0.865406       0.63701309     1.0490853     -4.0590097      0.28965482   
     14200   0.99058412    -0.017038074   -2.3652381      1.4856222     -0.87961584     0.64517463     1.0667292     -4.0771419      0.29264781   
     14300   1.0126938      0.0051897358  -2.4057358      1.518781      -0.88695475     0.6426217      1.0510423     -4.0993998      0.29569508   
     14400   0.99563857    -0.015924784   -2.3869187      1.4932026     -0.89371606     0.64347621     1.0707409     -4.1011358      0.29875755   
     14500   1.0048539     -0.0071427792  -2.4074125      1.5070232     -0.90038933     0.64888995     1.0640455     -4.120348       0.30186181   
     14600   1.0017671     -0.0079331245  -2.4092315      1.5023938     -0.90683766     0.63611666     1.0540662     -4.0994143      0.30496159   
     14700   0.99805746    -0.056681991   -2.4161399      1.4968303     -0.91930956     0.64580454     1.0653127     -4.1272571      0.30811126   
     14800   0.99622946    -0.0041846789  -2.4282747      1.4940888     -0.93418595     0.64548455     1.0603751     -4.1341344      0.31127381   
     14900   0.99559946     0.024400658   -2.4507081      1.4931439     -0.9575642      0.6331595      1.0637401     -4.1476077      0.31440229   
     15000   1.0028772     -0.021001538   -2.4799109      1.5040588     -0.97585218     0.62728332     1.0617388     -4.168933       0.31752323   
     15100   1.0045482     -0.014244937   -2.4894462      1.5065648     -0.98288145     0.63074531     1.0646924     -4.1848839      0.32071157   
     15200   0.98853681     0.005467346   -2.4686953      1.4825518     -0.98614352     0.64427816     1.0523061     -4.1652796      0.32389639   
     15300   1.0014777     -0.0019063678  -2.4877402      1.5019598     -0.98578042     0.63240096     1.0698403     -4.1899815      0.32709958   
     15400   1.007282      -0.050830779   -2.4963164      1.5106648     -0.98565153     0.64134209     1.0629644     -4.2006228      0.33030675   
     15500   0.98886994    -0.051981046   -2.4683979      1.4830514     -0.98534645     0.67439965     1.0631361     -4.2059336      0.33357503   
     15600   0.99557568     0.0074122843  -2.4812394      1.4931083     -0.98813114     0.64977337     1.0709332     -4.201946       0.33686565   
     15700   1.0144506      0.01525787    -2.5154033      1.5214158     -0.99398751     0.64075168     1.0924545     -4.2486095      0.34006635   
     15800   0.99096079    -0.0032137147  -2.4852961      1.4861871     -0.99910892     0.6554464      1.0845413     -4.2252837      0.34322524   
     15900   1.0237409      0.0090672851  -2.5402595      1.535349      -1.0049106      0.63612512     1.0916596     -4.2680442      0.34645733   
     16000   1.0049796     -0.0023524083  -2.5178638      1.5072118     -1.010652       0.65622824     1.0797374     -4.2538295      0.34967082   
     16100   0.9943647     -0.0031056053  -2.5079136      1.4912921     -1.0166215      0.64816374     1.0858453     -4.2419226      0.352974     
     16200   1.0193567      0.0026685845  -2.5508738      1.5287738     -1.0221001      0.67788042     1.0709546     -4.2997089      0.3563123    
     16300   1.0256614      0.049567532   -2.5693534      1.5382292     -1.0311242      0.67565753     1.0716684     -4.3166793      0.35960327   
     16400   1.0113736      0.014023687   -2.5642962      1.5168011     -1.0474951      0.67199916     1.0745794     -4.3108748      0.36280181   
     16500   1.0014676     -0.0086855079  -2.5656154      1.5019447     -1.0636707      0.66585389     1.0667705     -4.2982398      0.36608362   
     16600   1.0001902      0.023810228   -2.5702342      1.5000288     -1.0702054      0.64922314     1.065411      -4.2848684      0.36947193   
     16700   0.99981687    -0.045501175   -2.5704033      1.499469      -1.0709343      0.65195262     1.0732011     -4.295557       0.37290554   
     16800   1.0011709     -0.051382228   -2.5734012      1.5014997     -1.0719015      0.65691247     1.0837379     -4.3140516      0.37637016   
     16900   1.0049634     -0.025299682   -2.5794899      1.5071874     -1.0723025      0.66617171     1.0803018     -4.3259635      0.37981133   
     17000   1.0104598      0.027825933   -2.5906482      1.5154307     -1.0752175      0.65486369     1.0727994     -4.3183113      0.38323301   
     17100   0.99984737     0.0087250586  -2.5835205      1.4995147     -1.0840058      0.67325284     1.0869106     -4.343684       0.38661207   
     17200   1.0014954      0.038249825   -2.6096185      1.5019863     -1.1076322      0.67466332     1.0819111     -4.3661929      0.38999199   
     17300   0.99081731    -0.053460839   -2.6173519      1.4859719     -1.13138        0.68462246     1.0836626     -4.385637       0.39333299   
     17400   0.99749559    -0.03548953    -2.6384746      1.4959877     -1.142487       0.66712647     1.0819038     -4.3875049      0.39677567   
     17500   0.99417718    -0.059528406   -2.6378838      1.4910109     -1.1468729      0.64382695     1.0944311     -4.3761419      0.4002735    
     17600   1.0170538     -0.00011139439 -2.6755178      1.52532       -1.1501979      0.63663524     1.0876616     -4.3998147      0.40382828   
     17700   0.9995827     -0.0426251     -2.6531332      1.4991178     -1.1540154      0.63984374     1.0969367     -4.3899137      0.40731633   
     17800   0.99915137     0.020191865   -2.6581828      1.4984709     -1.1597118      0.67086405     1.0842017     -4.4132485      0.41088026   
     17900   1.0061981     -0.0119435     -2.6816448      1.5090392     -1.1726056      0.6950503      1.0835185     -4.4602136      0.41433333   
     18000   1.0124501      0.019270305   -2.7162361      1.5184156     -1.1978206      0.66159868     1.0848524     -4.4626872      0.41776783   
     18100   1.0002868      0.017262929   -2.7196323      1.5001738     -1.2194585      0.65954896     1.0754332     -4.4546144      0.42126605   
     18200   1.0004948      0.0095721521  -2.7280965      1.5004857     -1.2276108      0.65310703     1.0674785     -4.448682       0.42481127   
     18300   0.98612606    -0.05042104    -2.7128415      1.4789363     -1.2339052      0.6722567      1.0947197     -4.4798178      0.42839482   
     18400   1.0059069     -0.0096272774  -2.745221       1.5086024     -1.2366186      0.66484815     1.0899006     -4.4999698      0.43204685   
     18500   0.99655927     0.025253123   -2.7297028      1.4945834     -1.2351194      0.68278951     1.0661353     -4.4786276      0.43562634   
     18600   1.0010863      0.035432469   -2.7353498      1.5013728     -1.233977       0.66886314     1.0970986     -4.5013116      0.43919569   
     18700   1.0095368     -0.027248499   -2.7507357      1.5140464     -1.2366893      0.68521775     1.081839      -4.5177924      0.44267417   
     18800   0.99480501     0.019675925   -2.7393051      1.4919525     -1.2473526      0.69369473     1.0874403     -4.5204401      0.44619285   
     18900   1.0103804      0.01748485    -2.7820874      1.5153116     -1.2667758      0.69114442     1.0766919     -4.5499237      0.4497353    
     19000   0.99011453    -0.023022803   -2.7740769      1.484918      -1.289159       0.69498525     1.0861923     -4.5552545      0.45332273   
     19100   1.0037992     -0.032086736   -2.8074669      1.5054414     -1.3020255      0.68242178     1.0797924     -4.5696811      0.45698872   
     19200   1.0046777      0.013611049   -2.8167198      1.506759      -1.3099607      0.68294026     1.0808367     -4.5804967      0.46061202   
     19300   1.0058544     -0.025189298   -2.8235558      1.5085237     -1.3150321      0.67859684     1.0907869     -4.5929395      0.46424908   
     19400   0.99396365     0.010467182   -2.8067229      1.4906907     -1.3160322      0.69412041     1.0986578     -4.5995011      0.46788269   
     19500   0.99919333     0.013409957   -2.8160675      1.4985338     -1.3175337      0.66981287     1.102219      -4.5880994      0.47153044   
     19600   1.006204       0.0026442694  -2.8304598      1.5090481     -1.3214117      0.65000572     1.0845875     -4.565053       0.47526775   
     19700   0.99659928    -0.042536915   -2.8255391      1.4946434     -1.3308957      0.67775823     1.0936236     -4.596921       0.47905856   
     19800   1.0043228     -0.014591332   -2.8497506      1.5062267     -1.3435239      0.68489795     1.0787038     -4.6133524      0.482802     
     19900   0.9920022     -0.0079017794  -2.8440683      1.487749      -1.3563193      0.67957808     1.0846377     -4.6082841      0.4864974    
     20000   1.006697       0.049701157   -2.8767705      1.5097875     -1.366983       0.67438166     1.0686815     -4.6198337      0.49014803   
Loop time of 34.0236 on 1 procs for 20000 steps with 5851 atoms

Performance: 253941.231 tau/day, 587.827 timesteps/s, 3.439 Matom-step/s
99.6% CPU use with 1 MPI tasks x no OpenMP threads

MPI task timing breakdown:
Section |  min time  |  avg time  |  max time  |%varavg| %total
---------------------------------------------------------------
Pair    | 23.358     | 23.358     | 23.358     |   0.0 | 68.65
Bond    | 3.3267     | 3.3267     | 3.3267     |   0.0 |  9.78
Neigh   | 4.6286     | 4.6286     | 4.6286     |   0.0 | 13.60
Comm    | 0.30405    | 0.30405    | 0.30405    |   0.0 |  0.89
Output  | 0.57793    | 0.57793    | 0.57793    |   0.0 |  1.70
Modify  | 1.6817     | 1.6817     | 1.6817     |   0.0 |  4.94
Other   |            | 0.1468     |            |       |  0.43

Nlocal:           5851 ave        5851 max        5851 min
Histogram: 1 0 0 0 0 0 0 0 0 0
Nghost:           7459 ave        7459 max        7459 min
Histogram: 1 0 0 0 0 0 0 0 0 0
Neighs:         391444 ave      391444 max      391444 min
Histogram: 1 0 0 0 0 0 0 0 0 0

Total # of neighbors = 391444
Ave neighs/atom = 66.902068
Ave special neighs/atom = 5.8024269
Neighbor list builds = 1017
Dangerous builds = 0

unfix 1

write_data data/npt.data
System init for write_data ...
Generated 0 of 0 mixed pair_coeff terms from geometric mixing rule
Total wall time: 0:00:34
