ITEM: TIMESTEP
0
ITEM: NUMBER OF ATOMS
500
ITEM: BOX BOUNDS pp pp pp
0.0000000000000000e+00 6.0000000000000000e+01
0.0000000000000000e+00 6.0000000000000000e+01
0.0000000000000000e+00 6.0000000000000000e+01
ITEM: ATOMS id type x y z
183 1 36.207 28.72 12.263
303 1 12.648 42.953 12.743
302 1 13.115 43.617 12.158
301 1 12.883 44.471 11.692
184 1 36.324 28.353 13.186
185 1 37.05 27.668 13.242
186 1 36.916 27.512 14.221
181 1 35.391 29.669 13.65
182 1 35.984 29.486 12.866
318 1 11.149 38.583 13.927
317 1 11.447 39.436 13.499
316 1 11.998 40.129 13.965
304 1 12.211 43.819 12.987
305 1 12.675 44.34 13.704
309 1 11.769 44.747 14.231
306 1 13.543 44.65 14.092
192 1 35.329 25.675 15.706
190 1 36.831 26.447 15.002
191 1 35.853 26.349 15.186
189 1 37.37 26.96 15.67
187 1 37.822 27.153 14.445
188 1 38.033 27.615 15.306
360 1 12.3 33.127 15.489
319 1 10.341 38.285 14.435
320 1 10.342 39.021 15.111
315 1 11.814 41.04 14.333
299 1 49.379 40.909 15.475
313 1 10.932 42.783 14.694
314 1 11.477 41.957 14.544
311 1 10.465 43.722 15.169
312 1 10.993 43.03 15.661
310 1 11.242 44.317 14.965
308 1 12.36 44.527 15.007
307 1 12.884 45.246 14.551
193 1 36.054 25.511 16.375
194 1 36.857 26.057 16.612
355 1 10.735 32.561 17.031
356 1 10.211 33.409 16.946
357 1 11.121 33.337 16.536
358 1 11.679 33.868 15.899
359 1 12.398 33.428 16.437
297 1 48.347 39.816 16.182
296 1 47.845 40.431 16.791
298 1 48.948 40.602 16.324
300 1 49.883 41.65 15.92
198 1 35.903 25.695 17.425
199 1 36.76 25.597 17.931
200 1 37.543 24.997 18.092
195 1 36.959 26.395 17.548
197 1 35.913 26.369 18.164
196 1 36.362 27.167 17.763
353 1 10.986 32.14 18.287
354 1 11.498 32.724 17.656
295 1 48.343 39.825 17.411
294 1 48.676 39.074 17.983
89 1 48.374 48.451 17.857
86 1 46.51 48.841 18.22
87 1 47.448 49.042 17.939
90 1 48.965 49.104 17.382
91 1 49.894 48.877 17.674
92 1 49.371 49.527 18.226
94 1 49.213 50.406 18.481
16 1 22.382 5.602 19.918
345 1 9.478 29.125 19.717
342 1 11.325 29.78 18.919
343 1 10.891 29.01 19.386
344 1 10.068 29.372 18.948
351 1 10.837 31.032 19.723
341 1 12.13 30.08 19.431
352 1 11.324 31.59 19.051
202 1 37.362 32.282 19.945
201 1 37.9 32.872 19.342
290 1 47.876 38.822 19.745
293 1 48.788 39.276 18.956
292 1 48.939 40.126 19.46
85 1 45.807 48.486 18.837
84 1 45.946 48.892 19.74
88 1 48.215 49.129 18.574
93 1 50.067 49.981 18.783
95 1 49.886 50.878 19.05
96 1 50.529 50.396 19.645
100 1 48.028 51.861 19.204
99 1 48.833 52.38 19.494
17 1 21.875 5.196 20.679
18 1 22.415 4.403 20.395
19 1 23.37 4.676 20.506
20 1 23.757 5.395 21.085
14 1 22.3 6.94 20.899
15 1 21.795 6.186 20.479
346 1 10.288 28.684 20.104
347 1 10.921 29.364 20.474
348 1 11.657 29.899 20.889
349 1 11.815 30.773 20.43
350 1 11.277 31.616 20.404
61 1 14.281 32.129 20.894
203 1 38.173 31.896 20.384
204 1 37.811 32.658 20.92
365 1 45.559 31.899 21.331
368 1 45.151 32.835 20.547
366 1 45.941 31.804 20.412
367 1 46.149 32.775 20.531
65 1 13.009 33.916 21.393
205 1 37.465 33.577 20.733
207 1 37.624 34.263 20.085
208 1 38.278 33.517 20.209
210 1 38.563 34.156 20.803
209 1 39.178 33.387 20.626
70 1 10.936 35.585 21.202
67 1 12.699 35.31 20.677
206 1 37.494 34.529 21.04
372 1 44.516 35.105 21.42
69 1 11.373 36.213 20.557
68 1 12.217 35.958 20.086
286 1 49.85 36.95 21.175
287 1 49.166 37.127 20.466
288 1 48.32 37.628 20.648
289 1 47.987 38.569 20.706
291 1 48.341 39.635 20.093
83 1 45.342 48.376 20.348
81 1 44.574 48.676 21.165
82 1 44.848 49.245 20.39
97 1 49.925 50.97 20.198
98 1 49.269 51.718 20.104
8 1 19.512 6.595 22.298
9 1 20.233 6.337 21.655
10 1 21.03 6.934 21.749
11 1 21.993 6.686 21.855
12 1 22.648 6.922 22.574
6 1 18.579 7.718 22.637
13 1 22.801 7.328 21.673
5 1 18.427 8.66 22.336
4 1 19.242 9.179 22.078
3 1 20.1 9.692 22.069
1 1 19.162 11.284 22.618
2 1 19.418 10.41 22.204
406 1 46.248 18.2 22.763
407 1 45.739 18.878 22.232
408 1 46.284 19.635 22.593
62 1 13.62 31.948 21.621
63 1 12.987 32.713 21.5
361 1 42.894 31.819 22.848
362 1 43.605 31.639 22.169
363 1 44.363 32.236 22.433
364 1 44.933 31.527 22.017
64 1 12.874 33.387 22.23
211 1 38.644 33.521 21.571
212 1 39.482 33.517 22.117
215 1 41.046 33.125 22.647
369 1 45.091 33.106 21.508
370 1 44.587 33.862 21.925
66 1 12.616 34.823 21.546
371 1 45.272 34.456 21.502
373 1 45.017 35.442 22.217
283 1 49.321 34.742 22.535
284 1 49.932 35.533 22.582
72 1 9.397 36.611 21.797
73 1 8.604 36.295 22.318
71 1 10.078 35.905 21.605
428 1 17.383 36.584 22.467
374 1 44.174 35.975 22.136
375 1 43.448 36.662 22.16
285 1 49.866 36.258 21.896
421 1 18.291 38.2 22.682
376 1 44.02 37.407 21.818
377 1 44.53 38.234 21.58
378 1 45.53 38.226 21.575
379 1 46.345 38.263 22.153
380 1 46.809 37.402 22.363
393 1 25.817 40.663 22.782
394 1 26.24 41.466 22.363
395 1 26.931 42.086 22.736
397 1 27.745 41.558 22.664
7 1 19.049 6.968 23.102
57 1 27.142 13.942 24.045
56 1 27.647 13.087 24.16
58 1 27.766 14.029 23.269
59 1 28.421 14.469 23.884
60 1 29.083 15.011 23.366
46 1 30.208 16.632 24.194
401 1 44.612 16.388 23.097
402 1 45.382 16.959 23.382
403 1 44.823 17.779 23.264
404 1 45.232 17.478 24.125
405 1 45.911 18.074 23.696
409 1 47.002 19.769 23.275
410 1 46.298 19.09 23.486
214 1 40.382 32.488 23.039
279 1 33.102 34.069 24.283
213 1 39.504 32.956 22.945
218 1 41.245 33.951 23.823
219 1 40.328 34.258 24.08
220 1 40.205 33.765 23.218
216 1 41.594 32.964 23.468
217 1 41.614 33.792 22.907
281 1 48.736 34.016 24.066
282 1 49.315 34.044 23.251
426 1 16.613 35.536 23.697
74 1 8.064 35.798 22.998
75 1 7.414 35.735 23.756
80 1 9.957 36.127 23.789
427 1 16.625 36.304 23.057
423 1 18.243 36.934 24.129
424 1 17.932 35.984 24.118
429 1 18.217 36.397 22.985
431 1 17.211 36.77 24.143
383 1 26.897 36.779 23.995
78 1 8.545 37.148 23.948
422 1 18.525 37.636 23.474
430 1 17.691 37.162 23.358
382 1 27.141 37.533 23.385
381 1 27.999 37.204 23.781
390 1 26.31 39.189 23.609
392 1 25.125 40.758 23.498
391 1 25.853 40.078 23.59
398 1 27.906 41.167 23.57
396 1 27.727 42.343 23.284
54 1 27.19 13.879 25.657
55 1 27.861 13.412 25.082
49 1 28.423 15.996 25.354
47 1 29.679 15.821 24.442
48 1 29.232 16.49 25.035
45 1 30.704 16.362 25.019
44 1 30.666 17.171 25.607
420 1 44.524 19.995 25.3
411 1 46.541 19.568 24.331
412 1 46.027 20.426 24.318
413 1 46.272 20.02 25.199
280 1 32.563 33.328 24.683
425 1 17.192 35.435 24.506
277 1 32.195 35.36 25.389
278 1 32.426 34.68 24.694
76 1 7.037 36.431 24.367
77 1 7.858 36.931 24.642
79 1 9.32 36.658 24.347
434 1 18.157 36.933 25.626
385 1 26.596 36.79 25.45
384 1 27.281 36.397 24.836
273 1 34.404 36.45 25.094
432 1 17.165 37.625 24.66
433 1 17.927 37.839 25.271
386 1 26.954 37.688 25.194
387 1 27.912 37.957 25.301
388 1 27.581 38.441 24.491
271 1 33.743 37.773 25.272
272 1 34.278 37.295 24.575
389 1 26.728 38.962 24.488
399 1 27.967 41.806 24.337
400 1 27.314 42.53 24.555
53 1 28.095 14.098 26.019
50 1 27.974 15.419 26.037
51 1 28.216 15.326 27.003
52 1 28.733 14.805 26.324
43 1 29.716 16.883 25.725
41 1 29.426 18.55 26.042
42 1 29.17 17.592 26.172
419 1 44.91 19.61 26.138
418 1 45.395 20.386 26.542
414 1 46.224 20.874 25.717
415 1 46.572 20.263 26.429
436 1 17.822 35.493 26.004
275 1 33.566 35.305 26.48
437 1 16.966 35.961 25.784
439 1 16.63 36.17 26.809
440 1 15.961 36.323 26.083
435 1 18.425 36.237 26.292
438 1 17.406 36.633 26.38
274 1 33.872 35.934 25.766
276 1 32.865 35.811 25.979
268 1 32.769 38.32 26.549
269 1 32.565 37.699 25.792
270 1 33.465 37.582 26.213
265 1 32.538 39.441 27.051
267 1 32.142 39.027 26.221
264 1 31.812 40.124 27.138
266 1 32.35 40.005 26.247
416 1 46.937 20.826 27.17
417 1 46.005 20.499 27.326
262 1 31.669 39.407 28.392
263 1 32.249 40.14 28.038
176 1 7.048 48.177 28.399
177 1 6.498 47.343 28.457
178 1 6.071 48.242 28.558
180 1 5.952 49.038 27.775
174 1 8.529 48.755 28.255
462 1 34.077 13.569 29.758
463 1 33.325 12.914 29.678
221 1 17.969 25.388 29.328
222 1 18.438 24.61 29.746
223 1 18.965 25.408 29.453
340 1 32.082 27.261 29.989
331 1 29.724 29.076 29.747
261 1 31.043 39.827 29.05
119 1 19.621 45.421 29.735
120 1 20.18 44.606 29.58
118 1 19.35 46.279 29.3
173 1 8.442 48.117 29.02
162 1 11.144 47.517 29.502
161 1 12.055 47.643 29.109
179 1 6.047 49.222 28.753
175 1 7.746 48.711 28.875
172 1 9.055 48.614 29.635
480 1 29.984 10.794 30.979
464 1 32.8 12.235 30.191
465 1 33.537 12.407 30.843
468 1 32.218 13.802 31.404
469 1 32.524 14.185 30.532
470 1 31.653 13.745 30.317
461 1 33.326 13.638 30.415
472 1 31.099 14.947 30.007
473 1 30.447 14.33 30.448
474 1 30.276 14.549 31.409
471 1 31.659 14.634 30.775
225 1 19.227 24.942 30.259
226 1 20.006 24.627 30.801
224 1 19.237 25.942 30.254
322 1 26.855 28.15 31.403
321 1 27.51 27.577 30.91
328 1 27.693 28.427 30.518
329 1 28.523 28.119 30.983
338 1 31.238 28.38 30.152
339 1 32.071 28.053 30.599
327 1 28.089 28.839 31.338
330 1 29.136 28.725 30.476
332 1 30.455 29.06 30.429
333 1 30.974 28.958 31.277
336 1 31.103 29.776 30.833
335 1 32.006 29.897 31.245
337 1 31.747 29.018 30.73
165 1 9.985 47.009 31.095
163 1 10.942 46.731 30.087
164 1 10.333 46.18 30.657
116 1 18.991 45.918 30.984
117 1 18.741 46.297 30.093
169 1 9.497 47.903 31.313
170 1 8.782 48.396 30.816
101 1 17.035 48.319 30.718
171 1 8.54 49.195 30.266
478 1 29.758 12.469 32.021
479 1 29.942 11.586 31.588
477 1 30.752 12.36 32.008
475 1 29.659 13.995 31.967
476 1 30.321 13.253 31.873
467 1 32.564 13.412 32.257
466 1 33.018 12.978 31.479
227 1 19.414 24.575 31.605
228 1 18.862 25.233 32.117
229 1 19.435 25.807 32.702
323 1 27.178 28.463 32.296
324 1 26.702 29.282 32.617
325 1 27.194 29.903 32.007
326 1 27.979 29.318 32.209
334 1 31.305 29.652 31.916
241 1 11.001 45.369 32.456
242 1 10.071 45.624 32.721
115 1 19.036 45.285 31.757
166 1 9.666 46.31 31.735
167 1 8.783 46.779 31.71
104 1 17.444 46.835 32.147
105 1 18.174 46.241 32.486
114 1 19.523 46.055 32.17
113 1 20.145 46.837 32.141
168 1 9.515 47.319 32.124
102 1 17.312 48.122 31.659
103 1 17.953 47.684 32.289
239 1 15.578 25.413 34.14
231 1 18.348 25.427 34.091
230 1 19.047 25.215 33.408
243 1 10.759 45.338 33.388
244 1 11.317 44.542 33.621
106 1 18.256 45.412 33.039
107 1 19.142 45.492 33.496
108 1 19.885 46.016 33.079
109 1 19.473 46.786 33.566
112 1 20.264 47.034 33.114
110 1 19.308 47.701 33.934
111 1 20.176 47.95 33.505
260 1 13.337 50.99 34.019
240 1 15.403 24.836 34.937
235 1 16.397 25.665 35.372
232 1 17.636 25.665 34.751
236 1 15.663 26.312 35.581
237 1 15.234 26.995 34.99
238 1 15.122 26.291 34.289
234 1 16.728 26.605 35.289
233 1 17.511 26.095 35.646
246 1 11.013 45.315 34.868
245 1 11.572 44.534 34.588
247 1 10.384 45.897 35.383
251 1 12.312 46.528 35.52
252 1 11.863 47.071 34.81
253 1 11.921 47.85 35.433
254 1 11.323 48.65 35.388
255 1 12.044 49.23 35.009
256 1 11.495 49.89 34.496
257 1 12.235 50.462 34.852
258 1 12.887 51.097 35.266
259 1 12.656 51.596 34.431
248 1 10.931 46.576 35.872
249 1 11.555 46.813 36.617
250 1 12.146 46.042 36.378
484 1 21.761 41.251 38.547
486 1 23.062 41.077 37.857
485 1 22.389 41.804 37.999
488 1 23.783 41.36 39.589
481 1 21.571 42.631 39.261
482 1 22.558 42.482 39.303
483 1 22.462 41.491 39.219
487 1 23.503 41.513 38.642
149 1 44.265 16.147 41.302
150 1 44.73 16.824 40.731
151 1 45.617 16.624 41.148
489 1 23.574 42.018 40.313
490 1 23.12 42.685 40.904
492 1 22.31 43.498 40.3
493 1 21.436 43.129 40.617
491 1 23.299 43.384 40.211
147 1 43.614 15.053 42.827
148 1 44.037 15.621 42.121
152 1 44.95 17.081 41.735
153 1 45.111 16.472 42.512
154 1 45.969 16.008 42.295
155 1 46.535 16.53 41.656
156 1 47.327 16.763 42.221
159 1 49.245 15.965 42.624
139 1 25.931 36.115 42.682
500 1 22.994 39.317 41.708
498 1 22.604 40.754 42.408
499 1 22.36 40.09 41.701
497 1 22.234 41.574 41.971
496 1 22.877 42.325 41.813
494 1 21.572 43.227 41.603
495 1 22.316 43.033 42.243
143 1 42.942 13.81 44.275
40 1 36.037 15.074 43.947
145 1 43.793 15.359 44.202
146 1 43.108 14.862 43.669
160 1 49.726 15.483 43.356
39 1 35.456 15.886 44.001
157 1 47.977 16.561 42.954
158 1 48.748 16.18 43.464
140 1 25.254 35.708 43.295
137 1 26.783 36.844 43.534
138 1 26.013 37.077 42.941
136 1 27.751 37.061 43.402
134 1 27.376 38.252 43.947
135 1 27.834 38.008 43.092
122 1 24.442 39.677 43.837
133 1 27.504 39.189 44.273
121 1 25.165 40.08 43.277
142 1 42.867 12.855 44.562
141 1 43.229 13.467 45.265
37 1 34.362 15.592 45.334
38 1 34.929 15.263 44.579
144 1 43.367 14.606 44.705
35 1 33.623 16.432 44.942
36 1 34.305 16.534 45.666
21 1 31.992 20.602 44.897
22 1 31.59 20.102 45.664
132 1 27.251 39.872 44.958
123 1 24.316 40.544 44.319
124 1 25.044 40.686 44.99
125 1 25.89 40.93 45.464
131 1 27.477 40.805 45.238
126 1 25.904 41.92 45.608
127 1 26.756 42.442 45.554
33 1 32.567 15.524 46.175
32 1 33.16 15.522 46.98
28 1 30.93 17.04 46.889
31 1 32.823 16.451 47.136
34 1 33.266 16.152 45.833
25 1 31.258 19.146 47.031
23 1 32.431 19.688 46.012
24 1 31.762 18.966 46.186
130 1 27.339 41.078 46.19
129 1 26.919 41.966 46.378
128 1 27.656 42.514 45.983
29 1 31.655 17.083 47.577
30 1 32.213 16.327 47.919
27 1 31.1 17.991 47.147
26 1 31.084 18.662 47.889
443 1 30.978 29.754 48.455
441 1 31.732 29.756 47.542
446 1 29.917 30.233 48.459
445 1 30.146 31.203 48.542
442 1 31.455 30.551 48.083
448 1 29.81 29.459 49.551
447 1 29.351 30.306 49.281
444 1 30.774 30.57 48.996
454 1 33.629 26.536 50.661
450 1 30.559 27.782 50.17
451 1 31.253 27.631 50.873
452 1 32.035 27.585 50.252
453 1 32.93 27.24 50.534
449 1 30.08 28.656 50.081
455 1 33.701 26.99 51.549
457 1 33.891 27.067 52.821
456 1 34.337 26.49 52.137
458 1 33.661 27.057 53.794
459 1 34.292 27.638 54.308
460 1 34.962 27.339 54.987
ITEM: TIMESTEP
100
ITEM: NUMBER OF ATOMS
500
ITEM: BOX BOUNDS pp pp pp
0.0000000000000000e+00 6.0000000000000000e+01
0.0000000000000000e+00 6.0000000000000000e+01
0.0000000000000000e+00 6.0000000000000000e+01
ITEM: ATOMS id type x y z
183 1 35.8443 27.8373 14.031
303 1 11.6896 43.164 13.3883
302 1 12.4752 43.2589 12.7642
301 1 12.9795 44.1261 12.8701
184 1 36.6077 28.2857 14.4929
185 1 36.9291 27.656 13.785
186 1 36.549 27.1733 14.5669
181 1 35.7856 28.9528 14.1424
182 1 36.2954 28.4884 13.4216
318 1 11.6615 39.5951 14.2292
317 1 10.9464 40.0762 13.7223
316 1 11.4228 40.6973 14.3473
304 1 11.9125 44.1144 13.1643
305 1 12.5778 43.6722 13.7641
309 1 11.5755 43.914 14.1866
306 1 13.2376 44.3631 13.9827
192 1 36.1341 25.7685 15.7198
190 1 36.8433 26.1955 14.9887
191 1 36.1938 26.7437 15.5206
189 1 37.2806 26.9952 15.391
187 1 37.4426 26.8143 14.2949
188 1 37.5205 27.7051 14.7365
360 1 12.0929 32.8156 16.5374
319 1 10.7958 39.0954 14.2389
320 1 10.7751 39.9089 14.8216
315 1 11.2207 41.685 14.3085
299 1 48.8944 40.3691 16.0128
313 1 12.2196 43.028 14.5353
314 1 11.9605 42.2615 13.9704
311 1 11.1315 42.9051 14.3301
312 1 11.6214 42.4279 15.0468
310 1 11.4038 43.5286 15.0775
308 1 12.3653 44.1158 14.7535
307 1 12.3158 44.7357 13.9664
193 1 36.965 26.1826 16.0874
194 1 36.7974 27.1257 16.3751
355 1 10.7438 31.7603 17.644
356 1 10.8115 32.7596 17.6731
357 1 11.1158 32.3902 16.8063
358 1 11.164 33.39 16.7983
359 1 11.8482 33.104 17.4626
297 1 48.5349 39.6163 16.7642
296 1 48.3025 40.5549 16.9854
298 1 49.3663 40.1646 16.8662
300 1 49.048 41.2088 16.5392
198 1 35.9582 26.4375 16.5741
199 1 36.3845 25.5654 16.792
200 1 36.8101 25.55 17.6936
195 1 36.9399 26.4979 17.1358
197 1 35.9403 26.2453 17.5544
196 1 36.2395 27.1748 17.3493
353 1 11.2292 32.2102 18.5406
354 1 11.7017 32.0466 17.6753
295 1 48.6801 40.0756 17.7733
294 1 48.4611 39.2017 18.2069
89 1 48.1159 48.9018 18.4248
86 1 47.3034 48.6989 19.126
87 1 47.3791 49.6609 18.8385
90 1 48.2855 49.8586 18.2336
91 1 48.9446 49.279 17.7691
92 1 49.1242 49.2684 18.7527
94 1 48.7562 50.2699 19.1121
16 1 22.0316 5.88208 20.3781
345 1 9.77712 29.6708 19.8276
342 1 10.9366 30.2654 18.6037
343 1 11.3163 29.529 19.1792
344 1 10.335 29.4422 19.0369
351 1 10.7962 31.2671 19.1183
341 1 11.6953 30.5585 19.1663
352 1 11.4209 31.2415 18.355
202 1 37.7043 32.7886 20.819
201 1 37.9963 32.6588 19.8751
290 1 48.0335 38.7732 19.5055
293 1 49.0019 38.8329 18.9628
292 1 48.5736 39.7114 19.1843
85 1 46.4689 49.044 18.7094
84 1 46.6349 49.4115 19.6321
88 1 48.1921 49.3581 19.3128
93 1 49.3817 50.1276 18.335
95 1 49.542 50.8697 19.1317
96 1 49.7945 49.9268 19.3464
100 1 48.6439 50.9278 18.2506
99 1 48.7328 51.5989 18.9768
17 1 21.7065 5.43962 21.2084
18 1 21.8861 4.77607 20.4901
19 1 22.7416 5.15879 20.8337
20 1 22.6495 6.0159 21.3319
14 1 22.1619 6.86486 20.8258
15 1 21.2816 6.39234 20.802
346 1 10.6931 29.3837 20.0935
347 1 10.6872 30.3 19.6792
348 1 11.5393 30.088 20.1479
349 1 11.3605 31.0718 20.0832
350 1 11.6967 31.6418 19.3454
61 1 13.452 33.3996 21.0566
203 1 38.6154 32.391 20.7797
204 1 38.4359 32.8857 21.6271
365 1 45.5505 32.5519 21.8009
368 1 44.7204 33.0674 21.2379
366 1 45.4299 32.3429 20.8338
367 1 45.6238 33.3236 20.9505
65 1 12.776 34.3345 21.0628
205 1 38.0426 33.7362 21.2983
207 1 37.6282 33.683 20.1977
208 1 38.571 33.4418 20.3945
210 1 39.0574 34.1756 21.108
209 1 39.2926 33.2186 21.0219
70 1 11.2482 35.0936 21.8808
67 1 11.7272 34.7957 20.8856
206 1 38.1149 34.4479 20.603
372 1 44.1018 34.8053 21.5085
69 1 11.2335 35.7945 21.1714
68 1 12.1118 35.7005 20.704
286 1 49.1438 36.8452 21.2769
287 1 48.9721 37.6502 20.6972
288 1 48.8691 38.0837 19.7918
289 1 48.15 38.3697 20.4174
291 1 48.8023 39.1813 20.0008
83 1 46.3641 48.4517 19.661
81 1 45.8206 49.1056 20.3739
82 1 45.6041 49.0534 19.4021
97 1 49.2664 50.3254 20.0881
98 1 48.6892 51.0981 19.8342
8 1 20.4968 7.62534 21.9768
9 1 20.6437 6.66974 21.7133
10 1 21.4199 7.26158 21.5089
11 1 21.7092 6.3523 21.8037
12 1 21.8849 7.04806 22.4863
6 1 19.3864 7.68983 21.7789
13 1 22.5318 7.07424 21.7225
5 1 19.3319 8.21416 22.6238
4 1 19.9881 8.59939 21.9743
3 1 20.0776 9.51455 22.3578
1 1 19.2175 10.2161 22.3919
2 1 19.1275 9.24651 22.1683
406 1 46.446 18.654 23.3993
407 1 45.5775 18.7962 22.9335
408 1 46.3375 19.2142 22.4425
62 1 13.0871 32.7949 21.7691
63 1 12.3752 33.3461 21.3349
361 1 43.8383 31.9593 22.3481
362 1 43.7914 32.7438 21.7299
363 1 44.585 32.7803 22.3234
364 1 44.6951 32.0577 21.6406
64 1 12.9761 33.8809 21.9412
211 1 38.9018 33.8053 22.0166
212 1 39.8611 33.749 21.7704
215 1 40.55 32.955 22.0797
369 1 45.2118 33.5952 21.9459
370 1 44.2315 33.7742 21.8954
66 1 11.9991 34.2939 21.694
371 1 44.7548 34.159 21.125
373 1 44.8924 34.6645 22.1058
283 1 49.0146 35.0904 22.2192
284 1 49.615 35.6884 22.7516
72 1 9.63438 35.688 22.2357
73 1 8.9761 36.4293 22.3346
71 1 10.6169 35.826 22.1541
428 1 17.2332 36.8681 22.6701
374 1 44.8994 35.5724 21.6904
375 1 44.4584 36.4686 21.7042
285 1 49.4156 36.0558 21.842
421 1 17.8893 37.7791 22.8927
376 1 45.4288 36.5341 21.8911
377 1 44.9184 37.3182 22.25
378 1 45.2739 37.5003 21.3488
379 1 45.493 38.2179 21.9975
380 1 46.0187 37.3985 22.2253
393 1 27.1616 40.1271 23.1341
394 1 26.6001 40.7599 22.6079
395 1 26.5132 41.4419 23.3244
397 1 27.5649 41.154 22.9833
7 1 19.8141 7.06954 22.4326
57 1 27.4916 14.2442 24.3717
56 1 28.3271 13.7896 24.0729
58 1 27.9924 14.8231 23.7306
59 1 28.4607 14.7475 24.5979
60 1 28.5663 15.6654 24.2328
46 1 29.8317 15.9605 24.4106
401 1 44.9571 17.2618 23.4216
402 1 45.8056 17.7758 23.3227
403 1 45.1077 18.2897 23.8153
404 1 45.4971 17.5589 24.3718
405 1 46.1221 18.3302 24.2854
409 1 46.1713 19.7358 23.2747
410 1 45.6337 19.2388 23.9347
214 1 40.0086 32.5266 22.7993
279 1 33.251 35.2561 25.012
213 1 39.4579 32.8613 22.041
218 1 40.4821 34.0865 23.4515
219 1 40.0607 33.2116 23.6885
220 1 39.6999 33.5845 22.8371
216 1 40.9008 33.1694 22.9808
217 1 40.6707 33.9948 22.476
281 1 49.0899 34.9186 23.3369
282 1 49.7457 34.5829 22.6593
426 1 16.8656 35.6667 24.218
74 1 8.82585 35.7031 23.0001
75 1 8.15336 35.8408 23.7144
80 1 9.74599 36.33 23.1393
427 1 17.0592 36.2421 23.4336
423 1 18.3138 36.8606 24.2853
424 1 17.9411 35.965 24.0595
429 1 18.0291 36.7436 23.2534
431 1 17.2258 36.6854 24.4625
383 1 26.6252 37.2509 23.9932
78 1 8.72884 36.762 23.3611
422 1 18.2929 37.7276 23.8086
430 1 17.3063 37.2815 23.6894
382 1 26.5589 38.2028 23.6937
381 1 27.5006 37.8874 23.7643
390 1 26.5507 39.2971 23.5241
392 1 26.3244 40.3888 23.6186
391 1 26.9525 39.9042 24.2144
398 1 27.2806 40.9062 23.9028
396 1 27.2427 42.083 23.1247
54 1 27.7138 14.5566 25.4046
55 1 28.26 13.7885 25.0712
49 1 29.0398 15.728 25.9029
47 1 29.3202 15.2987 24.9439
48 1 29.0042 16.2473 25.0566
45 1 30.0381 15.981 25.396
44 1 29.8949 16.8949 25.03
420 1 45.2481 20.3995 25.0314
411 1 46.5968 19.3402 24.2314
412 1 46.0549 20.163 24.3243
413 1 45.8224 19.43 24.9883
280 1 32.6981 34.4488 24.7747
425 1 17.626 35.3201 24.7559
277 1 32.4581 36.0294 25.2033
278 1 32.4741 35.1391 25.6377
76 1 7.64161 36.6838 23.5756
77 1 8.34633 36.7782 24.282
79 1 9.20807 36.1281 23.9589
434 1 17.9977 36.2707 25.1357
385 1 26.5799 37.1356 25.1051
384 1 27.4284 37.1448 24.5817
273 1 33.4779 36.4154 25.0872
432 1 17.5931 37.5764 24.7108
433 1 18.2635 37.2033 25.341
386 1 26.7859 38.0425 24.7551
387 1 27.763 38.1944 24.7984
388 1 27.3141 38.8682 24.2148
271 1 33.2226 37.4047 25.5211
272 1 34.102 37.2146 25.1053
389 1 26.355 39.0088 24.4583
399 1 27.9195 41.6683 23.9049
400 1 27.0027 41.929 24.2055
53 1 28.1535 14.0416 26.1398
50 1 28.2419 15.5332 25.323
51 1 28.1652 15.145 26.2359
52 1 28.7982 14.6309 25.6539
43 1 29.4598 16.766 25.9245
41 1 29.6996 17.8168 25.6242
42 1 28.8931 17.315 25.313
419 1 45.2241 19.805 25.8261
418 1 45.5792 20.7013 26.0683
414 1 46.2908 20.2052 25.392
415 1 46.2472 19.4601 26.0441
436 1 17.5644 35.5662 25.867
275 1 33.3185 35.7507 25.9944
437 1 16.9218 36.0133 25.2634
439 1 16.9086 36.3729 26.3076
440 1 16.1467 36.6538 25.7209
435 1 18.0014 36.4281 26.1142
438 1 17.2024 36.9316 25.5353
274 1 33.8604 36.5828 25.9813
276 1 32.735 36.5519 25.9995
268 1 33.0841 38.3582 26.0303
269 1 32.3924 37.6502 26.2079
270 1 33.2986 37.3843 26.5205
265 1 32.5251 38.4667 26.9904
267 1 32.1589 38.7264 25.9753
264 1 31.7939 39.1524 26.9399
266 1 32.7955 39.2997 26.4958
416 1 46.5545 20.3151 26.4615
417 1 45.6642 20.0423 26.814
262 1 31.959 38.7121 27.9438
263 1 32.5257 39.4392 27.5599
176 1 7.57042 48.0097 28.8274
177 1 6.66473 47.6226 28.9653
178 1 6.68777 48.5737 29.2574
180 1 6.78568 48.4154 28.1624
174 1 8.37089 48.7998 28.9019
462 1 33.6555 13.0267 30.2045
463 1 32.7113 12.9632 29.9077
221 1 18.257 25.8194 30.1371
222 1 18.19 24.9023 30.529
223 1 19.1043 25.0814 30.1529
340 1 31.732 28.1558 30.1513
331 1 29.5447 28.6083 30.1636
261 1 31.485 39.5941 27.9256
119 1 19.3389 45.3848 30.6192
120 1 19.6036 45.3678 29.6585
118 1 19.1454 46.2498 30.1433
173 1 8.57001 47.8959 29.2669
162 1 10.1898 47.1856 30.3165
161 1 11.1185 47.4894 30.1385
179 1 7.32086 49.0845 28.6813
175 1 7.72668 48.5755 29.6291
172 1 8.79921 48.6281 29.9117
480 1 30.9113 11.854 31.3646
464 1 32.1303 12.7426 30.6629
465 1 33.0211 12.3378 30.8415
468 1 32.0948 13.6554 31.318
469 1 32.1359 13.8316 30.3315
470 1 31.2951 13.4219 30.6336
461 1 33.0463 13.4337 30.8786
472 1 30.9924 14.2628 30.0423
473 1 30.3607 13.9382 30.7572
474 1 30.4604 14.5667 31.518
471 1 31.386 14.3829 30.9435
225 1 19.0589 24.5946 31.132
226 1 19.908 25.0947 30.9953
224 1 18.9243 25.5893 30.9931
322 1 27.5475 28.3321 31.1282
321 1 28.3275 27.8207 31.4789
328 1 28.5108 28.5141 30.6024
329 1 29.2901 28.2891 31.1939
338 1 30.6367 28.3964 30.0139
339 1 31.0215 27.9661 30.8243
327 1 28.4426 28.9315 31.5135
330 1 29.2993 29.2504 30.8936
332 1 30.1738 29.3783 30.2329
333 1 30.2621 28.744 31.0036
336 1 30.7555 29.7235 31.1112
335 1 31.6869 29.5051 31.4009
337 1 31.1995 29.0513 30.5163
165 1 10.4417 47.2798 31.3848
163 1 10.8971 46.5586 30.6634
164 1 10.0139 46.4187 31.0879
116 1 19.487 46.3235 31.1935
117 1 18.5454 46.1178 30.9266
169 1 9.36446 47.3464 31.0629
170 1 9.20725 47.6129 30.1204
101 1 17.5911 47.7299 31.6717
171 1 8.2824 47.8952 30.3472
478 1 30.4973 12.8833 31.1328
479 1 31.0819 12.3573 30.5162
477 1 31.4325 12.7747 31.4982
475 1 30.0863 13.6792 31.8012
476 1 31.0644 13.6591 31.699
467 1 32.0053 13.3084 32.2436
466 1 32.5702 12.7225 31.6542
227 1 19.4753 25.2801 31.8894
228 1 18.4755 25.1412 31.8927
229 1 18.785 25.571 32.7334
323 1 27.6543 28.4569 32.1084
324 1 26.944 29.1473 32.1803
325 1 27.4627 29.3973 31.3694
326 1 28.0137 29.5075 32.1904
334 1 31.0591 28.7583 31.597
241 1 11.1353 46.2336 32.6339
242 1 10.6538 46.9432 33.158
115 1 19.1449 45.5462 31.7126
166 1 10.2499 46.6736 32.1476
167 1 9.29075 46.6301 31.8968
104 1 17.9651 46.9641 32.4264
105 1 18.6991 46.5322 31.8946
114 1 19.6966 46.1579 32.2677
113 1 19.6147 47.1105 32.0036
168 1 9.59038 47.5749 32.0145
102 1 18.2885 47.2056 31.1927
103 1 18.6293 47.6175 32.0432
239 1 16.1419 25.8076 34.1946
231 1 18.1579 25.7495 33.6327
230 1 17.8201 25.2968 32.8139
243 1 10.4612 46.0165 33.4876
244 1 11.2425 45.4079 33.3675
106 1 18.1873 45.832 32.3295
107 1 18.9879 45.5421 32.8343
108 1 19.6003 46.1016 33.3873
109 1 18.943 46.6669 32.9159
112 1 20.0072 47.0215 32.9108
110 1 19.252 47.114 33.7364
111 1 19.2819 47.7042 32.9244
260 1 12.9073 50.3964 34.4279
240 1 15.7811 25.0892 34.7876
235 1 16.831 25.4116 34.9685
232 1 17.2139 25.5809 33.9131
236 1 16.1157 26.0103 35.3191
237 1 15.9384 26.7801 34.711
238 1 15.261 26.0568 34.5973
234 1 16.9689 26.3616 34.6875
233 1 17.8117 25.8325 34.679
246 1 11.4818 46.4661 33.6758
245 1 11.2157 45.7436 34.3006
247 1 10.7263 46.7378 34.2794
251 1 11.7416 46.6474 34.7227
252 1 11.5548 47.4532 34.1556
253 1 11.9858 47.6499 35.0442
254 1 11.3264 48.3316 34.7336
255 1 12.1678 48.7056 35.1412
256 1 11.5066 49.4097 34.9224
257 1 12.3043 49.4545 34.3191
258 1 12.5385 49.7497 35.2413
259 1 11.972 50.4329 34.7922
248 1 10.9083 47.3448 35.0471
249 1 11.481 46.9667 35.7663
250 1 10.9984 46.2535 35.2567
484 1 21.7231 41.7559 39.2749
486 1 22.6366 41.1926 38.9697
485 1 22.3643 42.0506 38.563
488 1 23.375 41.2857 39.7739
481 1 21.9956 42.8355 39.2342
482 1 22.6728 42.2125 39.6243
483 1 22.2951 41.3817 39.9987
487 1 23.4086 41.8239 38.9295
149 1 44.3082 16.3723 41.6309
150 1 45.1573 16.5187 41.143
151 1 45.2909 15.7763 41.8008
489 1 23.1958 41.8845 40.5241
490 1 22.9145 42.6763 41.0365
492 1 22.3744 43.1372 40.2157
493 1 21.7612 42.3573 40.2197
491 1 23.341 42.9075 40.1581
147 1 44.4203 15.1313 43.1718
148 1 44.3066 15.7114 42.3681
152 1 45.1702 16.6295 42.2865
153 1 45.2387 15.8689 42.9277
154 1 46.1298 16.0483 42.5216
155 1 46.1137 16.5552 41.67
156 1 46.9828 16.6746 42.1442
159 1 48.6092 16.1773 42.4298
139 1 26.8777 36.7244 43.2898
500 1 23.2966 40.6649 41.6787
498 1 22.2178 40.9508 41.5621
499 1 22.8712 40.887 40.8048
497 1 22.2192 41.7655 41.005
496 1 23.0092 41.7326 41.6023
494 1 21.819 42.7798 41.1257
495 1 22.2938 42.3614 41.9083
143 1 43.4965 14.0919 43.641
40 1 34.9837 15.4403 45.0481
145 1 43.8901 15.0348 44.1436
146 1 43.4245 15.1412 43.2654
160 1 49.1417 15.7024 43.1318
39 1 34.2633 15.776 44.4446
157 1 47.5259 16.0832 42.7333
158 1 48.2633 16.3634 43.3482
140 1 25.8956 36.6665 43.4618
137 1 26.4261 37.5413 43.914
138 1 26.3847 37.5099 42.9153
136 1 27.3138 37.7315 43.4822
134 1 27.0366 38.3918 44.3166
135 1 26.6706 38.4855 43.3829
122 1 25.4217 39.6935 44.4666
133 1 26.3226 39.0852 44.2117
121 1 26.0718 40.1047 43.8329
142 1 42.9673 13.6033 44.3407
141 1 43.7653 14.0802 44.7121
37 1 34.1005 15.9154 46.1279
38 1 33.8996 15.4023 45.3017
144 1 42.9546 14.7067 44.2136
35 1 33.5349 16.399 45.0254
36 1 34.4821 16.3917 45.3444
21 1 32.2385 19.4523 45.7639
22 1 31.3542 19.4242 46.2345
132 1 26.9482 39.8225 44.46
123 1 25.0721 40.5072 44.9241
124 1 25.7355 41.0009 44.3647
125 1 26.1478 40.3598 45.0021
131 1 27.2439 40.4771 45.1645
126 1 25.7726 41.1935 45.4334
127 1 26.6215 41.3666 44.9357
33 1 33.0315 16.1222 45.9673
32 1 33.1138 16.6894 46.7875
28 1 31.668 17.4811 46.4981
31 1 32.6053 17.1427 46.052
34 1 33.6575 16.9056 45.8666
25 1 31.1395 18.4301 46.7013
23 1 32.0835 19.0171 46.7808
24 1 31.8459 18.4404 45.9965
130 1 26.6629 40.7913 45.9187
129 1 26.5641 41.7881 45.9665
128 1 27.4153 41.5267 45.5184
29 1 32.1764 17.0666 47.2408
30 1 32.0656 16.4282 46.4818
27 1 32.5155 17.9845 46.7428
26 1 31.7835 18.128 47.3979
443 1 31.1786 29.3675 48.9508
441 1 31.1131 29.571 47.8414
446 1 30.2578 29.8331 48.4857
445 1 30.342 30.7594 48.8434
442 1 31.2919 30.2692 48.5291
448 1 30.1723 29.131 49.3462
447 1 29.653 29.9805 49.2636
444 1 30.7385 30.0952 49.4743
454 1 33.3562 27.2209 51.2272
450 1 31.4381 28.343 49.7475
451 1 31.5256 28.0754 50.7113
452 1 32.2755 27.6746 50.1917
453 1 32.379 27.4208 51.156
449 1 30.9074 29.1398 50.0211
455 1 32.961 27.3402 52.1389
457 1 34.0414 27.4294 52.3629
456 1 33.6028 26.5724 52.097
458 1 33.7298 26.8948 53.149
459 1 34.1969 27.7293 53.4366
460 1 34.3324 26.9955 54.1021
ITEM: TIMESTEP
200
ITEM: NUMBER OF ATOMS
500
ITEM: BOX BOUNDS pp pp pp
0.0000000000000000e+00 6.0000000000000000e+01
0.0000000000000000e+00 6.0000000000000000e+01
0.0000000000000000e+00 6.0000000000000000e+01
ITEM: ATOMS id type x y z
183 1 35.8431 27.8189 14.0742
303 1 11.5004 42.9408 13.4245
302 1 12.275 42.9334 12.7816
301 1 12.8634 43.753 12.8546
184 1 36.606 28.1933 14.6015
185 1 36.9231 27.6827 13.7966
186 1 36.5582 27.0992 14.5125
181 1 35.7636 28.8912 14.3827
182 1 36.2899 28.5739 13.595
318 1 11.883 40.2005 14.3017
317 1 11.6255 40.9929 13.75
316 1 11.7368 41.2268 14.715
304 1 11.8155 43.8548 13.1888
305 1 12.455 43.3425 13.7729
309 1 11.5325 43.7125 14.2411
306 1 13.193 43.9769 13.9358
192 1 36.1853 25.7181 15.715
190 1 36.8797 26.1385 14.9604
191 1 36.2057 26.685 15.4617
189 1 37.2898 26.9603 15.339
187 1 37.4562 26.7801 14.2386
188 1 37.5649 27.659 14.6957
360 1 11.4934 32.6726 16.7955
319 1 11.0962 40.0118 13.7142
320 1 10.8506 40.5908 14.4879
315 1 10.946 41.6761 14.2934
299 1 48.8528 39.5318 16.8081
313 1 12.1303 42.7667 14.6133
314 1 11.8143 42.0672 13.9979
311 1 11.0248 42.7672 14.4148
312 1 11.4721 42.221 15.1123
310 1 11.3812 43.3491 15.1506
308 1 12.3724 43.8416 14.7559
307 1 12.3202 44.4475 13.9618
193 1 36.9875 26.1881 16.0744
194 1 36.7846 27.1411 16.2981
355 1 11.0545 31.2115 17.8357
356 1 10.8364 32.137 18.1356
357 1 10.6945 32.002 17.1576
358 1 10.5804 32.9563 17.4075
359 1 11.5106 32.9347 17.7539
297 1 48.7738 39.0329 17.8194
296 1 48.3002 39.8998 17.6972
298 1 49.455 39.7152 17.5818
300 1 48.9226 40.5099 17.0171
198 1 35.957 26.4448 16.5135
199 1 36.4011 25.6065 16.8092
200 1 36.7607 25.6705 17.7365
195 1 36.9137 26.5676 17.1035
197 1 35.8925 26.3303 17.4999
196 1 36.1984 27.2461 17.2449
353 1 11.9023 32.1841 18.4558
354 1 11.7395 31.8632 17.529
295 1 48.8978 39.9793 18.4876
294 1 48.1303 39.3655 18.6568
89 1 48.4601 48.9976 18.7089
86 1 47.3653 48.8147 18.6671
87 1 47.5822 49.7748 18.5506
90 1 48.456 49.6398 17.9283
91 1 49.3123 49.1516 17.9663
92 1 49.51 49.4118 18.897
94 1 48.6119 50.0233 18.9242
16 1 21.9184 5.92112 20.6217
345 1 9.65266 30.2871 19.1305
342 1 11.3086 30.3693 18.4848
343 1 11.2128 29.6668 19.1895
344 1 10.3812 29.8018 18.6526
351 1 11.2201 31.4341 18.8973
341 1 11.8393 30.5803 19.2898
352 1 12.0367 31.202 18.3818
202 1 37.6982 32.7858 20.893
201 1 37.9546 32.6073 19.9484
290 1 48.1068 38.741 19.5547
293 1 49.0105 38.955 18.8962
292 1 48.743 39.6602 19.548
85 1 46.545 49.3778 18.7243
84 1 46.946 49.9427 19.4358
88 1 47.8943 49.4145 19.4232
93 1 49.3521 50.2305 18.3353
95 1 48.8507 50.9527 19.1114
96 1 49.435 50.2938 19.5764
100 1 48.1457 50.7083 18.2541
99 1 47.7687 50.6482 19.1891
17 1 21.3551 5.80589 21.4359
18 1 21.5637 4.93488 21.0006
19 1 22.367 5.32312 21.4512
20 1 22.3809 6.31339 21.5632
14 1 22.0926 6.9978 20.7487
15 1 21.1834 6.5945 20.6662
346 1 10.2623 29.8101 19.764
347 1 10.6794 30.6209 19.3607
348 1 11.2009 30.2813 20.1363
349 1 11.3194 31.2644 19.9954
350 1 12.0365 31.6568 19.4207
61 1 12.968 34.07 21.0976
203 1 38.6143 32.3757 20.846
204 1 38.521 33.0812 21.5356
365 1 45.6328 33.0022 21.8401
368 1 44.7542 33.3775 21.2528
366 1 45.5883 32.7791 20.8728
367 1 45.6165 33.7775 20.9869
65 1 12.3204 34.904 21.4354
205 1 37.9364 33.8302 21.2849
207 1 37.6156 33.6576 20.2193
208 1 38.547 33.3916 20.4422
210 1 39.011 34.074 21.1473
209 1 39.4092 33.193 20.9028
70 1 10.6029 34.9592 22.0381
67 1 11.2899 34.5238 21.2842
206 1 38.1644 34.4334 20.5251
372 1 43.9483 35.0521 21.481
69 1 10.4795 35.2619 21.0936
68 1 11.3858 35.5077 21.4279
286 1 48.8931 37.1778 20.6532
287 1 49.4194 37.7809 20.0562
288 1 48.8226 37.9366 19.2748
289 1 48.2995 37.9479 20.1241
291 1 48.9971 38.8063 19.9981
83 1 46.9334 48.9697 19.6892
81 1 46.6045 49.7306 20.4498
82 1 46.0209 49.3676 19.7225
97 1 48.9066 49.4814 19.8259
98 1 48.3434 50.3045 19.9315
8 1 20.6007 7.11937 22.3162
9 1 20.4498 7.11575 21.3278
10 1 21.2771 7.62658 21.108
11 1 21.4495 6.8496 21.7003
12 1 21.5546 7.70634 22.191
6 1 19.5765 7.7751 21.5678
13 1 22.3215 7.48568 21.5824
5 1 19.8923 7.9321 22.4995
4 1 20.6001 8.09836 21.811
3 1 20.5669 8.81916 22.4908
1 1 19.4913 8.92202 22.7953
2 1 19.7928 8.84493 21.8479
406 1 46.6193 18.8456 23.6187
407 1 45.8429 18.5965 23.0509
408 1 46.6531 18.7988 22.5089
62 1 12.91 33.3332 21.7695
63 1 12.0458 33.8253 21.6788
361 1 43.9938 32.1752 22.3352
362 1 43.864 32.9454 21.7143
363 1 44.6285 33.0918 22.3338
364 1 44.8697 32.3806 21.6735
64 1 12.7319 34.3648 22.1645
211 1 38.9544 33.8853 22.1157
212 1 39.8749 33.7706 21.745
215 1 40.5776 33.0008 22.0704
369 1 45.147 33.9783 21.9618
370 1 44.1524 34.0269 21.8852
66 1 11.677 34.7462 22.1817
371 1 44.643 34.4457 21.1106
373 1 44.6941 34.9613 22.1366
283 1 48.6662 35.8091 21.7382
284 1 49.1908 36.5201 22.2032
72 1 9.65865 35.4907 21.8046
73 1 9.55306 36.3543 22.2855
71 1 10.5328 35.9524 21.9753
428 1 17.2352 36.8678 22.6687
374 1 44.992 35.4641 21.3295
375 1 44.3608 35.9959 21.8969
285 1 49.3736 36.5124 21.221
421 1 17.8872 37.7802 22.8935
376 1 45.2641 35.8973 22.3137
377 1 44.9496 36.8434 22.3201
378 1 45.1779 36.5536 21.3905
379 1 45.6007 37.4268 21.6249
380 1 46.0396 36.6603 22.0926
393 1 27.1431 39.9982 23.3425
394 1 26.7686 40.5753 22.6193
395 1 26.6239 41.3858 23.1786
397 1 27.6694 40.9651 23.1255
7 1 19.6536 6.92532 22.0837
57 1 27.4911 14.2427 24.3737
56 1 28.3265 13.7859 24.078
58 1 27.9927 14.8181 23.7295
59 1 28.4618 14.7462 24.5963
60 1 28.5665 15.6627 24.2261
46 1 29.833 15.9621 24.4055
401 1 45.1166 17.6041 24.3839
402 1 45.9439 17.9888 23.9783
403 1 45.1797 18.6277 23.9456
404 1 45.353 18.5418 24.9237
405 1 46.1137 18.9531 24.4428
409 1 46.4113 19.671 22.9285
410 1 45.6816 19.5336 23.5785
214 1 40.0239 32.4867 22.7229
279 1 32.9348 35.4641 25.2552
213 1 39.4931 32.872 21.9639
218 1 40.4059 34.0484 23.4968
219 1 40.0022 33.1435 23.6762
220 1 39.7291 33.5299 22.8082
216 1 40.8641 33.1763 22.9984
217 1 40.6554 34.0281 22.5231
281 1 49.2199 35.512 22.6807
282 1 49.6396 35.5812 21.7775
426 1 16.8655 35.6672 24.2173
74 1 8.97307 35.6456 22.6731
75 1 8.42176 35.874 23.4725
80 1 10.0519 35.4797 22.8491
427 1 17.0607 36.2411 23.4315
423 1 18.3141 36.8604 24.2858
424 1 17.9414 35.9649 24.0591
429 1 18.0299 36.7443 23.2537
431 1 17.226 36.6851 24.4621
383 1 26.6453 37.2982 23.9692
78 1 9.85616 36.4528 23.3355
422 1 18.2927 37.7267 23.8088
430 1 17.3059 37.2806 23.6888
382 1 26.4449 38.2501 23.7378
381 1 27.4086 38.0362 23.6431
390 1 26.3066 39.3477 23.6557
392 1 26.2747 40.4389 23.6004
391 1 26.7086 39.9577 24.3531
398 1 27.201 40.8933 23.9975
396 1 27.4402 41.9309 23.0423
54 1 27.7142 14.5607 25.4039
55 1 28.2603 13.7904 25.0765
49 1 29.0417 15.7289 25.8964
47 1 29.3209 15.2993 24.9384
48 1 29.0052 16.2482 25.0502
45 1 30.0403 15.9798 25.3905
44 1 29.8952 16.8974 25.0326
420 1 45.0512 20.3605 25.261
411 1 46.4639 19.9106 24.0504
412 1 45.6285 20.4179 24.2595
413 1 45.22 19.564 24.5573
280 1 32.1749 35.9689 24.8498
425 1 17.6255 35.3203 24.7554
277 1 32.8035 36.5144 25.5728
278 1 32.2767 35.7666 25.9527
76 1 8.81215 36.6838 23.0449
77 1 9.11426 36.585 23.9896
79 1 9.47853 35.5893 23.6549
434 1 17.9974 36.2702 25.1359
385 1 26.7997 37.1324 25.0637
384 1 27.5448 37.2474 24.4083
273 1 33.7849 36.2102 25.2373
432 1 17.5926 37.5764 24.7101
433 1 18.2628 37.2033 25.3408
386 1 26.8783 38.0672 24.7349
387 1 27.8237 38.3311 24.623
388 1 27.2077 38.9831 24.1739
271 1 33.4663 37.3422 25.3924
272 1 34.3908 37.006 25.2479
389 1 26.287 38.9686 24.5755
399 1 27.8888 41.6132 24.0083
400 1 26.9594 41.9747 24.0563
53 1 28.1519 14.0513 26.1446
50 1 28.2434 15.5349 25.3168
51 1 28.165 15.1534 26.2325
52 1 28.7975 14.6346 25.6534
43 1 29.4652 16.7582 25.9277
41 1 29.6917 17.8126 25.637
42 1 28.888 17.3065 25.3263
419 1 45.1827 19.4357 25.6513
418 1 45.6994 20.1607 26.1092
414 1 46.0324 19.8272 25.0889
415 1 46.1835 18.9414 25.5211
436 1 17.5633 35.567 25.8672
275 1 33.3468 35.7851 26.2268
437 1 16.9201 36.0133 25.2634
439 1 16.9095 36.373 26.3088
440 1 16.1469 36.655 25.7242
435 1 18.0026 36.4281 26.1143
438 1 17.2027 36.9309 25.5356
274 1 33.8625 36.6179 26.1391
276 1 32.8272 36.579 26.5556
268 1 32.9308 38.2777 25.6304
269 1 32.45 37.4638 25.9527
270 1 33.3527 37.5499 26.3603
265 1 32.5879 38.262 26.7028
267 1 31.9618 38.4515 25.7908
264 1 31.7153 38.7226 26.8389
266 1 32.5509 39.1347 26.2215
416 1 46.667 19.6583 26.0019
417 1 45.8945 19.28 26.5225
262 1 32.2112 38.293 27.7445
263 1 32.4647 39.1677 27.331
176 1 7.90998 47.7486 29.1757
177 1 7.04655 47.262 29.25
178 1 7.02554 48.075 29.8239
180 1 7.0287 48.2467 28.7107
174 1 8.60797 48.5948 29.3299
462 1 33.6767 12.9369 30.2637
463 1 32.7488 12.9736 29.9017
221 1 18.0014 25.8786 30.619
222 1 18.1266 24.9 30.7702
223 1 18.9986 25.3849 30.6547
340 1 31.6164 28.2021 29.9788
331 1 29.4712 28.6912 30.2873
261 1 31.5222 38.9998 27.9033
119 1 19.1127 45.4921 30.4094
120 1 19.8702 46.1193 30.2274
118 1 18.8047 46.4455 30.2908
173 1 8.97783 47.6878 29.5113
162 1 10.7148 47.4567 30.8626
161 1 11.3015 47.2409 31.6619
179 1 7.52889 48.8023 29.3703
175 1 8.10319 48.1363 30.0691
172 1 9.16177 48.3428 30.2459
480 1 30.9093 11.8324 31.3226
464 1 32.1348 12.7694 30.6436
465 1 32.9767 12.3018 30.8532
468 1 32.1021 13.6865 31.3111
469 1 32.156 13.841 30.3283
470 1 31.295 13.4454 30.6141
461 1 33.0518 13.4091 30.8781
472 1 30.9085 14.2899 30.0405
473 1 30.3419 13.9207 30.7808
474 1 30.4429 14.5566 31.5362
471 1 31.3617 14.3956 30.9165
225 1 18.9423 24.6357 31.4602
226 1 19.6438 25.3332 31.5782
224 1 18.563 25.5709 31.5354
322 1 27.5411 28.234 31.2133
321 1 28.3386 27.8143 31.6371
328 1 28.5033 28.5594 30.81
329 1 29.3177 28.2776 31.3095
338 1 30.5226 28.4784 29.9903
339 1 30.9815 27.968 30.7099
327 1 28.5163 28.8896 31.7546
330 1 29.3091 29.2618 31.0949
332 1 30.1165 29.4463 30.358
333 1 30.2777 28.7438 31.053
336 1 30.8174 29.7005 31.1775
335 1 31.7719 29.4381 31.3184
337 1 31.1573 29.0761 30.4732
165 1 10.2456 47.3944 31.8226
163 1 10.6891 46.4959 31.1208
164 1 9.76255 46.8253 31.1727
116 1 19.3696 46.1964 31.2108
117 1 18.3912 45.9925 31.0667
169 1 9.6565 47.9346 31.1238
170 1 9.78172 47.4306 30.2632
101 1 17.8556 46.897 31.4251
171 1 8.83676 47.4491 30.579
478 1 30.5204 12.873 31.1485
479 1 31.1039 12.3728 30.5076
477 1 31.4528 12.7754 31.4927
475 1 30.094 13.6614 31.8273
476 1 31.0753 13.6668 31.6903
467 1 32.0198 13.3492 32.2384
466 1 32.5667 12.7445 31.6539
227 1 19.1111 25.1669 32.4101
228 1 18.1829 24.8165 32.2384
229 1 18.2499 25.3774 33.0573
323 1 27.5863 28.4936 32.1694
324 1 26.9573 29.072 31.6541
325 1 27.748 29.3207 31.0987
326 1 27.866 29.5761 32.0559
334 1 31.1478 28.6906 31.53
241 1 10.6547 46.4888 32.2221
242 1 10.4275 47.2389 32.8658
115 1 19.0445 45.4499 31.7854
166 1 9.56905 46.8428 32.2792
167 1 8.90026 47.2619 31.6661
104 1 17.964 46.8529 32.5308
105 1 18.6729 46.4486 31.9856
114 1 19.6432 46.0802 32.2798
113 1 19.5916 47.0161 31.9359
168 1 9.39714 47.9994 32.0932
102 1 18.7852 47.1467 31.1675
103 1 18.5899 47.5156 32.0884
239 1 16.5095 25.9773 33.6788
231 1 17.5343 26.1798 33.2987
230 1 17.3653 25.4892 32.6032
243 1 10.0961 46.3327 33.1407
244 1 10.7703 45.6286 32.9493
106 1 17.9999 45.7686 32.1255
107 1 18.7138 45.7948 32.8369
108 1 19.4908 46.1631 33.3701
109 1 18.9885 46.8657 32.9035
112 1 20.095 46.9477 32.7883
110 1 19.4883 47.3151 33.6284
111 1 19.5376 47.782 32.7358
260 1 13.0418 49.5289 34.7083
240 1 16.3662 25.1396 34.1903
235 1 17.2855 25.3325 34.7944
232 1 17.3483 25.2763 33.6932
236 1 16.4813 25.8957 34.9838
237 1 16.3537 26.7378 34.4678
238 1 15.6824 26.0362 34.2268
234 1 17.3362 26.2299 34.3718
233 1 18.1374 25.6928 34.1267
246 1 11.2511 46.5943 33.1299
245 1 11.1233 45.9198 33.8427
247 1 10.6434 46.8931 33.8795
251 1 11.7398 46.9267 34.0338
252 1 11.3329 47.6416 33.4535
253 1 11.9456 47.9985 34.1544
254 1 11.1462 48.5838 34.0385
255 1 11.3962 48.4547 34.9998
256 1 11.2709 49.4167 34.7836
257 1 12.0954 49.0728 34.3399
258 1 12.2163 49.1059 35.3301
259 1 12.1996 50.0212 34.928
248 1 10.9348 47.6032 34.4901
249 1 11.719 47.3768 35.0527
250 1 11.2017 46.5601 34.7824
484 1 21.7091 41.8037 39.2194
486 1 22.692 41.275 38.977
485 1 22.4771 42.2096 38.7081
488 1 23.2253 41.2117 40.0036
481 1 22.0038 42.8387 39.5382
482 1 22.5968 42.0868 39.7695
483 1 22.137 41.2167 39.9037
487 1 23.4894 41.8073 39.2279
149 1 44.6638 16.2446 41.8404
150 1 45.6062 16.1224 41.5662
151 1 45.3352 15.317 42.0896
489 1 23.5631 42.0966 40.2854
490 1 23.356 42.8274 40.9107
492 1 22.3045 42.8022 40.6103
493 1 21.645 42.1079 40.3378
491 1 23.0416 43.0449 39.985
147 1 44.265 15.3765 42.3824
148 1 44.3167 16.2875 42.7708
152 1 45.3925 16.1074 42.6805
153 1 45.0401 15.3022 43.1515
154 1 46.0164 15.2169 43.0074
155 1 46.3673 15.7379 42.2447
156 1 46.3931 16.2656 43.0971
159 1 47.1247 16.5328 42.3086
139 1 26.1715 37.5175 43.3517
500 1 22.5061 41.3038 41.765
498 1 21.8373 41.1481 40.929
499 1 22.7599 40.7461 40.9578
497 1 22.6049 41.7757 40.7614
496 1 23.4025 41.779 41.3338
494 1 21.7597 42.1607 41.3377
495 1 22.6739 42.4012 41.6477
143 1 44.122 14.6606 43.2002
40 1 34.6128 15.7034 44.9285
145 1 44.1652 15.6872 43.6644
146 1 43.4769 15.5575 42.9628
160 1 47.9167 15.9321 42.3459
39 1 33.7718 16.0449 44.512
157 1 47.1125 15.5821 43.0296
158 1 47.4898 16.4837 43.2339
140 1 25.8407 37.2824 44.2721
137 1 26.7407 37.922 44.2264
138 1 25.8863 38.3182 43.8621
136 1 27.159 38.0396 43.3368
134 1 27.3412 38.8498 44.095
135 1 26.6607 38.8933 43.3663
122 1 25.8563 39.5382 43.8067
133 1 26.4545 38.9307 44.5286
121 1 26.808 39.8081 43.9419
142 1 44.1229 14.0385 43.979
141 1 44.696 14.8412 44.1297
37 1 34.3017 16.089 45.9283
38 1 33.6018 15.6247 45.3984
144 1 43.5339 14.9772 43.9393
35 1 33.3226 16.6879 45.307
36 1 34.3061 16.7472 45.1875
21 1 32.7298 19.0598 45.751
22 1 31.7425 19.1827 45.8601
132 1 27.1036 39.5216 44.9904
123 1 25.2142 40.1827 44.2397
124 1 26.1034 40.6147 44.1375
125 1 26.0831 39.8959 44.8264
131 1 27.0288 40.4873 44.7655
126 1 25.6834 40.7267 45.1709
127 1 26.3866 41.3683 44.8929
33 1 33.2664 16.1898 46.2923
32 1 33.0507 16.8825 46.968
28 1 31.6668 17.3102 46.4833
31 1 32.6645 17.1261 46.0756
34 1 33.7663 17.0409 46.1274
25 1 31.2474 18.3138 46.3592
23 1 32.1718 18.8157 46.6822
24 1 32.1377 18.14 45.9361
130 1 26.6243 40.3432 45.6579
129 1 26.2917 41.2225 45.9849
128 1 27.1669 41.3055 45.5082
29 1 31.9825 16.8796 47.3177
30 1 32.1955 16.3503 46.4943
27 1 32.4428 17.7868 46.9205
26 1 31.5616 18.0619 47.2747
443 1 31.6985 29.2306 49.379
441 1 31.5155 28.9933 48.3148
446 1 30.6509 29.1546 48.9943
445 1 30.402 30.1175 49.0478
442 1 31.4364 29.9101 48.7042
448 1 30.8757 28.795 50.0123
447 1 30.0825 29.346 49.7928
444 1 31.0537 29.8802 49.7644
454 1 33.1459 27.919 50.9847
450 1 31.8933 28.3841 50.0487
451 1 31.332 28.2436 50.8706
452 1 32.2549 28.5628 51.0737
453 1 32.231 27.6101 50.7489
449 1 31.6268 29.25 50.4835
455 1 32.5636 27.7838 51.7849
457 1 33.6296 27.3276 51.7768
456 1 32.8165 26.9079 51.3862
458 1 32.9908 27.053 52.4918
459 1 33.2817 28.0062 52.5924
460 1 34.0117 27.3677 52.8242
ITEM: TIMESTEP
300
ITEM: NUMBER OF ATOMS
500
ITEM: BOX BOUNDS pp pp pp
0.0000000000000000e+00 6.0000000000000000e+01
0.0000000000000000e+00 6.0000000000000000e+01
0.0000000000000000e+00 6.0000000000000000e+01
ITEM: ATOMS id type x y z
183 1 35.8181 27.5175 14.5021
303 1 11.276 42.5965 13.2482
302 1 12.2454 42.3336 13.2007
301 1 12.0953 43.287 12.9483
184 1 36.7213 27.3664 14.8968
185 1 36.7979 27.783 14.0123
186 1 36.4838 26.8193 13.9928
181 1 35.9041 27.5941 15.6013
182 1 36.2055 28.3102 14.9748
318 1 11.5918 40.6179 14.0516
317 1 12.3147 41.2312 13.7456
316 1 12.0295 41.3908 14.7096
304 1 11.2141 43.5391 13.6025
305 1 11.9444 43.046 14.0168
309 1 11.6223 44.1404 14.4455
306 1 12.8877 43.1251 13.7482
192 1 36.2163 25.7686 15.6013
190 1 36.9166 26.2858 14.8591
191 1 36.0027 26.5919 15.0927
189 1 37.6463 26.8689 15.2152
187 1 37.4645 26.8956 14.1193
188 1 37.7215 27.6956 14.6468
360 1 11.4941 32.6732 16.7956
319 1 11.2355 41.3169 13.4372
320 1 10.8737 41.4067 14.3746
315 1 11.6909 42.0359 14.0778
299 1 49.1551 39.0444 17.289
313 1 12.1829 42.5505 14.9723
314 1 12.6623 42.1659 14.211
311 1 10.8829 42.7123 14.2931
312 1 11.2596 42.1926 15.0582
310 1 11.3855 43.3052 14.9143
308 1 12.4763 43.6813 14.6855
307 1 12.4173 43.9982 13.7269
193 1 36.9855 26.3013 15.9356
194 1 36.9175 27.2827 15.9357
355 1 11.0554 31.2118 17.8351
356 1 10.8361 32.1367 18.135
357 1 10.6954 32.0017 17.1571
358 1 10.5801 32.956 17.4064
359 1 11.5099 32.9351 17.7542
297 1 48.6161 38.5955 18.1758
296 1 48.3311 39.4978 17.8683
298 1 49.4938 39.0588 18.2266
300 1 49.3086 39.9723 17.6331
198 1 35.9782 26.6898 16.1936
199 1 36.3016 25.9303 16.7318
200 1 36.5174 26.2333 17.6579
195 1 36.8573 26.9128 16.8532
197 1 35.785 26.8861 17.145
196 1 36.2199 27.6618 16.6858
353 1 11.9016 32.1845 18.4561
354 1 11.7401 31.8639 17.5288
295 1 48.836 39.8353 18.6524
294 1 48.0942 39.2221 18.9188
89 1 48.4115 48.9492 18.5578
86 1 47.2313 48.8084 18.5036
87 1 47.5994 49.7271 18.4314
90 1 48.603 49.6674 17.9025
91 1 49.4277 49.17 18.1512
92 1 49.3178 49.3514 19.1231
94 1 48.4937 50.0016 18.9362
16 1 21.9214 5.91635 20.6289
345 1 9.65229 30.2866 19.1321
342 1 11.3081 30.3697 18.4848
343 1 11.2125 29.6667 19.1891
344 1 10.3804 29.8026 18.6528
351 1 11.2197 31.4339 18.8974
341 1 11.8392 30.58 19.2897
352 1 12.0369 31.202 18.3817
202 1 37.7177 32.772 20.8693
201 1 38.0748 32.5396 19.9713
290 1 48.0479 38.7479 19.9154
293 1 48.9867 38.8681 19.1829
292 1 48.7133 39.6313 19.7546
85 1 46.5399 49.5208 18.6333
84 1 47.0184 49.9475 19.3912
88 1 47.8315 49.248 19.2878
93 1 49.3712 50.1968 18.5723
95 1 48.7021 50.9491 19.1185
96 1 49.2078 50.3209 19.6981
100 1 48.2296 50.675 18.1318
99 1 47.6403 50.7142 18.9346
17 1 21.3602 5.80352 21.4451
18 1 21.5799 4.93095 21.0165
19 1 22.3751 5.3336 21.4687
20 1 22.3828 6.32508 21.5667
14 1 22.0889 6.99518 20.7437
15 1 21.1829 6.58565 20.6624
346 1 10.2627 29.8096 19.7644
347 1 10.679 30.6208 19.3612
348 1 11.2013 30.281 20.1362
349 1 11.3198 31.2642 19.9954
350 1 12.0367 31.6564 19.4206
61 1 12.9757 34.072 21.1652
203 1 38.6519 32.4104 20.9498
204 1 38.4608 33.1622 21.5638
365 1 45.6702 33.2617 21.8104
368 1 44.742 33.4302 21.2063
366 1 45.6478 32.9126 20.8798
367 1 45.5358 33.9138 20.8755
65 1 12.3012 34.9147 21.4199
205 1 37.849 33.8433 21.2017
207 1 37.6579 33.599 20.1255
208 1 38.5676 33.3895 20.4557
210 1 38.9386 34.1013 21.203
209 1 39.405 33.2501 20.9569
70 1 10.5594 34.9268 21.9852
67 1 11.2783 34.5171 21.2558
206 1 38.1593 34.4084 20.4443
372 1 43.8641 35.0578 21.4796
69 1 10.4476 35.2519 21.0511
68 1 11.3607 35.5052 21.3542
286 1 48.729 36.9789 20.0679
287 1 49.346 37.774 20.121
288 1 48.5921 37.9044 19.4869
289 1 48.3077 37.9358 20.4519
291 1 48.9707 38.807 20.2703
83 1 46.811 48.983 19.5605
81 1 47.5096 49.4811 20.3033
82 1 46.5179 49.5874 20.3019
97 1 48.5989 49.5859 19.9702
98 1 47.9815 50.3513 19.8018
8 1 20.5886 7.11081 22.3034
9 1 20.443 7.11415 21.3153
10 1 21.2723 7.62534 21.0967
11 1 21.4428 6.85142 21.6943
12 1 21.5402 7.70758 22.185
6 1 19.5731 7.78916 21.5575
13 1 22.3077 7.49528 21.5756
5 1 19.8882 7.92891 22.4925
4 1 20.5924 8.0957 21.802
3 1 20.586 8.79619 22.4989
1 1 19.5189 8.92018 22.8241
2 1 19.8031 8.85465 21.8705
406 1 46.6115 18.8477 23.6159
407 1 45.8409 18.5983 23.0398
408 1 46.6548 18.8095 22.505
62 1 12.8934 33.3779 21.8786
63 1 12.0303 33.8514 21.7173
361 1 44.1793 32.2679 22.4495
362 1 43.9352 32.9237 21.7399
363 1 44.674 33.2594 22.3201
364 1 45.0077 32.5172 21.7405
64 1 12.6899 34.4285 22.1978
211 1 38.9272 33.9297 22.1845
212 1 39.833 33.8228 21.791
215 1 40.5129 32.9985 22.0136
369 1 45.0449 34.1626 21.8283
370 1 44.0585 34.0342 21.7978
66 1 11.6354 34.7938 22.1542
371 1 44.4358 34.439 20.954
373 1 44.4324 34.9546 22.2981
283 1 48.7794 36.2911 20.9419
284 1 49.1096 37.2267 21.0756
72 1 9.64486 35.5193 21.7766
73 1 9.59303 36.3619 22.3027
71 1 10.5439 35.9229 21.9583
428 1 17.2352 36.8678 22.6687
374 1 44.9867 35.2187 21.5104
375 1 44.3777 35.9517 21.8188
285 1 49.6451 36.7405 20.3845
421 1 17.8872 37.7802 22.8935
376 1 45.1642 35.8169 22.4233
377 1 44.9794 36.7761 22.2095
378 1 45.3461 36.2783 21.4149
379 1 45.7815 37.1661 21.5531
380 1 46.0538 36.4925 22.2433
393 1 26.922 39.5799 23.2497
394 1 27.1718 40.4159 22.7776
395 1 26.9224 41.3244 23.0964
397 1 27.818 40.0897 23.6389
7 1 19.6403 6.93132 22.0612
57 1 27.4911 14.2427 24.3737
56 1 28.3265 13.7859 24.078
58 1 27.9927 14.8181 23.7295
59 1 28.4618 14.7462 24.5963
60 1 28.5665 15.6627 24.2261
46 1 29.833 15.9621 24.4055
401 1 45.1207 17.5955 24.3651
402 1 45.946 17.9926 23.9722
403 1 45.1786 18.6267 23.947
404 1 45.3534 18.5292 24.9254
405 1 46.1199 18.9456 24.4523
409 1 46.4009 19.6773 22.9256
410 1 45.6795 19.5271 23.5804
214 1 39.9898 32.4889 22.695
279 1 32.7442 35.5335 25.8461
213 1 39.4206 32.9279 22.0012
218 1 40.5114 33.9808 23.4982
219 1 40.0719 33.092 23.6627
220 1 39.7401 33.5446 22.8467
216 1 40.8841 33.114 22.9225
217 1 40.6782 33.9963 22.5086
281 1 48.9759 36.586 22.0023
282 1 49.6764 36.2568 21.3748
426 1 16.8655 35.6672 24.2173
74 1 8.97636 35.6696 22.6599
75 1 8.44453 35.886 23.4746
80 1 10.0466 35.4402 22.8181
427 1 17.0607 36.2411 23.4315
423 1 18.3141 36.8604 24.2858
424 1 17.9414 35.9649 24.0591
429 1 18.0299 36.7443 23.2537
431 1 17.226 36.6851 24.4622
383 1 26.8573 37.5638 24.1225
78 1 9.90734 36.3953 23.3542
422 1 18.2927 37.7267 23.8087
430 1 17.3059 37.2806 23.6888
382 1 26.1225 38.2295 24.2268
381 1 26.7604 38.5105 23.5112
390 1 26.0467 39.2631 23.8363
392 1 26.1471 40.2068 23.2438
391 1 26.0361 40.1623 24.2428
398 1 26.967 40.5525 23.8544
396 1 27.838 41.0589 23.4151
54 1 27.7142 14.5607 25.4039
55 1 28.2603 13.7904 25.0765
49 1 29.0417 15.7289 25.8964
47 1 29.3209 15.2993 24.9384
48 1 29.0052 16.2482 25.0502
45 1 30.0403 15.9798 25.3905
44 1 29.8952 16.8974 25.0326
420 1 45.0561 20.3643 25.2527
411 1 46.4637 19.9014 24.0513
412 1 45.6276 20.4111 24.2578
413 1 45.2295 19.5539 24.5637
280 1 32.7777 35.9097 24.9254
425 1 17.6255 35.3203 24.7554
277 1 32.9636 36.6845 25.6567
278 1 32.123 36.2904 25.9872
76 1 8.87365 36.694 23.0807
77 1 9.1753 36.5365 24.0175
79 1 9.48602 35.5388 23.6343
434 1 17.9974 36.2702 25.1359
385 1 27.8034 37.832 24.6878
384 1 27.6806 37.9421 23.7094
273 1 33.7271 35.8919 25.5283
432 1 17.5926 37.5764 24.7101
433 1 18.2628 37.2033 25.3408
386 1 27.1259 38.5437 24.5591
387 1 27.6705 39.026 23.8823
388 1 27.0176 39.6089 24.3475
271 1 33.5262 37.5077 25.1504
272 1 33.6857 36.5866 24.8226
389 1 26.2442 39.1835 24.8033
399 1 27.6581 40.7343 24.5262
400 1 27.2144 41.5673 24.1779
53 1 28.1519 14.0513 26.1446
50 1 28.2434 15.5349 25.3169
51 1 28.165 15.1534 26.2325
52 1 28.7975 14.6346 25.6534
43 1 29.4652 16.7582 25.9277
41 1 29.6917 17.8126 25.637
42 1 28.888 17.3065 25.3263
419 1 45.1823 19.4456 25.6566
418 1 45.7069 20.1726 26.1033
414 1 46.0399 19.8268 25.0923
415 1 46.1671 18.9423 25.5351
436 1 17.5633 35.567 25.8672
275 1 33.2803 36.1869 26.5581
437 1 16.9201 36.0133 25.2634
439 1 16.9095 36.373 26.3088
440 1 16.1469 36.655 25.7242
435 1 18.0026 36.4281 26.1143
438 1 17.2027 36.9309 25.5356
274 1 33.9719 36.7026 26.0433
276 1 32.7064 37.0071 26.5742
268 1 33.044 38.4947 25.5629
269 1 32.5333 37.6486 25.6444
270 1 33.4379 37.6461 26.1153
265 1 32.6019 38.1277 26.6034
267 1 32.0785 38.6516 25.7557
264 1 31.7327 38.5667 26.8041
266 1 32.6625 39.0996 26.4306
416 1 46.67 19.6521 26.009
417 1 45.8886 19.2974 26.5323
262 1 32.1368 37.8143 27.5404
263 1 32.4385 38.7706 27.4826
176 1 8.34666 47.3393 29.8767
177 1 7.55674 46.7332 29.9249
178 1 7.36023 47.6363 30.3003
180 1 7.51554 47.5512 29.1704
174 1 8.78481 48.3215 29.6589
462 1 33.6766 12.9371 30.2636
463 1 32.7488 12.9735 29.9018
221 1 17.5794 26.0728 31.4817
222 1 17.5319 25.1155 31.7731
223 1 18.14 25.2709 30.9793
340 1 31.616 28.2011 29.9791
331 1 29.4712 28.6917 30.2874
261 1 31.4438 38.4562 27.8743
119 1 19.1746 45.7202 30.2527
120 1 19.598 46.6163 30.3691
118 1 18.4917 46.4426 30.3483
173 1 9.3517 47.7084 30.1969
162 1 11.0723 48.0258 31.4267
161 1 11.1351 47.2436 32.0324
179 1 7.69999 48.3607 29.7132
175 1 8.3751 48.0705 30.5504
172 1 9.31186 48.6597 30.5595
480 1 30.9091 11.8325 31.3226
464 1 32.1348 12.7694 30.6436
465 1 32.9767 12.3018 30.8531
468 1 32.1021 13.6865 31.3111
469 1 32.1561 13.841 30.3284
470 1 31.295 13.4455 30.6141
461 1 33.0518 13.4091 30.8781
472 1 30.9086 14.2898 30.0405
473 1 30.342 13.9206 30.7808
474 1 30.4429 14.5567 31.5362
471 1 31.3617 14.3955 30.9165
225 1 18.4969 24.5579 31.7144
226 1 19.3804 24.9728 31.5204
224 1 18.5221 25.5635 31.8511
322 1 27.5412 28.2336 31.2129
321 1 28.339 27.8147 31.6368
328 1 28.5034 28.5601 30.81
329 1 29.3177 28.2783 31.3094
338 1 30.5223 28.4782 29.9904
339 1 30.9809 27.9679 30.7104
327 1 28.5164 28.89 31.7545
330 1 29.3093 29.2624 31.0948
332 1 30.1168 29.4465 30.3579
333 1 30.2779 28.7442 31.0532
336 1 30.8182 29.7008 31.1771
335 1 31.7724 29.4377 31.3181
337 1 31.1575 29.0756 30.4731
165 1 10.151 47.5274 31.7137
163 1 10.8123 47.1563 30.9665
164 1 9.81406 47.0097 30.9661
116 1 19.4321 46.0067 31.282
117 1 18.4632 45.8083 31.1036
169 1 10.1135 48.6147 31.6216
170 1 10.1795 48.0686 30.7894
101 1 17.984 46.8239 31.2934
171 1 9.27906 47.9664 31.2647
478 1 30.5203 12.8731 31.1484
479 1 31.1039 12.3727 30.5074
477 1 31.4529 12.7755 31.4928
475 1 30.0939 13.6614 31.8273
476 1 31.0754 13.6667 31.6903
467 1 32.0198 13.3491 32.2383
466 1 32.5667 12.7445 31.654
227 1 19.1732 24.927 32.5016
228 1 18.1889 24.9186 32.6964
229 1 18.633 25.7874 32.9285
323 1 27.5865 28.4931 32.169
324 1 26.9568 29.0711 31.6543
325 1 27.7473 29.3204 31.0991
326 1 27.8654 29.5757 32.0564
334 1 31.1478 28.6908 31.5302
241 1 10.2826 46.507 32.0041
242 1 10.2042 47.2042 32.7253
115 1 19.0348 45.3593 31.9447
166 1 9.32042 47.1427 32.0351
167 1 9.54572 48.0486 32.4165
104 1 17.9867 46.8652 32.418
105 1 18.7095 46.4005 31.9674
114 1 19.6371 46.0171 32.3869
113 1 19.6682 46.9042 31.9362
168 1 10.5446 48.2184 32.444
102 1 18.9405 47.0492 31.1331
103 1 18.6677 47.478 31.9926
239 1 16.8646 25.967 33.2749
231 1 17.8637 26.4474 33.3641
230 1 17.71 25.897 32.5528
243 1 9.59716 46.4325 32.8648
244 1 10.2965 45.721 32.9314
106 1 17.9892 45.7648 32.13
107 1 18.6412 45.856 32.8931
108 1 19.4101 46.2222 33.4405
109 1 18.9927 46.8946 32.8616
112 1 20.1104 46.9066 32.8271
110 1 19.4652 47.3963 33.5707
111 1 19.6124 47.7578 32.6411
260 1 12.7341 49.1639 34.1467
240 1 16.8079 25.0141 33.5489
235 1 17.3619 25.2325 34.5233
232 1 17.7989 25.4646 33.5565
236 1 16.4237 25.5531 34.4339
237 1 16.2465 26.454 34.0477
238 1 15.9231 25.7107 33.459
234 1 17.3052 26.192 34.2704
233 1 18.2688 25.9325 34.2809
246 1 11.0448 46.4872 32.807
245 1 11.1247 45.794 33.5172
247 1 10.4196 46.6049 33.5834
251 1 11.5234 46.8696 33.7121
252 1 11.1773 47.5418 33.0644
253 1 11.6205 47.9807 33.8186
254 1 10.7886 48.461 33.5402
255 1 10.8252 48.3782 34.5348
256 1 10.9753 49.3236 34.2927
257 1 11.7205 49.062 33.6985
258 1 11.8618 48.6804 34.6188
259 1 11.9976 49.6682 34.5998
248 1 10.618 47.4599 34.0026
249 1 11.3384 47.3981 34.6926
250 1 11.0317 46.4736 34.474
484 1 21.7059 41.8151 39.2075
486 1 22.6849 41.2844 38.9657
485 1 22.4782 42.2239 38.7062
488 1 23.2127 41.2061 39.9989
481 1 22.0045 42.8423 39.5414
482 1 22.5929 42.0868 39.7646
483 1 22.1258 41.2198 39.8895
487 1 23.4859 41.8024 39.2273
149 1 44.8303 16.3034 41.7783
150 1 45.7704 15.9403 41.6719
151 1 45.2101 15.455 42.3341
489 1 23.565 42.0845 40.2874
490 1 23.3611 42.8187 40.9072
492 1 22.3042 42.8001 40.6109
493 1 21.645 42.1045 40.3381
491 1 23.0453 43.0376 39.9854
147 1 44.137 15.4299 42.0751
148 1 44.4221 16.1546 42.6856
152 1 45.5132 16.3478 42.6499
153 1 45.1656 15.8619 43.4256
154 1 45.6574 15.0208 43.26
155 1 46.2481 15.395 42.5505
156 1 46.2599 15.9741 43.3544
159 1 46.5512 16.4324 42.3389
139 1 25.898 38.1304 43.1552
500 1 22.4909 41.3234 41.7793
498 1 21.8588 41.1306 40.9215
499 1 22.7924 40.76 40.9976
497 1 22.6078 41.7734 40.7609
496 1 23.3955 41.7757 41.3412
494 1 21.759 42.1449 41.3364
495 1 22.6694 42.4089 41.642
143 1 44.5454 15.0247 43.0384
40 1 34.6151 15.7855 44.9108
145 1 44.0902 15.7762 43.6905
146 1 43.559 15.4861 42.8921
160 1 47.2257 15.7186 42.1663
39 1 33.768 16.1204 44.503
157 1 47.0895 15.4312 43.2514
158 1 47.2407 16.3959 43.0569
140 1 26.0348 37.298 43.6868
137 1 26.7349 37.8976 44.3089
138 1 25.84 38.3045 44.1324
136 1 26.9678 37.8143 43.3482
134 1 27.4303 38.7926 44.2447
135 1 26.7034 38.7393 43.5726
122 1 25.8953 39.4012 43.9214
133 1 26.559 38.9047 44.6992
121 1 26.8379 39.7248 43.9968
142 1 44.8759 14.251 43.5555
141 1 44.8867 15.0726 44.1161
37 1 34.2851 16.1232 45.9202
38 1 33.6015 15.6592 45.3702
144 1 43.8786 14.7995 43.7325
35 1 33.3026 16.7182 45.3182
36 1 34.284 16.8117 45.2067
21 1 32.7956 18.9466 45.6977
22 1 31.816 19.1349 45.7936
132 1 27.1952 39.5952 45.0377
123 1 25.2245 40.0395 44.3077
124 1 26.0812 40.5089 44.1149
125 1 26.1404 39.8755 44.8798
131 1 27.0335 40.5261 44.7144
126 1 25.6708 40.6975 45.1477
127 1 26.3185 41.3534 44.7857
33 1 33.2458 16.181 46.2877
32 1 33.032 16.8498 46.9905
28 1 31.6454 17.3011 46.528
31 1 32.6285 17.0873 46.1026
34 1 33.73 17.0507 46.1542
25 1 31.2691 18.3203 46.3429
23 1 32.2207 18.7937 46.6388
24 1 32.1462 18.0821 45.9314
130 1 26.6717 40.4384 45.6333
129 1 26.2561 41.3044 45.8903
128 1 27.1118 41.4217 45.384
29 1 31.9742 16.8721 47.358
30 1 32.1663 16.3232 46.5424
27 1 32.4417 17.7678 46.9371
26 1 31.5751 18.1081 47.2701
443 1 31.7097 29.2036 49.3796
441 1 31.5335 28.9962 48.3014
446 1 30.6644 29.1782 48.9647
445 1 30.4431 30.1467 49.0346
442 1 31.4814 29.9062 48.7108
448 1 30.8669 28.7898 49.9751
447 1 30.089 29.3703 49.7588
444 1 31.0783 29.8759 49.7535
454 1 33.0621 27.9489 50.9723
450 1 31.8938 28.369 50.0871
451 1 31.2484 28.228 50.8436
452 1 32.1417 28.5335 51.1593
453 1 32.1468 27.5852 50.8248
449 1 31.5961 29.2331 50.491
455 1 32.5759 27.7737 51.8292
457 1 33.6413 27.3963 51.7404
456 1 32.8415 26.9213 51.3844
458 1 33.0754 27.0225 52.4756
459 1 33.3096 27.9843 52.6272
460 1 34.094 27.3803 52.7625
ITEM: TIMESTEP
400
ITEM: NUMBER OF ATOMS
500
ITEM: BOX BOUNDS pp pp pp
0.0000000000000000e+00 6.0000000000000000e+01
0.0000000000000000e+00 6.0000000000000000e+01
0.0000000000000000e+00 6.0000000000000000e+01
ITEM: ATOMS id type x y z
183 1 35.784 27.5065 14.5866
303 1 11.2343 42.5158 13.3247
302 1 12.197 42.2622 13.2259
301 1 12.0238 43.1988 12.9384
184 1 36.6949 27.3058 14.9379
185 1 36.7191 27.7592 14.0528
186 1 36.4328 26.7957 14.0148
181 1 35.9709 27.7126 15.6515
182 1 36.2848 28.3125 14.9192
318 1 11.4476 40.9163 14.135
317 1 12.3719 41.1703 13.8507
316 1 12.1832 41.4089 14.8172
304 1 11.1738 43.4725 13.6047
305 1 11.9212 43.0037 14.0319
309 1 11.5644 44.0499 14.4573
306 1 12.8406 43.1179 13.6937
192 1 36.2907 25.7542 15.6087
190 1 36.9383 26.2454 14.8519
191 1 35.9901 26.5035 15.0304
189 1 37.6569 26.8501 15.202
187 1 37.4183 26.9221 14.1273
188 1 37.6608 27.7124 14.692
360 1 11.4941 32.6732 16.7956
319 1 11.4372 41.4214 13.2712
320 1 10.7066 41.7159 13.8962
315 1 11.7279 41.9769 14.1604
299 1 49.211 38.7554 17.6458
313 1 12.248 42.539 14.9787
314 1 12.7058 42.1662 14.1929
311 1 10.931 42.6929 14.3913
312 1 11.3355 42.1544 15.1363
310 1 11.4436 43.2583 15.0216
308 1 12.4716 43.6664 14.6481
307 1 12.3231 43.9653 13.6918
193 1 37.0388 26.3223 15.9405
194 1 36.9839 27.3174 15.9708
355 1 11.0554 31.2118 17.8351
356 1 10.8361 32.1366 18.135
357 1 10.6954 32.0016 17.157
358 1 10.5801 32.9561 17.4065
359 1 11.5099 32.9351 17.7542
297 1 48.7786 38.3168 18.5735
296 1 48.3696 39.1553 18.2308
298 1 49.5995 38.8762 18.5566
300 1 49.2658 39.7182 17.915
198 1 36.0411 26.7289 16.1062
199 1 36.2922 25.9649 16.6936
200 1 36.43 26.239 17.6416
195 1 36.8585 26.9048 16.8658
197 1 35.737 26.8708 17.0404
196 1 36.2379 27.667 16.719
353 1 11.9016 32.1845 18.4561
354 1 11.7401 31.8639 17.5288
295 1 48.8755 39.6112 18.9611
294 1 48.2257 38.933 19.2788
89 1 48.4082 48.9516 18.56
86 1 47.2332 48.8079 18.5062
87 1 47.5971 49.7293 18.4343
90 1 48.6001 49.6686 17.9015
91 1 49.4215 49.1676 18.1521
92 1 49.3216 49.3522 19.124
94 1 48.4966 50.0017 18.9345
16 1 21.9214 5.91635 20.6289
345 1 9.65231 30.2866 19.1321
342 1 11.3081 30.3697 18.4848
343 1 11.2125 29.6667 19.1891
344 1 10.3804 29.8026 18.6528
351 1 11.2197 31.4339 18.8973
341 1 11.8392 30.58 19.2897
352 1 12.0369 31.202 18.3817
202 1 37.7177 32.772 20.8693
201 1 38.0748 32.5396 19.9713
290 1 47.873 38.66 20.2635
293 1 49.1726 38.7242 19.5586
292 1 48.7334 39.4487 20.0845
85 1 46.5367 49.5154 18.6302
84 1 47.0126 49.9482 19.3885
88 1 47.8309 49.254 19.291
93 1 49.375 50.1966 18.5711
95 1 48.7083 50.9484 19.1153
96 1 49.2085 50.3202 19.6985
100 1 48.2284 50.6767 18.1327
99 1 47.6436 50.7141 18.938
17 1 21.3603 5.80358 21.445
18 1 21.5798 4.93095 21.0163
19 1 22.375 5.33346 21.4685
20 1 22.3827 6.32509 21.5666
14 1 22.0889 6.99505 20.7437
15 1 21.1829 6.58582 20.6624
346 1 10.2627 29.8096 19.7644
347 1 10.679 30.6208 19.3612
348 1 11.2013 30.2809 20.1362
349 1 11.3198 31.2642 19.9954
350 1 12.0367 31.6564 19.4206
61 1 12.9721 34.0729 21.1829
203 1 38.6519 32.4104 20.9498
204 1 38.4608 33.1623 21.5638
365 1 45.6899 33.4224 21.8778
368 1 44.7549 33.4934 21.264
366 1 45.7432 33.213 20.9095
367 1 45.4298 34.1679 20.9889
65 1 12.2965 34.9208 21.4147
205 1 37.849 33.8433 21.2017
207 1 37.6579 33.599 20.1255
208 1 38.5676 33.3895 20.4557
210 1 38.9386 34.1013 21.203
209 1 39.405 33.2501 20.9569
70 1 10.5445 34.9091 21.9715
67 1 11.2766 34.5178 21.2474
206 1 38.1593 34.4084 20.4442
372 1 43.7493 35.0815 21.4529
69 1 10.4389 35.247 21.0417
68 1 11.355 35.5073 21.3267
286 1 48.8288 36.8942 19.5173
287 1 49.3691 37.6782 19.2254
288 1 48.453 37.9193 19.5811
289 1 48.1044 37.7166 20.4824
291 1 48.8029 38.5851 20.5809
83 1 46.8134 48.9809 19.5576
81 1 47.5068 49.491 20.3035
82 1 46.5127 49.5762 20.2995
97 1 48.6026 49.5843 19.9702
98 1 47.9862 50.3512 19.8023
8 1 20.5887 7.11099 22.3036
9 1 20.4433 7.11427 21.3153
10 1 21.2722 7.62528 21.0969
11 1 21.443 6.85124 21.6943
12 1 21.5402 7.70761 22.185
6 1 19.5731 7.78895 21.5576
13 1 22.3079 7.49521 21.5757
5 1 19.8884 7.92898 22.4925
4 1 20.5925 8.0956 21.8023
3 1 20.586 8.79633 22.499
1 1 19.5186 8.92022 22.8238
2 1 19.8029 8.85469 21.8702
406 1 46.6115 18.8476 23.6159
407 1 45.8409 18.5983 23.0399
408 1 46.6545 18.8094 22.5048
62 1 12.8846 33.3936 21.9098
63 1 12.0224 33.8632 21.7323
361 1 44.3221 32.1748 22.3543
362 1 43.9888 32.8808 21.7323
363 1 44.6797 33.2302 22.3534
364 1 45.1439 32.5996 21.7291
64 1 12.6774 34.4505 22.206
211 1 38.9272 33.9297 22.1845
212 1 39.833 33.8228 21.791
215 1 40.5129 32.9985 22.0136
369 1 44.9344 34.2008 21.9499
370 1 43.9694 34.0195 21.8346
66 1 11.6227 34.8153 22.144
371 1 44.3029 34.4166 20.9771
373 1 44.2932 35.0075 22.274
283 1 48.7333 36.8268 20.605
284 1 49.2283 37.6403 20.2887
72 1 9.64425 35.5252 21.771
73 1 9.61043 36.3614 22.3081
71 1 10.5524 35.9048 21.9596
428 1 17.2352 36.8678 22.6687
374 1 44.89 35.1742 21.4783
375 1 44.3575 35.9772 21.7367
285 1 49.6874 36.8089 20.0135
421 1 17.8872 37.7802 22.8935
376 1 45.0894 35.7647 22.3871
377 1 45.0878 36.7258 22.1246
378 1 45.3929 36.1502 21.3658
379 1 46.0105 36.9176 21.5263
380 1 46.0897 36.2182 22.2352
393 1 26.9088 39.5636 23.259
394 1 27.1891 40.3915 22.7796
395 1 27.0035 41.3257 23.0862
397 1 27.7988 40.0433 23.6658
7 1 19.6403 6.93134 22.0613
57 1 27.4911 14.2427 24.3737
56 1 28.3265 13.7859 24.078
58 1 27.9927 14.8181 23.7295
59 1 28.4618 14.7462 24.5963
60 1 28.5665 15.6627 24.2261
46 1 29.833 15.9621 24.4055
401 1 45.1208 17.5954 24.3653
402 1 45.9461 17.9926 23.9722
403 1 45.1786 18.6267 23.9469
404 1 45.3533 18.5293 24.9254
405 1 46.12 18.9457 24.4523
409 1 46.4011 19.6774 22.9258
410 1 45.6795 19.5274 23.5804
214 1 39.9898 32.4889 22.695
279 1 32.3758 36.2475 26.474
213 1 39.4206 32.9279 22.0012
218 1 40.5114 33.9808 23.4982
219 1 40.0719 33.0919 23.6627
220 1 39.7401 33.5446 22.8467
216 1 40.8841 33.114 22.9225
217 1 40.6782 33.9963 22.5086
281 1 48.8384 37.6884 21.3107
282 1 49.562 37.0172 21.1216
426 1 16.8655 35.6672 24.2173
74 1 8.97846 35.678 22.6554
75 1 8.44958 35.8945 23.4716
80 1 10.0432 35.4232 22.8121
427 1 17.0607 36.2411 23.4315
423 1 18.3141 36.8604 24.2858
424 1 17.9414 35.9649 24.0591
429 1 18.0299 36.7443 23.2537
431 1 17.226 36.6851 24.4622
383 1 26.9163 37.6103 24.162
78 1 9.92272 36.3745 23.3602
422 1 18.2927 37.7267 23.8087
430 1 17.3059 37.2806 23.6888
382 1 26.1212 38.2196 24.266
381 1 26.7469 38.5219 23.5594
390 1 26.0088 39.2593 23.8275
392 1 26.1381 40.1906 23.2153
391 1 26.0153 40.1664 24.2146
398 1 26.9525 40.5432 23.8312
396 1 27.8787 41.006 23.4506
54 1 27.7142 14.5607 25.4039
55 1 28.2603 13.7904 25.0765
49 1 29.0417 15.7289 25.8964
47 1 29.3209 15.2993 24.9384
48 1 29.0052 16.2482 25.0502
45 1 30.0403 15.9798 25.3905
44 1 29.8952 16.8974 25.0326
420 1 45.056 20.3642 25.2528
411 1 46.4637 19.9013 24.0513
412 1 45.6276 20.4113 24.2579
413 1 45.2296 19.554 24.5636
280 1 32.3149 35.9512 25.5188
425 1 17.6255 35.3203 24.7554
277 1 32.9265 36.8185 25.7132
278 1 31.9784 36.9921 25.9291
76 1 8.89607 36.6985 23.0887
77 1 9.19256 36.5227 24.0239
79 1 9.48325 35.5235 23.6286
434 1 17.9974 36.2702 25.1359
385 1 27.9133 38.0482 24.5253
384 1 27.6613 37.9294 23.5748
273 1 33.4162 35.8552 25.7502
432 1 17.5926 37.5764 24.7101
433 1 18.2628 37.2033 25.3408
386 1 27.087 38.5752 24.6478
387 1 27.6515 38.9909 23.9432
388 1 26.988 39.6122 24.3505
271 1 33.5851 37.3658 25.0494
272 1 33.4755 36.3765 24.8936
389 1 26.1959 39.2121 24.7984
399 1 27.6009 40.658 24.5562
400 1 27.2482 41.5276 24.1956
53 1 28.1519 14.0513 26.1446
50 1 28.2434 15.5349 25.3169
51 1 28.165 15.1534 26.2325
52 1 28.7975 14.6346 25.6534
43 1 29.4652 16.7582 25.9277
41 1 29.6917 17.8126 25.637
42 1 28.888 17.3065 25.3263
419 1 45.1821 19.4456 25.6565
418 1 45.7068 20.1725 26.1032
414 1 46.0399 19.8267 25.0924
415 1 46.1669 18.9422 25.5351
436 1 17.5633 35.567 25.8672
275 1 33.462 36.4976 26.6508
437 1 16.9201 36.0133 25.2634
439 1 16.9095 36.373 26.3088
440 1 16.1469 36.655 25.7242
435 1 18.0026 36.4281 26.1143
438 1 17.2027 36.9309 25.5356
274 1 34.0007 36.6712 25.8343
276 1 32.8293 37.2428 26.58
268 1 33.1104 38.7248 25.7326
269 1 32.6966 37.8398 25.5806
270 1 33.5943 37.7119 25.9849
265 1 32.9453 38.2931 26.7228
267 1 32.1163 38.7742 25.6214
264 1 32.0409 37.9989 26.4213
266 1 32.3729 39.0753 26.5308
416 1 46.67 19.6521 26.009
417 1 45.8889 19.2974 26.5323
262 1 32.5552 37.6325 27.5475
263 1 31.9635 38.3891 27.3191
176 1 8.77185 47.0856 30.3253
177 1 8.04622 46.4116 30.4213
178 1 7.84564 47.2419 30.9361
180 1 7.82053 47.3239 29.8142
174 1 8.64173 48.0778 29.8585
462 1 33.6767 12.9371 30.2636
463 1 32.7488 12.9735 29.9018
221 1 17.6341 26.155 31.511
222 1 17.4334 25.2318 31.8423
223 1 18.0693 25.2501 31.0591
340 1 31.616 28.2011 29.9791
331 1 29.4712 28.6917 30.2874
261 1 31.8561 37.1189 27.0517
119 1 19.1581 45.7129 30.2438
120 1 19.5966 46.6025 30.3562
118 1 18.484 46.444 30.3363
173 1 9.56625 47.8414 30.1462
162 1 11.1575 47.7985 31.1205
161 1 11.0601 47.0232 31.7435
179 1 7.68121 48.0902 30.4329
175 1 8.68604 47.9356 30.8468
172 1 9.29706 48.7546 30.4546
480 1 30.9091 11.8325 31.3226
464 1 32.1348 12.7694 30.6436
465 1 32.9767 12.3018 30.8531
468 1 32.1021 13.6865 31.311
469 1 32.1561 13.841 30.3285
470 1 31.295 13.4455 30.6141
461 1 33.0518 13.4091 30.8781
472 1 30.9086 14.2898 30.0405
473 1 30.342 13.9206 30.7808
474 1 30.4429 14.5567 31.5362
471 1 31.3617 14.3955 30.9165
225 1 18.2798 24.5195 31.8369
226 1 19.2227 24.751 31.6285
224 1 18.485 25.5095 31.9256
322 1 27.5412 28.2336 31.2129
321 1 28.339 27.8147 31.6368
328 1 28.5034 28.5602 30.81
329 1 29.3177 28.2783 31.3094
338 1 30.5223 28.4782 29.9904
339 1 30.9809 27.9679 30.7104
327 1 28.5164 28.89 31.7545
330 1 29.3093 29.2624 31.0948
332 1 30.1168 29.4465 30.3579
333 1 30.2778 28.7442 31.0532
336 1 30.8182 29.7008 31.1771
335 1 31.7724 29.4377 31.3181
337 1 31.1575 29.0756 30.4731
165 1 10.2132 47.7017 31.6137
163 1 10.4261 47.2679 30.6672
164 1 9.5185 47.2955 31.0905
116 1 19.4306 46.0132 31.2768
117 1 18.4636 45.8176 31.1024
169 1 10.6133 48.7051 31.6448
170 1 10.2841 48.3779 30.7671
101 1 17.9868 46.8146 31.2907
171 1 9.50422 48.4604 31.3846
478 1 30.5203 12.8731 31.1484
479 1 31.1039 12.3727 30.5075
477 1 31.4529 12.7755 31.4928
475 1 30.0939 13.6614 31.8273
476 1 31.0754 13.6667 31.6903
467 1 32.0198 13.3491 32.2383
466 1 32.5667 12.7445 31.654
227 1 19.022 24.8136 32.6096
228 1 18.0534 24.9715 32.7967
229 1 18.617 25.7756 33
323 1 27.5865 28.4931 32.169
324 1 26.9568 29.0711 31.6543
325 1 27.7472 29.3204 31.0991
326 1 27.8654 29.5757 32.0564
334 1 31.1478 28.6908 31.5302
241 1 10.0074 46.6272 31.8115
242 1 10.3205 47.2076 32.5343
115 1 19.0398 45.3632 31.9367
166 1 9.38919 47.6529 32.149
167 1 10.0852 48.2712 32.5362
104 1 17.9885 46.885 32.4114
105 1 18.715 46.4004 31.97
114 1 19.64 46.0179 32.3854
113 1 19.6714 46.9078 31.9421
168 1 11.0219 48.0293 32.2535
102 1 18.9444 47.0381 31.1299
103 1 18.6839 47.4807 31.9872
239 1 16.8746 26.1447 33.2999
231 1 17.9149 26.5487 33.3889
230 1 17.7377 26.0049 32.5879
243 1 9.4879 46.7746 32.8198
244 1 10.043 45.949 32.7093
106 1 17.9941 45.7719 32.14
107 1 18.6547 45.8439 32.8971
108 1 19.4146 46.2226 33.4449
109 1 18.9881 46.8917 32.8696
112 1 20.1029 46.9098 32.838
110 1 19.4533 47.3936 33.581
111 1 19.5988 47.7583 32.6526
260 1 12.5177 49.1404 34.5168
240 1 16.9802 25.2583 32.8537
235 1 17.3528 25.4711 34.664
232 1 17.7388 25.5891 33.6294
236 1 16.8139 25.0923 33.9226
237 1 16.3488 25.9033 34.2489
238 1 16.0327 25.6193 33.3404
234 1 17.3335 26.3924 34.2996
233 1 18.2754 26.0493 34.314
246 1 11.0233 46.4127 32.6945
245 1 10.7947 45.6959 33.3473
247 1 10.3862 46.6806 33.4419
251 1 11.4808 46.6262 33.6811
252 1 11.1863 47.395 33.1377
253 1 11.5632 47.9487 33.852
254 1 10.9067 48.4412 33.2749
255 1 10.5653 48.386 34.2029
256 1 10.8345 49.3137 33.9716
257 1 11.7481 49.017 33.7183
258 1 11.5088 48.7082 34.644
259 1 11.6834 49.6881 34.6052
248 1 10.1594 47.643 33.5016
249 1 10.7723 47.3049 34.225
250 1 10.8328 46.3088 34.3608
484 1 21.7061 41.8153 39.2075
486 1 22.6848 41.2845 38.9656
485 1 22.4781 42.224 38.7065
488 1 23.2127 41.2058 39.9989
481 1 22.0047 42.8421 39.5415
482 1 22.5927 42.0877 39.7633
483 1 22.1255 41.2196 39.8894
487 1 23.4858 41.8024 39.2273
149 1 44.825 16.2959 41.773
150 1 45.771 15.948 41.6741
151 1 45.2109 15.4555 42.331
489 1 23.565 42.0846 40.2875
490 1 23.3612 42.8186 40.9071
492 1 22.3043 42.8002 40.611
493 1 21.6447 42.1044 40.338
491 1 23.0453 43.0374 39.9853
147 1 44.134 15.4223 42.0784
148 1 44.4188 16.1538 42.6812
152 1 45.5095 16.3533 42.6485
153 1 45.1648 15.8656 43.4232
154 1 45.6548 15.0246 43.2597
155 1 46.2467 15.3975 42.5492
156 1 46.2611 15.9743 43.3547
159 1 46.5548 16.4316 42.3457
139 1 25.8974 38.1306 43.1547
500 1 22.4909 41.3235 41.7792
498 1 21.8591 41.1304 40.9215
499 1 22.7926 40.7604 40.998
497 1 22.6081 41.7729 40.7621
496 1 23.3951 41.7758 41.3412
494 1 21.7589 42.1447 41.3364
495 1 22.6694 42.4088 41.6417
143 1 44.5466 15.0255 43.036
40 1 34.6151 15.785 44.9109
145 1 44.094 15.7755 43.6929
146 1 43.5589 15.4877 42.8975
160 1 47.2262 15.7172 42.1691
39 1 33.7681 16.1199 44.503
157 1 47.0854 15.4252 43.2507
158 1 47.246 16.3912 43.0605
140 1 26.0354 37.2975 43.6855
137 1 26.7348 37.897 44.3105
138 1 25.8399 38.3036 44.1316
136 1 26.9682 37.814 43.3495
134 1 27.4299 38.7934 44.2441
135 1 26.7029 38.7386 43.5731
122 1 25.8953 39.4011 43.9218
133 1 26.5583 38.9044 44.6987
121 1 26.8377 39.7253 43.9962
142 1 44.8791 14.2532 43.5541
141 1 44.8888 15.0749 44.1133
37 1 34.2852 16.123 45.9203
38 1 33.6015 15.659 45.3704
144 1 43.8809 14.7983 43.7314
35 1 33.3028 16.718 45.3181
36 1 34.2841 16.8113 45.2065
21 1 32.7952 18.9473 45.6981
22 1 31.8156 19.1352 45.794
132 1 27.1948 39.5953 45.0377
123 1 25.2251 40.0399 44.3075
124 1 26.0815 40.5094 44.1151
125 1 26.1405 39.8761 44.8797
131 1 27.0335 40.5263 44.715
126 1 25.6716 40.6972 45.148
127 1 26.3179 41.3544 44.7855
33 1 33.2459 16.1811 46.2877
32 1 33.0321 16.85 46.9903
28 1 31.6455 17.3011 46.5278
31 1 32.6287 17.0875 46.1024
34 1 33.7302 17.0507 46.154
25 1 31.2689 18.3203 46.343
23 1 32.2204 18.7938 46.6391
24 1 32.1462 18.0824 45.9314
130 1 26.6727 40.4377 45.6341
129 1 26.2564 41.3036 45.8905
128 1 27.1113 41.4226 45.3831
29 1 31.9743 16.8721 47.3577
30 1 32.1665 16.3234 46.5421
27 1 32.4416 17.7679 46.9371
26 1 31.575 18.1078 47.2701
443 1 31.821 29.0997 49.6185
441 1 31.9224 28.9296 48.525
446 1 30.9262 29.1744 48.9468
445 1 30.7761 30.1581 48.993
442 1 31.8385 29.8326 48.9444
448 1 30.813 28.7563 49.9619
447 1 30.1755 29.4073 49.5636
444 1 31.1706 29.8182 49.8432
454 1 32.6113 28.0125 50.9233
450 1 31.7319 28.2347 50.2968
451 1 30.9227 28.1266 50.8697
452 1 31.7016 28.3799 51.4358
453 1 31.7941 27.4527 51.0767
449 1 31.4279 29.1135 50.6598
455 1 32.502 27.7548 51.8806
457 1 33.5248 27.6096 51.3955
456 1 32.7648 26.9702 51.3234
458 1 33.3488 27.1476 52.2639
459 1 33.4153 28.1417 52.3672
460 1 34.3046 27.723 52.1869
ITEM: TIMESTEP
500
ITEM: NUMBER OF ATOMS
500
ITEM: BOX BOUNDS pp pp pp
0.0000000000000000e+00 6.0000000000000000e+01
0.0000000000000000e+00 6.0000000000000000e+01
0.0000000000000000e+00 6.0000000000000000e+01
ITEM: ATOMS id type x y z
183 1 35.7829 27.5056 14.5902
303 1 11.2342 42.5153 13.3248
302 1 12.1969 42.2619 13.2258
301 1 12.0239 43.1994 12.9385
184 1 36.6936 27.3038 14.9398
185 1 36.7169 27.7583 14.054
186 1 36.432 26.795 14.0159
181 1 35.9726 27.7159 15.6541
182 1 36.2851 28.3124 14.919
318 1 11.4477 40.9162 14.1351
317 1 12.372 41.1703 13.8507
316 1 12.1833 41.4091 14.8172
304 1 11.174 43.4728 13.605
305 1 11.9207 43.0036 14.0317
309 1 11.5642 44.0496 14.4575
306 1 12.8406 43.1189 13.6934
192 1 36.2931 25.7532 15.6086
190 1 36.9397 26.244 14.851
191 1 35.9892 26.4998 15.0284
189 1 37.658 26.8506 15.202
187 1 37.4174 26.9229 14.1273
188 1 37.6582 27.7135 14.6928
360 1 11.4941 32.6732 16.7956
319 1 11.4368 41.4215 13.2716
320 1 10.7071 41.7157 13.8964
315 1 11.7279 41.9773 14.1606
299 1 49.2185 38.752 17.6927
313 1 12.2476 42.5386 14.9788
314 1 12.7056 42.1654 14.1928
311 1 10.9309 42.693 14.3907
312 1 11.3357 42.1541 15.1359
310 1 11.4437 43.2589 15.0214
308 1 12.4717 43.6665 14.6481
307 1 12.3235 43.9648 13.6919
193 1 37.0402 26.3226 15.9405
194 1 36.9866 27.3172 15.9712
355 1 11.0554 31.2118 17.8351
356 1 10.8361 32.1366 18.135
357 1 10.6954 32.0016 17.157
358 1 10.5801 32.9561 17.4065
359 1 11.5099 32.9351 17.7542
297 1 48.6213 38.3646 18.5327
296 1 48.3949 39.2821 18.2517
298 1 49.5528 38.6703 18.6317
300 1 49.4457 39.6409 18.0792
198 1 36.0431 26.7305 16.1032
199 1 36.291 25.9655 16.6919
200 1 36.4254 26.2403 17.6411
195 1 36.8588 26.9041 16.8659
197 1 35.7358 26.8722 17.0359
196 1 36.2412 27.6676 16.7204
353 1 11.9016 32.1845 18.4561
354 1 11.7401 31.8639 17.5288
295 1 48.9288 39.5186 19.0484
294 1 48.1591 38.9472 19.3333
89 1 48.4083 48.9516 18.5599
86 1 47.2333 48.8078 18.5061
87 1 47.5972 49.7293 18.4343
90 1 48.6001 49.6686 17.9015
91 1 49.4215 49.1675 18.1521
92 1 49.3215 49.3522 19.124
94 1 48.4966 50.0017 18.9346
16 1 21.9214 5.91635 20.6289
345 1 9.65231 30.2866 19.1321
342 1 11.3081 30.3697 18.4848
343 1 11.2126 29.6667 19.1891
344 1 10.3804 29.8026 18.6528
351 1 11.2197 31.4339 18.8973
341 1 11.8392 30.58 19.2897
352 1 12.0369 31.202 18.3817
202 1 37.7177 32.772 20.8693
201 1 38.0748 32.5396 19.9713
290 1 48.229 38.4194 20.3333
293 1 49.0529 38.6005 19.5978
292 1 48.7761 39.3771 20.1529
85 1 46.5367 49.5155 18.6302
84 1 47.0126 49.9481 19.3885
88 1 47.8308 49.254 19.291
93 1 49.375 50.1966 18.5711
95 1 48.7083 50.9484 19.1154
96 1 49.2084 50.3202 19.6985
100 1 48.2284 50.6767 18.1326
99 1 47.6435 50.7141 18.938
17 1 21.3603 5.80359 21.445
18 1 21.5798 4.93094 21.0163
19 1 22.375 5.33348 21.4685
20 1 22.3827 6.32508 21.5666
14 1 22.0889 6.99505 20.7437
15 1 21.1829 6.58581 20.6624
346 1 10.2627 29.8096 19.7644
347 1 10.679 30.6208 19.3612
348 1 11.2013 30.281 20.1362
349 1 11.3198 31.2642 19.9954
350 1 12.0367 31.6564 19.4206
61 1 12.9074 34.1519 21.48
203 1 38.6519 32.4104 20.9498
204 1 38.4608 33.1623 21.5638
365 1 45.7009 33.4785 21.9268
368 1 44.7807 33.5511 21.2954
366 1 45.7866 33.3284 20.9498
367 1 45.4231 34.2625 21.0551
65 1 12.2148 35.0159 21.4399
205 1 37.849 33.8433 21.2017
207 1 37.6579 33.599 20.1255
208 1 38.5676 33.3895 20.4557
210 1 38.9386 34.1013 21.203
209 1 39.405 33.2501 20.9569
70 1 10.3776 34.7424 21.7915
67 1 11.2507 34.5562 21.1516
206 1 38.1593 34.4084 20.4442
372 1 43.7208 35.0989 21.4475
69 1 10.3755 35.2168 20.9164
68 1 11.3076 35.5441 21.0577
286 1 48.7667 36.8584 19.5816
287 1 49.2071 37.6242 19.1011
288 1 48.2748 37.8288 19.4072
289 1 48.0216 37.4357 20.2821
291 1 49.1231 38.642 20.7319
83 1 46.8134 48.9809 19.5576
81 1 47.5068 49.491 20.3035
82 1 46.5127 49.5762 20.2995
97 1 48.6026 49.5843 19.9702
98 1 47.9863 50.3512 19.8023
8 1 20.5888 7.11099 22.3036
9 1 20.4432 7.11428 21.3153
10 1 21.2722 7.6253 21.0969
11 1 21.443 6.85123 21.6943
12 1 21.5402 7.70761 22.185
6 1 19.5731 7.78894 21.5576
13 1 22.3079 7.4952 21.5757
5 1 19.8884 7.92899 22.4925
4 1 20.5925 8.09559 21.8023
3 1 20.586 8.79634 22.499
1 1 19.5186 8.92021 22.8238
2 1 19.8028 8.85469 21.8702
406 1 46.6115 18.8476 23.6159
407 1 45.8409 18.5983 23.0399
408 1 46.6545 18.8094 22.5048
62 1 12.689 33.6042 22.2861
63 1 11.8744 34.0128 21.8799
361 1 44.3508 32.1653 22.2795
362 1 44.0101 32.9059 21.7035
363 1 44.681 33.2279 22.3609
364 1 45.1873 32.6473 21.7208
64 1 12.4357 34.6895 22.3549
211 1 38.9272 33.9297 22.1845
212 1 39.833 33.8228 21.791
215 1 40.5129 32.9985 22.0136
369 1 44.9198 34.2276 22.0201
370 1 43.9636 34.0396 21.8467
66 1 11.4154 35.006 22.0351
371 1 44.2485 34.4142 20.9635
373 1 44.2472 35.0343 22.2808
283 1 48.9093 36.8769 20.696
284 1 49.0659 37.7124 20.1851
72 1 9.63053 35.5494 21.6946
73 1 9.78139 36.3088 22.3198
71 1 10.5978 35.7191 21.8799
428 1 17.2352 36.8678 22.6687
374 1 44.8423 35.1554 21.4749
375 1 44.3638 35.9897 21.733
285 1 49.6992 37.0096 19.9192
421 1 17.8872 37.7802 22.8935
376 1 45.0967 35.733 22.3682
377 1 45.1688 36.685 22.0881
378 1 45.3958 36.0882 21.3207
379 1 46.0881 36.7926 21.4621
380 1 46.1259 36.081 22.162
393 1 26.9081 39.5637 23.2589
394 1 27.1902 40.3908 22.7798
395 1 27.0032 41.3247 23.0861
397 1 27.7989 40.0429 23.6657
7 1 19.6403 6.93135 22.0613
57 1 27.4911 14.2427 24.3737
56 1 28.3265 13.7859 24.078
58 1 27.9927 14.8181 23.7295
59 1 28.4618 14.7462 24.5963
60 1 28.5665 15.6627 24.2261
46 1 29.833 15.9621 24.4055
401 1 45.1208 17.5954 24.3653
402 1 45.9461 17.9926 23.9722
403 1 45.1786 18.6267 23.9469
404 1 45.3533 18.5293 24.9254
405 1 46.1199 18.9456 24.4523
409 1 46.4011 19.6774 22.9258
410 1 45.6795 19.5274 23.5804
214 1 39.9898 32.4889 22.695
279 1 32.4903 36.1463 26.4629
213 1 39.4206 32.9279 22.0012
218 1 40.5114 33.9808 23.4982
219 1 40.0719 33.0919 23.6627
220 1 39.7401 33.5446 22.8467
216 1 40.8841 33.114 22.9225
217 1 40.6782 33.9963 22.5086
281 1 48.5606 37.8026 21.1917
282 1 49.5228 37.54 21.1379
426 1 16.8655 35.6672 24.2173
74 1 9.04418 35.7216 22.6323
75 1 8.59713 35.9456 23.4943
80 1 10.0446 35.256 22.7044
427 1 17.0607 36.2411 23.4315
423 1 18.3141 36.8604 24.2858
424 1 17.9414 35.9649 24.0591
429 1 18.0299 36.7443 23.2537
431 1 17.226 36.6851 24.4622
383 1 26.9164 37.6103 24.1617
78 1 10.1308 36.1473 23.3482
422 1 18.2927 37.7267 23.8087
430 1 17.3059 37.2806 23.6888
382 1 26.1216 38.2195 24.267
381 1 26.7457 38.5219 23.5592
390 1 26.0078 39.2595 23.8272
392 1 26.1385 40.1918 23.2155
391 1 26.0149 40.1665 24.2141
398 1 26.9517 40.5431 23.8311
396 1 27.8787 41.0063 23.4504
54 1 27.7142 14.5607 25.4039
55 1 28.2603 13.7904 25.0765
49 1 29.0417 15.7289 25.8964
47 1 29.3209 15.2993 24.9384
48 1 29.0052 16.2482 25.0502
45 1 30.0403 15.9798 25.3905
44 1 29.8952 16.8974 25.0326
420 1 45.056 20.3642 25.2528
411 1 46.4637 19.9013 24.0513
412 1 45.6277 20.4113 24.2579
413 1 45.2296 19.554 24.5636
280 1 32.3849 35.931 25.4853
425 1 17.6255 35.3203 24.7554
277 1 32.9263 36.829 25.7552
278 1 31.9744 36.8599 25.9751
76 1 9.17701 36.6872 23.1694
77 1 9.46804 36.3581 24.064
79 1 9.54405 35.3711 23.5562
434 1 17.9974 36.2702 25.1359
385 1 27.9141 38.0478 24.5265
384 1 27.6615 37.9308 23.5758
273 1 33.4558 35.8787 25.7549
432 1 17.5926 37.5764 24.7101
433 1 18.2628 37.2033 25.3408
386 1 27.0878 38.5752 24.6468
387 1 27.6514 38.9914 23.942
388 1 26.9875 39.6117 24.3499
271 1 33.5063 37.3857 25.0367
272 1 33.3787 36.3905 24.8907
389 1 26.196 39.2119 24.7981
399 1 27.6015 40.6576 24.5568
400 1 27.2485 41.5277 24.1964
53 1 28.1519 14.0513 26.1446
50 1 28.2434 15.5349 25.3169
51 1 28.165 15.1534 26.2325
52 1 28.7975 14.6346 25.6534
43 1 29.4652 16.7582 25.9277
41 1 29.6917 17.8126 25.637
42 1 28.888 17.3065 25.3263
419 1 45.1821 19.4456 25.6565
418 1 45.7068 20.1725 26.1032
414 1 46.0399 19.8267 25.0924
415 1 46.1669 18.9423 25.5351
436 1 17.5633 35.567 25.8672
275 1 33.5644 36.5719 26.6157
437 1 16.9201 36.0133 25.2634
439 1 16.9095 36.373 26.3088
440 1 16.1469 36.655 25.7242
435 1 18.0026 36.4281 26.1143
438 1 17.2027 36.9309 25.5356
274 1 34.0275 36.6998 25.7458
276 1 32.8046 37.1918 26.6544
268 1 33.1432 38.6948 25.6811
269 1 32.6423 37.8411 25.6128
270 1 33.5538 37.6834 25.9955
265 1 32.8486 38.2524 26.6391
267 1 32.1793 38.8044 25.938
264 1 31.9413 37.856 26.435
266 1 32.7611 39.2374 26.6168
416 1 46.67 19.652 26.0089
417 1 45.8889 19.2974 26.5323
262 1 32.2746 37.7633 27.4645
263 1 31.9176 38.6194 27.0672
176 1 9.34643 46.6916 30.4098
177 1 8.75631 46.4737 31.1812
178 1 8.53292 47.168 31.8499
180 1 8.05121 47.3094 30.8899
174 1 8.7355 47.5626 30.0942
462 1 33.6767 12.937 30.2636
463 1 32.7488 12.9735 29.9018
221 1 17.6328 26.1477 31.5144
222 1 17.4331 25.2242 31.8436
223 1 18.0694 25.2449 31.0599
340 1 31.616 28.2011 29.9791
331 1 29.4712 28.6917 30.2874
261 1 31.8411 36.9401 27.0791
119 1 19.1582 45.713 30.2438
120 1 19.5966 46.6026 30.3561
118 1 18.484 46.444 30.3363
173 1 9.67979 47.8437 30.0922
162 1 11.1057 47.8593 31.0783
161 1 10.881 47.045 31.6222
179 1 8.41175 48.0796 31.4189
175 1 9.18006 47.4717 30.9862
172 1 9.10588 48.4801 30.6061
480 1 30.9091 11.8325 31.3226
464 1 32.1348 12.7694 30.6436
465 1 32.9767 12.3018 30.8531
468 1 32.1021 13.6865 31.311
469 1 32.1561 13.841 30.3285
470 1 31.295 13.4455 30.6141
461 1 33.0518 13.4091 30.8781
472 1 30.9086 14.2898 30.0405
473 1 30.342 13.9206 30.7808
474 1 30.4429 14.5567 31.5362
471 1 31.3617 14.3955 30.9165
225 1 18.2872 24.517 31.8346
226 1 19.2245 24.7695 31.6238
224 1 18.4803 25.5106 31.9271
322 1 27.5412 28.2336 31.2129
321 1 28.339 27.8147 31.6368
328 1 28.5034 28.5602 30.81
329 1 29.3177 28.2783 31.3094
338 1 30.5223 28.4782 29.9904
339 1 30.9809 27.9679 30.7104
327 1 28.5164 28.89 31.7545
330 1 29.3093 29.2624 31.0948
332 1 30.1168 29.4465 30.3579
333 1 30.2778 28.7442 31.0532
336 1 30.8182 29.7008 31.1771
335 1 31.7724 29.4377 31.3181
337 1 31.1575 29.0756 30.4731
165 1 10.0918 47.824 31.4438
163 1 10.7774 47.7968 30.1457
164 1 10.2641 47.1785 30.7313
116 1 19.4306 46.0133 31.2768
117 1 18.4637 45.8176 31.1025
169 1 10.666 48.7661 31.5722
170 1 10.2217 48.5842 30.7023
101 1 17.9868 46.8145 31.2907
171 1 9.55787 48.7664 31.4364
478 1 30.5203 12.8731 31.1484
479 1 31.1039 12.3727 30.5075
477 1 31.4529 12.7755 31.4928
475 1 30.0939 13.6614 31.8273
476 1 31.0754 13.6667 31.6903
467 1 32.0198 13.3491 32.2383
466 1 32.5667 12.7445 31.654
227 1 19.0186 24.8123 32.6061
228 1 18.0467 24.9659 32.7944
229 1 18.6146 25.7644 33.0039
323 1 27.5865 28.4931 32.169
324 1 26.9568 29.0711 31.6543
325 1 27.7472 29.3204 31.0991
326 1 27.8654 29.5757 32.0564
334 1 31.1478 28.6908 31.5302
241 1 9.71606 46.7973 31.6331
242 1 10.1391 47.2907 32.3646
115 1 19.0398 45.3631 31.9366
166 1 9.30307 47.885 32.0266
167 1 10.0497 48.3899 32.4169
104 1 17.9884 46.885 32.4115
105 1 18.7151 46.4004 31.9698
114 1 19.6401 46.018 32.3854
113 1 19.6714 46.9078 31.9421
168 1 10.9352 48.0139 32.1589
102 1 18.9442 47.0381 31.1299
103 1 18.6839 47.4808 31.9872
239 1 16.8759 26.1544 33.2987
231 1 17.928 26.5473 33.3901
230 1 17.7392 26.0064 32.5896
243 1 9.25305 46.9846 32.6617
244 1 9.69794 46.103 32.4925
106 1 17.9939 45.7719 32.1398
107 1 18.6547 45.8439 32.8973
108 1 19.4146 46.2226 33.4449
109 1 18.9882 46.8917 32.8699
112 1 20.1028 46.9098 32.838
110 1 19.4532 47.3936 33.5807
111 1 19.5989 47.7582 32.6526
260 1 12.4312 49.0327 34.4688
240 1 16.9773 25.2678 32.8523
235 1 17.341 25.4837 34.6601
232 1 17.7354 25.5907 33.6292
236 1 16.8176 25.0781 33.9183
237 1 16.36 25.8916 34.2525
238 1 16.0367 25.623 33.3454
234 1 17.3328 26.4049 34.2932
233 1 18.2687 26.0466 34.3219
246 1 10.7426 46.4137 32.5387
245 1 10.3795 45.7069 33.1378
247 1 10.1175 46.735 33.2682
251 1 11.1766 46.5355 33.5521
252 1 10.9993 47.3558 33.0319
253 1 11.4047 47.8657 33.773
254 1 10.8328 48.4234 33.1764
255 1 10.4399 48.3916 34.0846
256 1 10.7877 49.2952 33.8592
257 1 11.6888 48.928 33.6458
258 1 11.3927 48.6457 34.559
259 1 11.621 49.6166 34.5265
248 1 9.98651 47.7138 33.3422
249 1 10.53 47.2947 34.0815
250 1 10.4615 46.2957 34.1965
484 1 21.706 41.8153 39.2075
486 1 22.6848 41.2844 38.9656
485 1 22.4781 42.2241 38.7063
488 1 23.2126 41.206 39.9989
481 1 22.0046 42.8423 39.5414
482 1 22.5929 42.087 39.7643
483 1 22.1256 41.2198 39.8894
487 1 23.4858 41.8024 39.2273
149 1 44.8249 16.296 41.773
150 1 45.7711 15.948 41.6741
151 1 45.211 15.4554 42.3311
489 1 23.5649 42.0845 40.2875
490 1 23.3612 42.8187 40.9072
492 1 22.3043 42.8 40.611
493 1 21.6449 42.1044 40.3381
491 1 23.0454 43.0375 39.9853
147 1 44.134 15.4222 42.0784
148 1 44.4189 16.1538 42.6812
152 1 45.5094 16.3533 42.6486
153 1 45.1648 15.8657 43.4231
154 1 45.6548 15.0246 43.2597
155 1 46.2464 15.3974 42.549
156 1 46.2611 15.9743 43.3548
159 1 46.5547 16.4316 42.3456
139 1 25.8973 38.1306 43.1546
500 1 22.4908 41.3235 41.7795
498 1 21.8589 41.1303 40.9215
499 1 22.7927 40.7601 40.998
497 1 22.6079 41.7734 40.761
496 1 23.3954 41.7757 41.3413
494 1 21.7589 42.1447 41.3363
495 1 22.6693 42.409 41.6419
143 1 44.5465 15.0256 43.036
40 1 34.6151 15.7851 44.9109
145 1 44.094 15.7755 43.6929
146 1 43.5589 15.4877 42.8975
160 1 47.2262 15.7172 42.169
39 1 33.7681 16.1199 44.5031
157 1 47.0854 15.4252 43.2507
158 1 47.246 16.3912 43.0606
140 1 26.0354 37.2975 43.6855
137 1 26.7347 37.897 44.3105
138 1 25.84 38.3035 44.1316
136 1 26.9682 37.814 43.3495
134 1 27.4299 38.7934 44.2441
135 1 26.7029 38.7386 43.5731
122 1 25.8953 39.4011 43.9218
133 1 26.5583 38.9044 44.6987
121 1 26.8377 39.7253 43.9962
142 1 44.879 14.2531 43.554
141 1 44.8888 15.0749 44.1133
37 1 34.2852 16.123 45.9203
38 1 33.6015 15.659 45.3704
144 1 43.8809 14.7983 43.7314
35 1 33.3028 16.718 45.3181
36 1 34.2841 16.8113 45.2065
21 1 32.7952 18.9473 45.6981
22 1 31.8156 19.1352 45.794
132 1 27.1948 39.5952 45.0377
123 1 25.2251 40.0399 44.3075
124 1 26.0815 40.5093 44.1151
125 1 26.1405 39.8762 44.8797
131 1 27.0335 40.5263 44.715
126 1 25.6716 40.6972 45.148
127 1 26.3179 41.3544 44.7855
33 1 33.2459 16.1811 46.2877
32 1 33.0321 16.85 46.9903
28 1 31.6455 17.3011 46.5278
31 1 32.6287 17.0875 46.1024
34 1 33.7302 17.0507 46.154
25 1 31.2689 18.3203 46.343
23 1 32.2204 18.7938 46.6391
24 1 32.1462 18.0824 45.9314
130 1 26.6727 40.4377 45.6341
129 1 26.2564 41.3036 45.8905
128 1 27.1113 41.4226 45.3832
29 1 31.9743 16.8721 47.3577
30 1 32.1665 16.3234 46.5421
27 1 32.4416 17.7679 46.9371
26 1 31.575 18.1078 47.2701
443 1 31.8266 29.0822 49.6272
441 1 31.9291 28.9188 48.5328
446 1 30.9367 29.1808 48.9535
445 1 30.8082 30.1673 49.0061
442 1 31.8633 29.8199 48.9594
448 1 30.8082 28.7572 49.965
447 1 30.1885 29.4262 49.5686
444 1 31.191 29.8126 49.8556
454 1 32.5905 28.0149 50.9263
450 1 31.7142 28.2138 50.2948
451 1 30.9057 28.1124 50.8672
452 1 31.6768 28.3603 51.4456
453 1 31.7839 27.4387 51.0791
449 1 31.4293 29.0952 50.6664
455 1 32.492 27.7491 51.8816
457 1 33.5158 27.6222 51.3767
456 1 32.7643 26.9715 51.3206
458 1 33.3613 27.1683 52.2528
459 1 33.4052 28.1654 52.3412
460 1 34.3021 27.7664 52.1553
ITEM: TIMESTEP
508
ITEM: NUMBER OF ATOMS
500
ITEM: BOX BOUNDS pp pp pp
0.0000000000000000e+00 6.0000000000000000e+01
0.0000000000000000e+00 6.0000000000000000e+01
0.0000000000000000e+00 6.0000000000000000e+01
ITEM: ATOMS id type x y z
183 1 35.7829 27.5056 14.5901
303 1 11.2342 42.5155 13.3247
302 1 12.197 42.2619 13.2259
301 1 12.0239 43.1994 12.9385
184 1 36.6937 27.3039 14.9398
185 1 36.7169 27.7582 14.0541
186 1 36.432 26.795 14.0158
181 1 35.9727 27.7159 15.6541
182 1 36.2851 28.3124 14.919
318 1 11.4478 40.9162 14.1351
317 1 12.3719 41.1705 13.851
316 1 12.1832 41.4093 14.8168
304 1 11.174 43.4727 13.605
305 1 11.9204 43.0033 14.0317
309 1 11.5642 44.0497 14.4575
306 1 12.8408 43.1189 13.6933
192 1 36.293 25.7532 15.6086
190 1 36.9396 26.2441 14.8511
191 1 35.9894 26.4998 15.0284
189 1 37.6579 26.8506 15.2019
187 1 37.4174 26.9229 14.1273
188 1 37.6582 27.7134 14.6928
360 1 11.4941 32.6732 16.7956
319 1 11.4368 41.4214 13.2714
320 1 10.7069 41.7156 13.8965
315 1 11.7287 41.9773 14.1608
299 1 49.2222 38.7501 17.6999
313 1 12.2476 42.5386 14.9787
314 1 12.7052 42.1653 14.1929
311 1 10.9309 42.6931 14.3907
312 1 11.3357 42.154 15.136
310 1 11.4436 43.2589 15.0214
308 1 12.4718 43.6665 14.6482
307 1 12.3235 43.9649 13.6918
193 1 37.0402 26.3225 15.9405
194 1 36.9866 27.3173 15.9712
355 1 11.0554 31.2118 17.8351
356 1 10.8361 32.1366 18.135
357 1 10.6954 32.0016 17.157
358 1 10.5801 32.9561 17.4065
359 1 11.5099 32.9351 17.7542
297 1 48.6268 38.3751 18.5419
296 1 48.388 39.2848 18.2475
298 1 49.5625 38.6727 18.6373
300 1 49.4437 39.6416 18.082
198 1 36.0431 26.7305 16.1032
199 1 36.2911 25.9655 16.6919
200 1 36.4255 26.2403 17.6411
195 1 36.8588 26.9041 16.8659
197 1 35.7358 26.8722 17.036
196 1 36.2411 27.6676 16.7204
353 1 11.9016 32.1845 18.4561
354 1 11.7401 31.8639 17.5288
295 1 48.9229 39.5155 19.0449
294 1 48.1538 38.949 19.3389
89 1 48.4083 48.9516 18.5599
86 1 47.2333 48.8078 18.5061
87 1 47.5972 49.7293 18.4343
90 1 48.6001 49.6686 17.9015
91 1 49.4215 49.1675 18.152
92 1 49.3215 49.3522 19.124
94 1 48.4966 50.0017 18.9346
16 1 21.9214 5.91635 20.6289
345 1 9.65231 30.2866 19.1321
342 1 11.3081 30.3697 18.4848
343 1 11.2126 29.6667 19.1891
344 1 10.3804 29.8026 18.6528
351 1 11.2197 31.4339 18.8973
341 1 11.8392 30.58 19.2897
352 1 12.0369 31.202 18.3817
202 1 37.7177 32.772 20.8693
201 1 38.0748 32.5396 19.9713
290 1 48.2304 38.4179 20.3304
293 1 49.0493 38.5974 19.5945
292 1 48.785 39.3767 20.151
85 1 46.5367 49.5155 18.6302
84 1 47.0126 49.9481 19.3885
88 1 47.8308 49.254 19.291
93 1 49.375 50.1966 18.5711
95 1 48.7083 50.9484 19.1154
96 1 49.2084 50.3202 19.6985
100 1 48.2284 50.6767 18.1326
99 1 47.6435 50.7141 18.938
17 1 21.3603 5.80359 21.445
18 1 21.5798 4.93094 21.0163
19 1 22.375 5.33348 21.4685
20 1 22.3827 6.32508 21.5666
14 1 22.0889 6.99505 20.7437
15 1 21.1829 6.58581 20.6624
346 1 10.2627 29.8096 19.7644
347 1 10.679 30.6208 19.3612
348 1 11.2013 30.281 20.1362
349 1 11.3198 31.2642 19.9954
350 1 12.0367 31.6564 19.4206
61 1 12.9058 34.1512 21.4814
203 1 38.6519 32.4104 20.9498
204 1 38.4608 33.1623 21.5638
365 1 45.7009 33.478 21.9253
368 1 44.7798 33.5501 21.2952
366 1 45.7851 33.3265 20.9485
367 1 45.4226 34.261 21.0537
65 1 12.2148 35.0163 21.4411
205 1 37.849 33.8433 21.2017
207 1 37.6579 33.599 20.1255
208 1 38.5676 33.3895 20.4557
210 1 38.9386 34.1013 21.203
209 1 39.405 33.2501 20.9569
70 1 10.3775 34.7433 21.7904
67 1 11.251 34.5569 21.1515
206 1 38.1593 34.4084 20.4442
372 1 43.7219 35.0995 21.447
69 1 10.3759 35.2175 20.9152
68 1 11.3081 35.5447 21.0571
286 1 48.7602 36.8547 19.5848
287 1 49.2016 37.6175 19.098
288 1 48.2715 37.8263 19.4048
289 1 48.0246 37.4337 20.281
291 1 49.124 38.6381 20.7298
83 1 46.8134 48.9809 19.5576
81 1 47.5068 49.491 20.3035
82 1 46.5127 49.5762 20.2995
97 1 48.6026 49.5843 19.9702
98 1 47.9863 50.3512 19.8023
8 1 20.5888 7.11099 22.3036
9 1 20.4432 7.11428 21.3153
10 1 21.2722 7.6253 21.0969
11 1 21.443 6.85123 21.6943
12 1 21.5402 7.70761 22.185
6 1 19.5731 7.78894 21.5576
13 1 22.3079 7.4952 21.5757
5 1 19.8884 7.92898 22.4925
4 1 20.5925 8.09559 21.8023
3 1 20.586 8.79634 22.499
1 1 19.5186 8.92021 22.8238
2 1 19.8028 8.85469 21.8702
406 1 46.6115 18.8476 23.6159
407 1 45.8409 18.5983 23.0399
408 1 46.6545 18.8094 22.5048
62 1 12.6865 33.6037 22.2874
63 1 11.8724 34.0131 21.8808
361 1 44.3509 32.1654 22.2808
362 1 44.0094 32.9059 21.7052
363 1 44.6816 33.228 22.3612
364 1 45.1869 32.6467 21.7209
64 1 12.4341 34.6893 22.3562
211 1 38.9272 33.9297 22.1845
212 1 39.833 33.8228 21.791
215 1 40.5129 32.9985 22.0136
369 1 44.9199 34.2272 22.0191
370 1 43.9635 34.0399 21.8466
66 1 11.4146 35.0071 22.035
371 1 44.2495 34.4144 20.9637
373 1 44.2486 35.0349 22.2802
283 1 48.9165 36.8796 20.7009
284 1 49.0688 37.7103 20.1817
72 1 9.63018 35.5493 21.6939
73 1 9.78031 36.3087 22.3192
71 1 10.5974 35.7203 21.8783
428 1 17.2352 36.8678 22.6687
374 1 44.844 35.1557 21.4745
375 1 44.3652 35.99 21.7315
285 1 49.6963 37.0022 19.9118
421 1 17.8872 37.7802 22.8935
376 1 45.0975 35.7343 22.3677
377 1 45.1691 36.6861 22.0869
378 1 45.3979 36.0884 21.3207
379 1 46.0891 36.7938 21.4621
380 1 46.1267 36.0836 22.1633
393 1 26.9081 39.5637 23.2588
394 1 27.1902 40.3908 22.7798
395 1 27.0031 41.3247 23.0861
397 1 27.7989 40.0428 23.6657
7 1 19.6403 6.93135 22.0613
57 1 27.4911 14.2427 24.3737
56 1 28.3265 13.7859 24.078
58 1 27.9927 14.8181 23.7295
59 1 28.4618 14.7462 24.5963
60 1 28.5665 15.6627 24.2261
46 1 29.833 15.9621 24.4055
401 1 45.1208 17.5954 24.3653
402 1 45.9461 17.9926 23.9722
403 1 45.1786 18.6267 23.9469
404 1 45.3533 18.5293 24.9254
405 1 46.1199 18.9456 24.4523
409 1 46.4011 19.6774 22.9258
410 1 45.6795 19.5274 23.5804
214 1 39.9898 32.4889 22.695
279 1 32.4894 36.1468 26.4629
213 1 39.4206 32.9279 22.0012
218 1 40.5114 33.9808 23.4982
219 1 40.0719 33.0919 23.6627
220 1 39.7401 33.5446 22.8467
216 1 40.8841 33.114 22.9225
217 1 40.6782 33.9963 22.5086
281 1 48.5541 37.8037 21.1902
282 1 49.5194 37.5538 21.1413
426 1 16.8655 35.6672 24.2173
74 1 9.04527 35.7194 22.6329
75 1 8.59879 35.9424 23.4954
80 1 10.0469 35.2568 22.7039
427 1 17.0607 36.2411 23.4315
423 1 18.3141 36.8604 24.2858
424 1 17.9414 35.9649 24.0591
429 1 18.0299 36.7443 23.2537
431 1 17.226 36.6851 24.4622
383 1 26.9165 37.6102 24.1617
78 1 10.1316 36.1488 23.3471
422 1 18.2927 37.7267 23.8087
430 1 17.3059 37.2806 23.6888
382 1 26.1216 38.2196 24.267
381 1 26.7457 38.5219 23.5593
390 1 26.0078 39.2595 23.8272
392 1 26.1384 40.1918 23.2155
391 1 26.0149 40.1665 24.2142
398 1 26.9517 40.5431 23.8311
396 1 27.8788 41.0063 23.4504
54 1 27.7142 14.5607 25.4039
55 1 28.2603 13.7904 25.0765
49 1 29.0417 15.7289 25.8964
47 1 29.3209 15.2993 24.9384
48 1 29.0052 16.2482 25.0502
45 1 30.0403 15.9798 25.3905
44 1 29.8952 16.8974 25.0326
420 1 45.056 20.3642 25.2528
411 1 46.4637 19.9013 24.0513
412 1 45.6277 20.4113 24.2579
413 1 45.2296 19.554 24.5636
280 1 32.3853 35.9307 25.4849
425 1 17.6255 35.3203 24.7554
277 1 32.9263 36.8283 25.7553
278 1 31.974 36.8598 25.9747
76 1 9.1758 36.6857 23.1692
77 1 9.46915 36.3582 24.0636
79 1 9.54749 35.371 23.5566
434 1 17.9974 36.2702 25.1359
385 1 27.9141 38.0478 24.5265
384 1 27.6615 37.9308 23.5758
273 1 33.4559 35.8788 25.7548
432 1 17.5926 37.5764 24.7101
433 1 18.2628 37.2033 25.3408
386 1 27.0878 38.5753 24.6468
387 1 27.6514 38.9914 23.942
388 1 26.9875 39.6117 24.3499
271 1 33.5065 37.3857 25.0369
272 1 33.3783 36.3905 24.8909
389 1 26.196 39.2119 24.7981
399 1 27.6015 40.6576 24.5568
400 1 27.2485 41.5276 24.1964
53 1 28.1519 14.0513 26.1446
50 1 28.2434 15.5349 25.3169
51 1 28.165 15.1534 26.2325
52 1 28.7975 14.6346 25.6534
43 1 29.4652 16.7582 25.9277
41 1 29.6917 17.8126 25.637
42 1 28.888 17.3065 25.3263
419 1 45.1821 19.4456 25.6565
418 1 45.7068 20.1725 26.1032
414 1 46.0399 19.8267 25.0924
415 1 46.1669 18.9423 25.5351
436 1 17.5633 35.567 25.8672
275 1 33.5644 36.5721 26.6156
437 1 16.9201 36.0133 25.2634
439 1 16.9095 36.373 26.3088
440 1 16.1469 36.655 25.7242
435 1 18.0026 36.4281 26.1143
438 1 17.2027 36.9309 25.5356
274 1 34.0277 36.7001 25.7458
276 1 32.8043 37.1919 26.6542
268 1 33.1432 38.6946 25.681
269 1 32.642 37.8412 25.613
270 1 33.5539 37.6834 25.9962
265 1 32.8486 38.2525 26.6387
267 1 32.1794 38.8046 25.9384
264 1 31.9411 37.8559 26.4349
266 1 32.7612 39.2373 26.6167
416 1 46.67 19.652 26.0089
417 1 45.8889 19.2974 26.5323
262 1 32.2751 37.7635 27.4643
263 1 31.9173 38.6194 27.067
176 1 9.35823 46.6975 30.4041
177 1 8.76264 46.4524 31.1646
178 1 8.54669 47.1426 31.8411
180 1 8.04835 47.2814 30.889
174 1 8.73412 47.5692 30.1052
462 1 33.6767 12.937 30.2636
463 1 32.7488 12.9735 29.9018
221 1 17.6328 26.1477 31.5144
222 1 17.4331 25.2242 31.8436
223 1 18.0694 25.2449 31.06
340 1 31.616 28.2011 29.9791
331 1 29.4712 28.6917 30.2874
261 1 31.8419 36.9399 27.0795
119 1 19.1582 45.713 30.2438
120 1 19.5966 46.6026 30.3561
118 1 18.484 46.444 30.3363
173 1 9.68459 47.8414 30.1121
162 1 11.1127 47.8684 31.0855
161 1 10.894 47.0557 31.6322
179 1 8.39365 48.0545 31.4222
175 1 9.17874 47.4621 30.9943
172 1 9.10756 48.4749 30.6287
480 1 30.9091 11.8325 31.3226
464 1 32.1348 12.7694 30.6436
465 1 32.9767 12.3018 30.8531
468 1 32.1021 13.6865 31.311
469 1 32.1561 13.841 30.3285
470 1 31.295 13.4455 30.6141
461 1 33.0518 13.4091 30.8781
472 1 30.9086 14.2898 30.0405
473 1 30.3419 13.9206 30.7808
474 1 30.4429 14.5567 31.5362
471 1 31.3617 14.3955 30.9165
225 1 18.2872 24.517 31.8346
226 1 19.2245 24.7695 31.6238
224 1 18.4803 25.5106 31.9271
322 1 27.5412 28.2336 31.2129
321 1 28.339 27.8147 31.6368
328 1 28.5034 28.5602 30.81
329 1 29.3177 28.2783 31.3094
338 1 30.5223 28.4782 29.9904
339 1 30.9809 27.9679 30.7104
327 1 28.5164 28.89 31.7545
330 1 29.3093 29.2624 31.0948
332 1 30.1168 29.4465 30.3579
333 1 30.2778 28.7442 31.0532
336 1 30.8182 29.7008 31.1771
335 1 31.7724 29.4377 31.3181
337 1 31.1575 29.0756 30.4731
165 1 10.0905 47.8312 31.4374
163 1 10.7814 47.7989 30.1571
164 1 10.2764 47.1719 30.7427
116 1 19.4305 46.0133 31.2768
117 1 18.4637 45.8176 31.1025
169 1 10.6719 48.7759 31.5731
170 1 10.2265 48.5976 30.7034
101 1 17.9868 46.8145 31.2907
171 1 9.56855 48.7825 31.4443
478 1 30.5203 12.8731 31.1484
479 1 31.1039 12.3727 30.5075
477 1 31.4529 12.7755 31.4928
475 1 30.0939 13.6614 31.8273
476 1 31.0754 13.6668 31.6903
467 1 32.0198 13.3491 32.2384
466 1 32.5667 12.7445 31.654
227 1 19.0186 24.8124 32.606
228 1 18.0468 24.966 32.7944
229 1 18.6146 25.7643 33.0038
323 1 27.5865 28.4931 32.169
324 1 26.9568 29.0711 31.6543
325 1 27.7472 29.3204 31.0991
326 1 27.8654 29.5757 32.0564
334 1 31.1478 28.6908 31.5302
241 1 9.71653 46.7897 31.636
242 1 10.1341 47.2987 32.3572
115 1 19.0398 45.3632 31.9366
166 1 9.29762 47.8895 32.0189
167 1 10.0451 48.396 32.4134
104 1 17.9884 46.885 32.4115
105 1 18.715 46.4004 31.9698
114 1 19.6401 46.018 32.3854
113 1 19.6714 46.9078 31.9421
168 1 10.9321 48.0248 32.1604
102 1 18.9442 47.0381 31.1299
103 1 18.6839 47.4808 31.9872
239 1 16.8759 26.1543 33.2987
231 1 17.9281 26.5473 33.3901
230 1 17.7393 26.0064 32.5897
243 1 9.24916 46.9868 32.6576
244 1 9.67627 46.0939 32.5036
106 1 17.9939 45.7719 32.1398
107 1 18.6547 45.8439 32.8973
108 1 19.4146 46.2226 33.4449
109 1 18.9882 46.8917 32.8699
112 1 20.1028 46.9098 32.838
110 1 19.4532 47.3936 33.5807
111 1 19.5989 47.7583 32.6526
260 1 12.4423 49.0235 34.4574
240 1 16.9774 25.2678 32.8523
235 1 17.341 25.4838 34.6601
232 1 17.7354 25.5907 33.6294
236 1 16.8176 25.0781 33.9182
237 1 16.36 25.8915 34.2526
238 1 16.0367 25.6229 33.3452
234 1 17.3328 26.405 34.2931
233 1 18.2686 26.0467 34.322
246 1 10.7209 46.4111 32.5316
245 1 10.3679 45.7133 33.1481
247 1 10.1067 46.7424 33.2629
251 1 11.1635 46.5341 33.5407
252 1 10.993 47.357 33.0219
253 1 11.4079 47.8661 33.7584
254 1 10.8308 48.4309 33.1746
255 1 10.4445 48.3945 34.0847
256 1 10.7935 49.2991 33.8681
257 1 11.6911 48.9323 33.6415
258 1 11.4031 48.6382 34.5531
259 1 11.6347 49.6089 34.5336
248 1 9.98562 47.7232 33.3351
249 1 10.5303 47.3002 34.0715
250 1 10.4489 46.3027 34.1897
484 1 21.706 41.8153 39.2075
486 1 22.6848 41.2844 38.9656
485 1 22.4781 42.2241 38.7063
488 1 23.2126 41.206 39.9989
481 1 22.0046 42.8423 39.5414
482 1 22.5929 42.087 39.7643
483 1 22.1256 41.2198 39.8894
487 1 23.4858 41.8024 39.2273
149 1 44.8249 16.2959 41.773
150 1 45.7711 15.9479 41.6741
151 1 45.211 15.4555 42.331
489 1 23.5649 42.0845 40.2875
490 1 23.3612 42.8187 40.9072
492 1 22.3043 42.8 40.611
493 1 21.6449 42.1044 40.3381
491 1 23.0454 43.0375 39.9853
147 1 44.134 15.4222 42.0784
148 1 44.4189 16.1538 42.6812
152 1 45.5094 16.3533 42.6485
153 1 45.1648 15.8657 43.4231
154 1 45.6548 15.0246 43.2597
155 1 46.2465 15.3974 42.549
156 1 46.2611 15.9743 43.3548
159 1 46.5548 16.4316 42.3456
139 1 25.8973 38.1306 43.1547
500 1 22.4909 41.3235 41.7795
498 1 21.8589 41.1303 40.9215
499 1 22.7927 40.7601 40.9979
497 1 22.6079 41.7733 40.761
496 1 23.3954 41.7757 41.3413
494 1 21.7589 42.1447 41.3363
495 1 22.6694 42.409 41.6419
143 1 44.5465 15.0255 43.036
40 1 34.6151 15.7851 44.9109
145 1 44.094 15.7755 43.6929
146 1 43.5589 15.4877 42.8975
160 1 47.2261 15.7173 42.169
39 1 33.7681 16.1199 44.5031
157 1 47.0854 15.4253 43.2507
158 1 47.246 16.3912 43.0606
140 1 26.0354 37.2975 43.6855
137 1 26.7347 37.897 44.3105
138 1 25.84 38.3035 44.1316
136 1 26.9682 37.814 43.3495
134 1 27.4299 38.7934 44.2441
135 1 26.7029 38.7386 43.5731
122 1 25.8953 39.4011 43.9218
133 1 26.5583 38.9044 44.6987
121 1 26.8377 39.7253 43.9962
142 1 44.879 14.2531 43.554
141 1 44.8888 15.0749 44.1133
37 1 34.2852 16.123 45.9203
38 1 33.6015 15.659 45.3704
144 1 43.8809 14.7983 43.7314
35 1 33.3028 16.718 45.3181
36 1 34.2841 16.8113 45.2065
21 1 32.7952 18.9473 45.6981
22 1 31.8156 19.1352 45.794
132 1 27.1948 39.5952 45.0377
123 1 25.2251 40.0399 44.3075
124 1 26.0815 40.5093 44.1151
125 1 26.1405 39.8762 44.8797
131 1 27.0335 40.5263 44.715
126 1 25.6716 40.6972 45.148
127 1 26.3179 41.3544 44.7855
33 1 33.2459 16.1811 46.2877
32 1 33.0321 16.85 46.9903
28 1 31.6455 17.3011 46.5278
31 1 32.6287 17.0875 46.1024
34 1 33.7302 17.0507 46.154
25 1 31.2689 18.3203 46.343
23 1 32.2204 18.7938 46.6391
24 1 32.1462 18.0824 45.9314
130 1 26.6727 40.4377 45.6341
129 1 26.2564 41.3036 45.8905
128 1 27.1113 41.4226 45.3832
29 1 31.9743 16.8721 47.3577
30 1 32.1665 16.3234 46.5421
27 1 32.4416 17.7679 46.9371
26 1 31.575 18.1078 47.2701
443 1 31.8265 29.0822 49.6271
441 1 31.9289 28.9188 48.5327
446 1 30.9366 29.1808 48.9535
445 1 30.8081 30.1673 49.0061
442 1 31.8632 29.8199 48.9592
448 1 30.8082 28.7573 49.965
447 1 30.1885 29.4262 49.5686
444 1 31.191 29.8126 49.8555
454 1 32.5906 28.0149 50.9263
450 1 31.7143 28.2139 50.2948
451 1 30.9058 28.1124 50.8672
452 1 31.6769 28.3604 51.4455
453 1 31.784 27.4388 51.079
449 1 31.4294 29.0952 50.6664
455 1 32.4921 27.7491 51.8816
457 1 33.5159 27.6223 51.3769
456 1 32.7644 26.9715 51.3205
458 1 33.3613 27.1681 52.2528
459 1 33.4052 28.1652 52.3416
460 1 34.3021 27.7661 52.1557
