ITEM: TIMESTEP
0
ITEM: NUMBER OF ATOMS
500
ITEM: BOX BOUNDS pp pp pp
0.0000000000000000e+00 6.0000000000000000e+01
0.0000000000000000e+00 6.0000000000000000e+01
0.0000000000000000e+00 6.0000000000000000e+01
ITEM: ATOMS id type x y z
308 1 3.5309 1.41771 2.57183
309 1 4.30215 0.798974 2.54118
425 1 4.52028 57.9105 2.4595
423 1 4.20265 59.4607 2.56088
421 1 2.96468 0.120041 3.45295
310 1 4.15031 0.466596 3.53481
307 1 3.35402 1.19337 3.58124
304 1 4.46041 1.39625 3.559
312 1 5.36736 0.0873986 4.10949
313 1 6.15419 0.739481 3.93845
301 1 2.7862 1.95634 4.05347
302 1 3.65625 2.17535 3.86486
303 1 4.41501 2.21963 3.23918
448 1 18.0525 2.43045 3.37946
447 1 17.3443 1.75678 3.66647
449 1 18.4479 1.83105 3.96781
450 1 19.2143 2.4164 3.94812
241 1 53.6475 2.65492 4.12642
451 1 18.3311 3.08354 4.26904
3 1 35.1943 9.66522 4.24578
1 1 35.6578 8.73016 3.98841
427 1 4.70024 57.9585 3.9378
424 1 4.44647 58.5436 3.10778
426 1 4.29785 57.4594 3.22296
428 1 5.58234 58.3051 3.38761
422 1 3.6307 59.3959 3.27728
429 1 5.63443 59.2271 3.44005
430 1 4.68805 59.1377 3.86412
311 1 4.91432 59.9924 3.23978
306 1 3.42499 0.69824 4.42742
305 1 4.2884 0.976887 4.46817
318 1 4.90736 0.145471 5.09198
315 1 5.36478 1.31521 4.88474
314 1 6.03181 0.454127 4.90796
460 1 17.9755 1.07297 4.57548
458 1 18.8077 1.31353 5.19347
288 1 36.7445 0.156024 5.50919
316 1 4.97893 1.72759 5.49733
446 1 17.2769 2.55194 4.29406
445 1 17.627 2.85441 5.12232
459 1 17.9454 1.8233 5.23401
452 1 18.6506 2.67046 5.25793
161 1 51.3298 2.71689 4.89306
246 1 52.6795 1.47492 4.89062
242 1 54.0556 2.6221 4.99622
245 1 52.9184 2.46846 4.79274
243 1 53.648 2.15108 5.65462
454 1 19.1561 4.13041 5.50573
453 1 19.3667 3.3283 4.91658
162 1 50.8594 3.6058 5.26192
244 1 53.2348 3.12277 5.50259
171 1 53.8518 3.83492 5.2584
163 1 51.1095 4.52153 5.32064
165 1 52.0298 5.6777 4.64728
164 1 51.893 4.68369 4.63548
168 1 52.6389 5.12368 5.5859
173 1 53.4263 5.54017 4.84936
172 1 54.1024 4.80335 5.14731
169 1 53.0555 4.56069 4.94835
15 1 35.0015 6.6325 5.43637
167 1 52.5851 6.18102 5.34725
166 1 52.7261 6.46776 4.45845
175 1 53.6937 6.30045 5.53221
174 1 54.3494 6.09003 4.82549
143 1 18.1716 8.49753 5.28543
144 1 18.9128 8.09945 5.43239
5 1 34.5838 7.88685 4.61208
6 1 35.43 7.68848 5.03747
141 1 19.0221 9.10232 5.67386
4 1 34.8974 8.94023 4.80095
2 1 36.1296 9.26361 4.52206
440 1 4.04656 59.9295 4.3544
439 1 3.32016 59.9056 5.13815
438 1 2.89772 59.1169 5.13897
437 1 3.9307 58.9512 4.991
431 1 5.38942 58.723 4.29678
433 1 5.0635 58.843 5.29994
432 1 5.85094 59.2823 4.78767
320 1 5.41519 0.791198 5.9298
317 1 4.3961 0.795577 5.80466
291 1 34.9312 0.114156 6.46513
287 1 36.6022 0.502065 6.46967
286 1 35.8924 0.927142 6.83312
443 1 18.1325 2.58269 6.36264
442 1 18.6543 2.10764 6.98529
457 1 19.2318 1.95135 5.82303
248 1 52.5066 2.1571 6.76544
247 1 52.6503 2.01236 5.78686
455 1 18.4196 3.49378 6.02973
444 1 17.4313 3.2332 6.08062
456 1 19.2911 3.00905 6.09214
249 1 52.8225 3.02834 6.55697
251 1 51.7006 3.13085 6.56027
250 1 52.1063 2.9818 5.7588
254 1 52.1364 4.24862 5.90844
180 1 54.0161 3.3805 6.10565
170 1 53.2217 4.20301 5.96421
179 1 54.8559 3.6703 6.61861
253 1 51.5321 4.28891 6.92934
255 1 52.6669 4.62864 6.65113
176 1 53.5362 5.52419 5.99246
259 1 54.006 5.12178 6.98383
258 1 53.077 5.62182 7.09251
178 1 54.4662 4.28976 6.04915
177 1 54.5102 5.23 5.95457
148 1 18.4518 7.00343 7.004
16 1 34.2236 7.13475 5.7787
14 1 34.8118 6.29225 6.25182
13 1 34.4269 6.71538 7.05731
20 1 36.1365 7.13522 6.70949
147 1 18.2988 7.73038 6.37207
145 1 19.6491 7.57141 5.95508
146 1 19.1883 8.09114 6.74323
160 1 20.1848 8.4584 6.57796
153 1 20.2668 7.2856 6.87027
12 1 34.2035 7.69381 6.96625
18 1 35.2027 7.42569 6.29217
17 1 34.5724 8.14783 5.82596
7 1 36.1529 7.76276 5.72299
8 1 35.904 8.27126 6.55123
142 1 18.1859 8.80268 6.21556
10 1 34.5419 8.9516 6.70024
9 1 35.4438 9.12694 6.48649
436 1 4.15903 59.6732 5.74539
319 1 5.50539 59.8205 5.73002
435 1 4.81604 59.179 6.36354
434 1 5.72078 58.6933 6.0968
290 1 35.5194 59.4046 6.87228
297 1 36.5565 59.4577 6.86628
289 1 35.8737 59.8102 5.99253
293 1 35.3901 0.213282 7.61756
294 1 36.319 0.247607 7.52792
284 1 36.214 1.32789 7.91755
285 1 36.758 1.34446 7.20931
281 1 38.1837 1.18468 8.31497
282 1 37.5061 0.819359 7.68864
441 1 17.6666 2.04054 7.32547
283 1 37.1737 1.44745 8.36323
252 1 51.6576 3.47449 7.52179
257 1 52.3142 5.457 7.54554
260 1 53.7336 5.04036 7.89088
256 1 52.9107 4.59463 7.60716
149 1 18.5571 7.74528 7.65456
155 1 19.9851 8.20991 7.52539
151 1 19.3837 7.97645 8.3516
152 1 19.5051 7.25579 7.60432
157 1 20.6971 8.36647 8.20912
154 1 20.9266 7.77485 7.33154
11 1 35.0318 8.21923 7.38097
19 1 35.3416 7.15662 7.27841
156 1 19.9894 9.01395 8.29562
159 1 19.7982 9.16305 7.19024
150 1 18.847 8.75128 7.89949
158 1 20.7151 9.09144 7.50128
292 1 34.6056 59.826 7.26152
300 1 35.1206 59.4909 8.40144
299 1 36.049 59.2637 8.01886
298 1 36.4284 58.6754 7.46195
295 1 36.9917 59.9589 8.32509
296 1 37.1914 59.5383 7.48381
273 1 34.8529 0.611202 18.3951
270 1 36.873 0.408671 18.4179
271 1 36.2224 0.815908 17.6867
266 1 38.0379 58.4814 17.4791
262 1 39.6148 58.2507 18.2446
261 1 38.8808 57.8139 17.7206
280 1 35.6506 59.4317 17.411
279 1 35.6421 59.1774 18.3257
274 1 34.6715 59.6535 18.1626
269 1 36.5198 59.6887 18.0055
268 1 36.9147 59.0544 17.418
265 1 38.4614 59.4361 17.394
267 1 37.5422 58.8251 18.2363
264 1 38.8015 59.1363 18.2576
272 1 35.7943 0.48099 18.6384
393 1 38.3927 1.27078 19.7057
394 1 37.9792 0.380865 19.1581
391 1 39.4994 1.15231 19.9507
398 1 36.9298 58.3295 19.2673
399 1 37.9705 58.013 19.2102
263 1 38.8757 58.2558 18.7212
276 1 35.3448 59.76 19.3652
275 1 34.9009 59.0019 19.0616
277 1 36.0156 59.2371 19.9632
278 1 35.9724 58.6951 19.1437
397 1 36.941 59.2073 19.0118
395 1 38.0327 59.3649 19.0067
396 1 37.6235 59.1421 19.7404
384 1 38.7667 58.788 19.9373
385 1 39.252 59.3146 19.4153
390 1 39.7055 1.41923 20.928
389 1 39.8771 0.443221 20.9383
392 1 38.8811 0.768642 20.5281
382 1 37.4312 57.7921 20.1665
383 1 38.3658 58.3561 20.7186
400 1 38.7112 57.7005 20.0161
381 1 36.879 58.6914 20.3368
386 1 39.0635 59.7769 20.2523
387 1 39.8015 59.2691 20.594
388 1 40.2546 59.9851 20.1742
75 1 19.5362 52.7936 25.4318
74 1 19.2023 53.399 24.6949
73 1 20.1213 53.3753 24.85
71 1 21.245 53.4306 25.67
78 1 18.3682 52.699 25.9928
76 1 19.2818 52.5003 26.4222
70 1 21.4112 52.6928 26.31
79 1 18.2273 53.2922 26.6994
77 1 18.9961 53.4631 25.8669
68 1 19.827 53.713 26.5659
69 1 20.4022 52.8984 26.4141
72 1 20.4355 53.7479 25.7239
65 1 20.8857 54.0988 27.0458
63 1 19.8266 54.8819 26.7448
62 1 18.9596 54.5146 26.898
64 1 20.5767 54.5389 26.2659
227 1 39.3794 9.87447 28.079
221 1 40.2422 10.8229 27.8883
222 1 41.2727 10.5666 27.8925
236 1 39.2527 11.7745 28.3585
80 1 17.7734 52.8536 27.4574
61 1 18.9453 53.7394 27.5266
67 1 20.0245 53.797 27.6223
66 1 20.9502 53.3974 27.8041
225 1 39.6185 8.95175 29.053
226 1 38.8762 9.39645 28.7549
224 1 40.4638 9.30852 28.6982
223 1 41.4743 9.87988 28.5964
234 1 38.4932 11.3113 29.7126
228 1 39.593 10.1059 28.9968
235 1 39.0621 11.1294 28.9892
229 1 40.1059 10.7856 29.3863
237 1 39.219 12.115 29.3256
233 1 39.4199 11.1429 30.2144
232 1 39.2289 10.1946 30.3771
230 1 40.8039 10.7268 30.1269
231 1 40.0153 10.4841 30.811
239 1 38.4691 12.6127 31.0987
238 1 38.9283 12.2526 30.3057
240 1 37.9573 12.4795 31.859
410 1 0.805307 52.8376 34.0525
419 1 2.23122 51.3751 34.8674
493 1 0.493752 52.4744 35.2736
420 1 1.45877 52.0546 34.9576
409 1 0.747537 53.8182 34.4439
411 1 1.57414 53.1262 34.6406
412 1 2.4179 53.3349 35.1616
490 1 1.615 54.0414 35.1022
413 1 2.85824 54.0962 35.6917
407 1 59.1578 53.2915 35.1468
408 1 59.8704 53.2576 34.489
406 1 59.2988 54.25 35.3131
340 1 3.01837 55.0423 35.2391
401 1 59.8411 54.8586 34.7591
361 1 0.681977 51.97 36.6204
418 1 2.33572 52.0836 35.7395
417 1 1.89968 51.858 36.4754
416 1 1.98739 52.8093 36.5936
500 1 57.7485 52.7718 36.2471
499 1 58.3027 52.8091 36.9385
494 1 59.6658 52.3047 35.781
498 1 58.7725 51.8093 36.9485
403 1 0.118685 53.841 35.7172
404 1 0.0779237 53.9847 36.6876
492 1 0.704335 53.0672 36.176
489 1 1.1701 54.1291 35.9712
414 1 2.4649 54.0196 36.653
415 1 2.85457 53.0507 36.4822
491 1 1.56652 53.0575 35.738
495 1 59.2311 53.0574 36.1526
405 1 59.2974 54.1501 36.2001
402 1 0.0630524 54.8673 35.8462
487 1 1.3457 55.3595 36.5951
486 1 2.13319 55.0225 37.0015
488 1 1.78895 54.9934 35.7224
339 1 3.37706 55.1819 36.1149
461 1 56.0922 55.1631 37.0721
467 1 57.9986 55.5149 36.9049
465 1 57.6389 54.3351 36.9067
337 1 2.72122 55.9118 36.3125
334 1 1.98457 56.1696 37.0615
338 1 3.51432 56.1115 35.7536
473 1 58.6563 56.3061 37.0852
362 1 0.655544 52.548 37.3845
326 1 0.412687 52.5776 38.3525
370 1 2.08694 52.6926 38.5284
496 1 59.3313 52.7001 37.1949
497 1 59.5191 51.895 37.7378
363 1 1.39953 53.1981 37.7213
328 1 0.261586 54.1687 37.946
366 1 1.21185 54.2074 38.4672
124 1 2.67447 53.1337 37.7999
364 1 2.00676 53.9149 37.7545
123 1 3.13099 53.7323 38.455
125 1 3.44142 53.4837 37.2018
126 1 4.26575 53.6898 37.6697
464 1 57.6903 54.1013 37.9574
327 1 59.6458 53.2424 37.9373
329 1 0.14889 54.9061 37.2811
183 1 0.403181 55.1104 38.4839
485 1 2.28024 55.2912 37.9999
122 1 3.13361 54.7025 38.2319
121 1 3.72327 54.7831 37.3906
131 1 3.98992 55.3535 38.2628
336 1 3.10605 55.5595 37.2843
127 1 4.28948 54.3362 38.4566
462 1 56.391 54.9962 38.1139
466 1 57.2832 55.0985 37.6611
468 1 58.4168 54.8739 37.4938
470 1 59.156 54.3712 38.1528
469 1 59.0531 54.2903 37.2959
471 1 59.4746 55.3061 37.8479
330 1 0.357243 55.8415 37.8765
333 1 1.12959 56.5963 37.5031
332 1 0.194028 57.0311 37.9286
484 1 1.60433 56.036 38.2637
335 1 2.71775 56.4566 37.6954
33 1 49.4574 57.0565 37.5795
203 1 56.9005 55.8166 38.4741
204 1 57.6445 55.9666 37.9772
472 1 58.8192 55.8029 37.9174
475 1 58.9822 57.0219 38.3744
331 1 59.6503 56.4393 37.7183
482 1 1.13854 57.1463 38.4559
40 1 49.7299 58.4956 38.217
34 1 49.7913 57.3102 38.5355
31 1 50.7735 57.8879 38.0455
32 1 50.0462 57.7889 37.301
30 1 51.5891 58.4727 37.9622
474 1 58.5311 57.1676 37.5062
201 1 57.71 57.2695 38.2267
24 1 49.0315 0.380213 39.0757
22 1 49.9363 0.0842872 39.9845
26 1 50.1998 0.482282 38.7557
83 1 3.68046 2.20113 38.6381
82 1 4.42486 1.81168 38.9814
81 1 5.13236 2.64533 38.9961
84 1 3.96432 3.04413 39.0177
85 1 3.48549 3.87497 39.0551
88 1 4.20351 4.17232 39.9432
341 1 4.8098 3.98656 38.7466
342 1 5.25226 3.50993 39.4146
86 1 4.02574 4.72554 38.5896
87 1 4.1405 5.04805 39.4421
89 1 5.14978 4.67862 39.8138
119 1 34.65 50.746 39.8755
118 1 35.3724 51.0555 39.3445
117 1 36.435 50.9608 39.5946
368 1 1.12569 52.6952 39.2817
369 1 2.04683 52.4752 39.3957
115 1 35.4153 52.1499 39.9913
116 1 36.187 51.9116 39.2916
110 1 37.2638 51.5378 39.638
111 1 37.1671 52.4941 39.8844
325 1 0.444021 53.3966 38.7536
324 1 0.223603 53.2505 39.693
365 1 2.2072 54.1514 38.6878
367 1 1.44165 53.6275 39.2638
372 1 2.92558 53.6254 39.5963
371 1 3.0471 52.9257 39.1152
128 1 5.36554 54.1249 38.6884
114 1 35.9907 52.8874 39.9479
112 1 37.1097 53.367 39.8998
323 1 59.9873 54.1592 39.3703
184 1 0.373593 55.4918 39.3506
182 1 1.29683 55.2463 38.705
181 1 1.42285 54.8978 39.6546
134 1 2.47605 55.1546 39.3135
135 1 2.37117 54.4483 39.9685
132 1 3.66125 55.4776 39.1291
373 1 3.37605 54.5423 39.3139
129 1 5.39532 55.0638 38.7329
374 1 4.2962 54.3624 39.6178
463 1 57.1166 54.6379 38.691
479 1 58.5367 54.8767 39.4311
205 1 58.0383 55.4635 38.6959
478 1 59.4147 55.0154 38.9827
480 1 58.7391 55.6807 39.9687
186 1 0.405077 56.5745 39.1197
185 1 1.23832 56.0253 39.4625
379 1 2.84711 57.1401 39.711
483 1 1.88789 56.7591 38.9212
133 1 2.90079 55.8474 38.6347
378 1 3.50962 56.4937 39.3393
130 1 4.67837 55.744 38.9194
202 1 57.0672 56.6976 38.6709
206 1 57.7488 56.074 39.3111
476 1 58.5934 56.5734 39.2887
477 1 59.2775 55.9022 39.044
187 1 0.469524 57.5011 39.6619
380 1 2.83335 57.5568 38.8365
481 1 1.8073 57.8016 38.6091
38 1 49.2694 57.7507 39.3298
35 1 50.2605 57.5217 39.3845
29 1 51.661 58.0002 38.8304
189 1 58.4665 57.7939 39.03
190 1 57.7228 57.8675 39.6889
188 1 59.508 57.3802 39.513
39 1 49.0611 58.6738 38.9939
25 1 49.6925 59.6271 39.0084
27 1 50.8901 59.811 39.0029
36 1 50.3136 58.572 39.5433
28 1 51.1851 58.8109 38.9128
97 1 3.9532 1.39773 40.4291
23 1 49.0039 0.647685 40.0673
95 1 2.77333 2.53802 40.9645
348 1 3.84315 2.31332 40.0541
98 1 3.82109 1.92016 41.4188
349 1 4.02448 2.78886 40.9454
96 1 3.14368 1.71869 40.6102
100 1 5.4902 1.73027 40.4699
99 1 4.80237 1.90847 41.2361
358 1 4.99242 2.84608 41.2451
94 1 3.00428 3.41507 40.9378
93 1 3.45497 3.45341 40.0365
350 1 4.00692 3.72287 41.0103
346 1 4.90949 3.59196 40.5325
347 1 4.36439 3.13749 40.0243
343 1 5.85649 3.12156 40.1412
344 1 6.08678 4.10802 40.1473
359 1 5.94763 3.16633 41.2408
91 1 3.68837 5.27658 40.378
92 1 3.24405 4.39397 40.0622
345 1 5.47957 4.41505 40.873
90 1 4.61427 4.97617 40.638
120 1 35.2107 51.2511 40.5907
108 1 36.308 50.9985 40.8576
109 1 37.1452 50.8618 40.4485
101 1 38.229 50.8623 40.9652
106 1 36.1225 52.2571 41.2797
107 1 36.3505 51.9037 40.421
102 1 38.0025 51.6673 40.4644
103 1 37.2384 51.8739 41.0579
113 1 36.6803 52.9081 40.7295
322 1 59.4162 54.2717 40.1007
321 1 58.8422 53.8444 40.6616
140 1 1.38975 55.0192 41.2619
220 1 0.37967 54.7913 40.2797
136 1 2.61132 55.355 40.4113
139 1 2.05413 55.5799 41.3657
375 1 4.13359 54.9573 40.4056
208 1 57.9311 55.2632 40.66
209 1 58.1733 54.5593 41.3078
219 1 59.9949 55.5799 40.5771
218 1 0.951141 55.8669 40.4354
217 1 1.42847 56.4532 41.0039
215 1 0.334343 56.3348 41.1276
138 1 2.38336 56.2944 40.7037
377 1 3.77457 56.8106 40.2645
376 1 4.24854 56.0214 40.1259
137 1 2.92889 56.2044 40.0902
196 1 58.1663 56.6771 41.1526
197 1 57.8476 56.6933 40.2628
207 1 57.217 55.8173 40.2065
195 1 58.8758 56.8804 41.4238
194 1 59.0854 56.0854 40.8783
193 1 59.593 56.399 40.0862
37 1 49.4575 58.34 40.1326
200 1 57.4747 58.3686 40.392
199 1 58.2347 57.9631 40.8871
198 1 57.4965 57.3126 40.6996
191 1 58.6581 57.3962 40.0937
192 1 59.4661 57.1495 40.6113
21 1 49.895 59.2893 40.6265
356 1 4.88905 2.7962 42.7352
360 1 6.65683 2.57939 41.6628
357 1 4.22615 2.97654 41.9653
355 1 5.3811 3.31765 42.1113
354 1 4.90464 4.10137 42.4996
351 1 3.79268 4.44361 41.6277
353 1 5.66042 4.74361 42.2208
352 1 4.71617 5.07522 41.8113
104 1 37.5271 51.3416 41.6939
105 1 36.5716 51.4953 41.9143
211 1 59.4451 54.7052 41.6161
210 1 58.6487 54.7586 42.1095
212 1 59.7625 55.164 42.4349
216 1 0.970022 56.2329 41.8334
214 1 59.8002 55.8013 41.6552
213 1 59.971 56.2631 42.4603
59 1 2.76738 31.2916 46.3678
60 1 2.73604 30.6218 46.9104
53 1 1.20471 32.263 46.9223
54 1 1.91316 31.6161 46.8789
52 1 1.9011 32.7953 46.2786
58 1 3.63823 31.5901 46.8755
56 1 2.08303 31.2103 48.0268
44 1 0.705461 32.8222 47.928
48 1 2.62114 32.5625 48.1548
57 1 2.79826 31.7246 47.5758
55 1 1.83535 32.1421 47.7076
43 1 0.973259 33.7862 47.6299
50 1 1.99752 33.975 47.804
51 1 2.09229 33.0414 47.1486
47 1 1.86156 33.0723 48.3376
49 1 2.93029 33.5063 47.929
42 1 0.918115 34.7041 47.5894
41 1 0.920649 35.7336 47.3915
45 1 0.71726 32.4237 48.8093
46 1 1.06491 33.2817 48.8488
ITEM: TIMESTEP
1000
ITEM: NUMBER OF ATOMS
500
ITEM: BOX BOUNDS pp pp pp
-7.3999357443924296e-01 6.0739993574439261e+01
-7.3999357443924296e-01 6.0739993574439261e+01
-7.3999357443924296e-01 6.0739993574439261e+01
ITEM: ATOMS id type x y z
308 1 0.14309 0.61684 3.26268
309 1 0.352524 0.923983 4.21837
425 1 2.27971 -0.576017 2.54564
423 1 1.8873 -0.640583 3.76141
421 1 2.62799 60.6403 4.49737
310 1 1.266 0.747218 3.8445
307 1 0.451108 -0.255462 3.76062
304 1 1.05809 0.0245813 5.58623
312 1 3.0213 0.745107 4.13889
313 1 3.01352 -0.00149907 3.37056
301 1 1.31863 1.3963 5.60729
302 1 1.1965 0.932322 6.37495
303 1 1.8013 0.0594325 6.30968
448 1 22.5348 2.02726 4.7051
447 1 21.7471 2.31848 5.29556
449 1 21.7879 2.23622 4.11283
450 1 21.8524 1.14528 4.15115
241 1 55.5218 1.62919 2.76404
451 1 20.9372 1.6096 4.49392
3 1 33.6107 6.49816 6.2381
1 1 33.7883 4.95077 6.00895
427 1 2.38567 59.6282 2.8315
424 1 1.83164 0.190968 3.10286
426 1 2.66836 60.3854 3.32943
428 1 2.90372 59.4489 3.71988
422 1 1.8547 59.8923 4.16779
429 1 3.56365 60.1946 4.11027
430 1 4.30679 60.7148 4.44285
311 1 2.07552 0.39073 4.42752
306 1 1.0349 -0.129192 4.60397
305 1 1.78309 -0.349699 5.1715
318 1 2.38207 1.74574 5.0845
315 1 3.15444 1.55403 3.61763
314 1 3.16863 0.855647 2.92603
460 1 22.2037 3.23247 3.84173
458 1 21.1218 3.68343 3.75408
288 1 35.7537 60.4865 8.13625
316 1 2.28693 1.50247 4.04288
446 1 21.0896 3.05648 4.9945
445 1 20.7441 2.79514 4.17948
459 1 21.8779 3.78902 3.12112
452 1 20.9135 0.886389 3.76819
161 1 53.5931 1.06177 2.23874
246 1 55.2926 1.78594 3.89908
242 1 54.9329 2.12895 2.08649
245 1 54.7275 1.01061 4.00435
243 1 54.4778 1.63225 3.05275
454 1 22.2374 2.20087 3.00676
453 1 21.2808 1.81829 3.17336
162 1 54.3174 1.11204 1.59334
244 1 53.8685 0.958655 3.53383
171 1 55.2171 3.45082 2.70154
163 1 54.1541 1.47695 0.703015
165 1 53.706 2.49905 2.20059
164 1 54.1983 2.22158 1.37691
168 1 53.5003 1.98459 3.08971
173 1 53.7391 3.3688 1.53102
172 1 54.4775 3.18306 2.09471
169 1 54.2915 2.70775 3.0672
15 1 30.2003 10.0567 6.98506
167 1 52.7199 1.77949 2.66746
166 1 53.2002 1.9144 1.67407
175 1 53.1452 3.43296 3.5165
174 1 53.5729 3.47732 2.56615
143 1 21.6274 8.73349 8.39674
144 1 21.5681 7.99848 7.8541
5 1 33.1612 8.18952 7.34865
6 1 32.7573 7.6865 8.09489
141 1 20.8302 9.03875 6.57285
4 1 33.4355 7.31963 6.74251
2 1 33.9716 5.73244 5.60449
440 1 2.04632 0.655839 5.42714
439 1 2.34756 1.02496 6.25436
438 1 2.40344 2.00921 6.34675
437 1 3.16362 1.55251 5.68154
431 1 3.5892 -0.0572105 4.42981
433 1 3.62586 0.845429 4.98287
432 1 2.97051 0.0893837 5.23629
320 1 3.7298 1.95689 4.58837
317 1 2.47344 2.45479 4.39893
291 1 36.407 0.424409 7.56677
287 1 36.2277 60.733 7.27166
286 1 36.0846 -0.0810867 6.70463
443 1 20.0208 2.72505 3.27227
442 1 20.2408 1.84094 3.70548
457 1 21.2107 2.84413 3.33083
248 1 54.3206 2.64165 4.31683
247 1 54.9099 1.98623 4.73714
455 1 21.9657 2.98236 2.49995
444 1 20.1253 3.42887 3.69048
456 1 20.988 2.9689 2.37984
249 1 54.0589 1.82034 4.20166
251 1 52.3489 0.903155 3.64302
250 1 53.0126 1.53009 3.95875
254 1 52.0532 1.94359 3.5715
180 1 53.3476 3.72507 4.57582
170 1 55.1275 2.53646 3.05166
179 1 54.1385 4.29573 4.75487
253 1 51.4404 1.67601 4.54919
255 1 52.6201 2.63256 3.28913
176 1 53.2882 4.44596 3.08934
259 1 53.2264 4.67322 4.27586
258 1 52.4748 4.09402 3.93387
178 1 54.5445 4.77088 4.15223
177 1 54.0366 3.99301 3.63603
148 1 21.5746 7.45976 6.09559
16 1 30.0398 8.9799 7.23855
14 1 30.8468 10.1306 7.89768
13 1 31.2027 9.68417 7.15304
20 1 30.6373 9.04142 8.1419
147 1 22.3829 7.58936 6.76569
145 1 21.1407 8.04949 6.95872
146 1 21.9101 8.45765 6.49489
160 1 19.8795 8.11831 7.47055
153 1 21.6174 7.02083 7.34172
12 1 31.7748 10.467 6.90994
18 1 31.542 8.58453 7.83611
17 1 30.7193 8.22547 7.49381
7 1 32.8961 8.48122 8.73533
8 1 32.827 8.99967 7.92936
142 1 21.3187 9.09536 7.54451
10 1 32.1295 9.13981 7.03451
9 1 32.6541 9.85865 7.67238
436 1 3.53744 1.34917 6.53824
319 1 3.17264 2.48139 5.11291
435 1 3.78099 0.459183 6.84415
434 1 3.58737 0.353177 5.9495
290 1 35.567 0.0558605 7.72388
297 1 37.6309 -0.31751 6.03876
289 1 34.9824 -0.694701 7.68226
293 1 37.3923 -0.381603 7.03334
294 1 37.12 0.461085 6.53486
284 1 34.7468 -0.0836367 6.93164
285 1 35.4911 0.605398 6.89515
281 1 35.5651 -0.246208 5.33478
282 1 35.3282 -0.71436 6.23575
441 1 20.1254 1.56309 2.81786
283 1 34.3515 -0.230275 6.12963
252 1 52.157 0.894775 4.54157
257 1 51.7287 3.5805 4.45973
260 1 53.5614 5.23221 3.69789
256 1 52.5626 2.90616 4.21191
149 1 20.975 6.81479 5.6636
155 1 20.5852 7.20532 6.58599
151 1 20.7731 6.13833 7.06241
152 1 21.4966 6.15051 7.70012
157 1 19.9518 7.28253 5.70723
154 1 20.7974 7.23519 7.63351
11 1 32.0866 9.79719 6.2194
19 1 31.5861 9.42902 8.40871
156 1 20.6473 7.9472 5.93741
159 1 19.6264 7.16557 7.13657
150 1 21.4086 6.29392 6.37106
158 1 19.4685 6.58633 6.27285
292 1 37.0956 -0.328754 7.86177
300 1 36.4788 0.401575 4.6414
299 1 37.1964 -0.0560936 5.0062
298 1 37.7581 0.563584 5.50307
295 1 36.5598 0.340725 5.71673
296 1 36.6148 -0.568952 5.9099
273 1 38.8521 57.8106 17.6256
270 1 39.1216 58.6743 18.3112
271 1 39.5394 57.8321 18.4912
266 1 39.7965 59.0747 20.2889
262 1 40.6884 59.4828 20.8675
261 1 40.4335 58.5671 21.0105
280 1 37.1643 59.1183 18.2323
279 1 36.7504 58.4889 19.0057
274 1 38.3551 58.5259 17.0638
269 1 39.3361 59.5863 17.8808
268 1 40.0409 59.1122 18.4373
265 1 39.7541 58.4775 19.4523
267 1 40.2566 59.4118 19.3977
264 1 40.6507 58.2751 19.4006
272 1 38.7278 57.7183 18.6456
393 1 39.2736 60.2441 20.1928
394 1 39.4242 60.4431 21.1207
391 1 39.661 -0.474595 19.3602
398 1 38.2728 59.7947 19.7824
399 1 38.3497 58.9275 20.1978
263 1 41.0403 58.9776 20.1041
276 1 38.8503 59.6721 18.7034
275 1 38.2667 59.1413 17.9337
277 1 38.2424 58.9961 19.0143
278 1 37.6362 58.244 18.7407
397 1 38.113 60.2141 20.7859
395 1 38.9317 59.5956 20.9681
396 1 38.5076 60.2753 21.6864
384 1 40.0928 59.2433 21.8207
385 1 39.835 59.4809 22.8624
390 1 39.4951 0.422033 19.5683
389 1 39.8408 -0.059791 20.423
392 1 38.7542 -0.395752 19.7598
382 1 38.4959 58.2654 21.2356
383 1 39.1903 58.7586 21.7965
400 1 37.8229 58.2308 19.7541
381 1 37.6985 58.6793 20.863
386 1 39.5666 60.1977 22.1592
387 1 40.4619 60.3578 21.6032
388 1 40.1334 -0.37203 21.2984
75 1 18.1362 52.4001 23.2954
74 1 19.0002 52.6453 23.2131
73 1 18.5576 53.2182 23.8796
71 1 19.3865 53.7291 23.5193
78 1 19.2852 53.2891 24.7583
76 1 18.3593 51.7117 23.9825
70 1 19.909 53.4182 22.6695
79 1 19.6385 53.8804 25.5102
77 1 19.0168 52.3692 24.4813
68 1 20.5746 54.2213 23.545
69 1 20.2799 54.2399 22.6402
72 1 18.7568 53.9435 24.2827
65 1 19.8663 55.2343 23.4461
63 1 18.8953 54.9334 23.6614
62 1 18.5659 55.1411 22.7972
64 1 19.6391 54.5025 24.2526
227 1 40.1177 8.56803 31.8145
221 1 40.4378 11.2423 29.3065
222 1 41.1235 11.5049 30.0337
236 1 41.5733 11.9135 31.1784
80 1 18.6762 53.7146 25.5161
61 1 19.3432 54.748 22.6302
67 1 21.3539 54.4787 23.1428
66 1 20.7966 55.4123 22.9712
225 1 41.0972 8.95393 30.8547
226 1 40.4482 8.14177 30.8734
224 1 41.1317 9.8275 30.4794
223 1 41.4891 10.6164 30.1885
234 1 40.792 11.0841 30.9887
228 1 39.4835 8.74897 30.9849
235 1 41.6435 10.8749 31.5719
229 1 39.1728 9.66179 31.1603
237 1 40.8867 12.3766 31.8213
233 1 40.5795 10.3514 31.5352
232 1 39.6459 10.7395 31.072
230 1 40.0844 9.63879 30.7183
231 1 40.1863 10.5103 30.3865
239 1 40.3181 12.0744 30.8288
238 1 39.8161 12.5086 31.7562
240 1 40.359 12.6121 29.9715
410 1 60.2992 54.7368 35.0053
419 1 -0.299014 51.8238 37.0194
493 1 60.6857 53.0817 35.8537
420 1 0.426187 51.199 37.3034
409 1 60.3214 53.8288 35.258
411 1 -0.116568 54.7048 34.9911
412 1 0.406284 53.7942 35.0366
490 1 -0.094073 55.0901 36.6345
413 1 0.353492 52.9487 35.6585
407 1 60.1526 53.1742 34.4499
408 1 -0.609549 53.6741 34.4252
406 1 59.3661 53.8875 34.7184
340 1 0.670914 54.643 35.7654
401 1 59.8942 55.8567 35.7714
361 1 0.190599 54.0054 37.4733
418 1 60.1905 51.9346 36.5908
417 1 60.6488 52.8663 36.9286
416 1 -0.037843 52.8138 37.5398
500 1 58.1555 54.8581 36.2586
499 1 59.0576 55.0511 36.0144
494 1 59.7148 53.2123 36.1577
498 1 58.8334 55.1775 37.0727
403 1 58.2336 55.942 35.4415
404 1 59.1691 55.5245 35.0738
492 1 -0.577761 54.0954 36.1639
489 1 60.6913 55.1008 35.8366
414 1 0.406847 53.7863 36.2789
415 1 0.223468 52.9527 36.7099
491 1 60.5803 54.777 36.9191
495 1 59.7216 53.7058 36.7688
405 1 58.807 54.6628 34.7788
402 1 59.0427 56.5 35.5409
487 1 -0.00874103 56.2801 37.0183
486 1 -0.103827 55.8287 37.8423
488 1 60.688 55.8359 36.5961
339 1 0.834331 55.3672 36.1268
461 1 58.4115 59.3908 35.5484
467 1 58.5306 56.1559 37.2022
465 1 59.7516 56.759 36.541
337 1 -0.335156 56.6734 35.6084
334 1 1.34809 56.1117 37.1486
338 1 0.250477 55.8424 35.6322
473 1 -0.4607 57.7751 38.4373
362 1 0.26862 54.6706 38.1686
326 1 59.4666 54.5857 38.5369
370 1 2.57948 53.2442 39.7124
496 1 59.9483 54.4122 36.0924
497 1 59.5257 54.6561 36.8755
363 1 -0.0668695 54.1493 38.8012
328 1 60.4742 54.7373 38.1337
366 1 1.09388 53.0421 38.7521
124 1 2.13293 54.2078 35.9832
364 1 0.310973 53.5485 39.2205
123 1 1.60098 53.9847 36.7431
125 1 1.80986 55.0184 36.5057
126 1 2.50761 55.5895 37.1476
464 1 59.0355 57.4887 36.7207
327 1 60.2587 53.8915 38.3695
329 1 59.9433 55.3996 37.737
183 1 -0.0554922 55.5952 38.82
485 1 0.84962 55.5283 37.929
122 1 1.19596 53.9555 37.6628
121 1 1.26301 54.1782 38.4733
131 1 3.34477 55.5027 39.2689
336 1 0.414452 56.9463 36.046
127 1 2.1034 54.7325 37.6254
462 1 59.217 58.7087 35.5894
466 1 59.2794 56.0242 36.3999
468 1 58.2388 56.3391 38.0501
470 1 59.3544 56.4264 38.1426
469 1 59.0168 55.5509 38.0922
471 1 59.1108 57.3354 38.7079
330 1 60.3657 56.2327 37.7341
333 1 0.724978 56.5497 37.6946
332 1 0.183338 56.6064 38.5248
484 1 1.19914 56.23 38.5793
335 1 1.23701 56.3368 36.0692
33 1 51.2616 60.5996 41.1154
203 1 59.7249 58.9841 39.4422
204 1 60.6878 58.6396 39.1963
472 1 60.1405 57.5124 38.8006
475 1 -0.278585 58.0685 40.1284
331 1 -0.379847 56.9019 37.7881
482 1 2.07074 57.0154 37.2816
40 1 52.2066 57.7523 40.3406
34 1 51.6694 59.7341 40.8746
31 1 50.9855 60.4576 39.2426
32 1 51.5122 -0.697823 40.1845
30 1 50.8571 59.817 40.1536
474 1 0.102635 57.8863 39.0992
201 1 60.6706 58.9541 40.3483
24 1 51.7302 59.5861 39.6361
22 1 50.7608 57.9946 40.0809
26 1 50.2165 58.6869 38.681
83 1 2.44355 4.3209 38.9377
82 1 2.54078 4.10375 39.9235
81 1 1.7627 3.39877 39.968
84 1 1.75284 3.63419 38.9993
85 1 1.67677 2.67932 39.1747
88 1 1.07714 1.80862 40.2573
341 1 1.46074 3.60878 41.6985
342 1 1.43904 4.49835 41.7071
86 1 2.27318 1.99001 39.5089
87 1 1.93514 1.15266 40.0562
89 1 1.9066 2.07713 40.7654
119 1 36.2941 52.1433 39.148
118 1 36.2281 52.1367 40.1706
117 1 35.9923 53.0261 40.1262
368 1 1.43372 52.9739 39.8578
369 1 2.27514 52.9837 40.4858
115 1 35.4901 53.9945 38.7075
116 1 36.1261 53.3248 39.1843
110 1 35.0481 51.7676 39.0763
111 1 35.3502 52.6533 39.2076
325 1 59.6487 54.945 39.5584
324 1 60.4886 54.613 39.1374
365 1 0.477566 53.3068 38.2742
367 1 2.07594 52.5954 39.0962
372 1 2.49262 54.3662 38.9258
371 1 2.39911 53.4941 38.7593
128 1 2.74325 54.3029 37.219
114 1 35.3861 53.4898 37.848
112 1 34.7609 52.8131 38.4895
323 1 60.65 55.4168 39.3795
184 1 0.633892 56.0735 39.3864
182 1 0.698029 54.9397 38.9997
181 1 0.60457 54.2986 39.7451
134 1 2.02811 55.4945 39.0448
135 1 1.54032 54.9383 39.7434
132 1 2.86062 55.277 38.2508
373 1 2.54637 54.5148 39.8517
129 1 3.28132 54.273 37.9693
374 1 3.45143 54.7345 40.0565
463 1 59.1499 58.3189 36.4048
479 1 60.2965 56.3194 39.7354
205 1 60.1477 57.9971 39.9346
478 1 60.5342 56.5384 38.745
480 1 -0.217295 55.8731 39.9923
186 1 1.05956 57.1149 39.2875
185 1 1.52022 56.2694 39.616
379 1 2.51588 56.4444 40.1888
483 1 1.95458 56.783 38.1932
133 1 1.94237 55.6212 38.0838
378 1 1.72128 56.653 40.7486
130 1 3.70322 54.5486 38.9664
202 1 59.7706 59.3833 40.5169
206 1 59.5551 57.3636 39.7032
476 1 60.6818 57.1401 40.2955
477 1 -0.488608 56.9978 39.4754
187 1 0.688454 57.7339 40.1522
380 1 2.32774 57.2231 39.6696
481 1 1.70443 57.9328 37.7893
38 1 51.2143 58.173 40.9649
35 1 50.9069 59.3672 41.2244
29 1 50.0042 59.9096 40.6304
189 1 0.293587 57.0058 40.9515
190 1 0.509735 57.7288 41.373
188 1 0.659912 56.7497 40.2105
39 1 51.9768 58.6217 40.8869
25 1 50.8538 59.4128 39.1369
27 1 49.3935 58.9711 39.1323
36 1 50.4333 58.9194 40.5791
28 1 49.8047 59.3507 39.8528
97 1 1.44956 0.555621 43.0671
23 1 51.3317 58.695 39.5887
95 1 0.727318 -0.364795 41.8079
348 1 2.88539 0.287209 40.1604
98 1 2.21772 0.13746 42.6309
349 1 2.4122 0.754815 40.9455
96 1 1.34666 -0.371282 42.5589
100 1 2.16503 -0.207424 43.7783
99 1 2.46099 -0.71645 43.0075
358 1 3.33284 2.57651 41.0386
94 1 1.31451 0.576792 41.4873
93 1 1.69177 1.1858 42.2242
350 1 2.80747 1.63723 40.8499
346 1 3.3586 2.12935 40.0159
347 1 2.94687 1.24098 39.8078
343 1 1.83482 4.34096 40.7558
344 1 2.32718 3.51746 40.8595
359 1 4.31046 2.30357 40.6918
91 1 0.88769 1.90645 42.051
92 1 1.32313 1.69466 42.9883
345 1 2.77345 2.8943 40.1951
90 1 1.32431 1.67595 41.2219
120 1 37.1098 51.583 38.8476
108 1 35.6329 52.087 38.2697
109 1 35.7994 51.2429 38.8506
101 1 34.8396 51.5151 37.8232
106 1 37.1442 52.8107 38.5473
107 1 36.2193 52.9789 38.1775
102 1 35.5357 51.3434 37.1342
103 1 36.1407 52.2005 37.3735
113 1 35.0932 52.6342 37.5807
322 1 59.9641 55.6403 38.7987
321 1 59.1135 56.0243 39.1344
140 1 1.0804 54.741 41.8581
220 1 60.7077 55.0883 40.4776
136 1 1.55111 53.9333 39.4912
139 1 1.85323 54.1714 41.6438
375 1 3.70752 55.0494 40.8751
208 1 58.2498 58.1082 39.4192
209 1 58.1982 57.1335 39.7619
219 1 0.167149 54.9423 40.602
218 1 0.857709 55.602 40.4202
217 1 1.89138 55.5097 40.4864
215 1 0.441256 55.634 41.3113
138 1 1.3693 54.7085 40.861
377 1 2.49023 56.1026 41.2264
376 1 2.75297 55.0845 40.938
137 1 1.82432 53.9828 40.4011
196 1 60.084 57.7777 40.9521
197 1 59.803 57.5342 41.8339
207 1 59.0694 58.1081 39.8233
195 1 -0.597948 57.4788 41.2827
194 1 60.6236 58.2439 41.9017
193 1 -0.00912452 57.7913 42.3106
37 1 50.2353 58.1568 41.1018
200 1 -0.665584 55.7042 42.0989
199 1 -0.244818 56.706 41.895
198 1 60.1677 56.6134 41.8208
191 1 0.817856 57.0435 42.0726
192 1 0.809547 58.0986 42.2732
21 1 50.3921 57.1279 40.5657
356 1 3.65894 3.19275 41.6522
360 1 3.98874 1.5506 41.1218
357 1 3.75854 3.55247 40.7599
355 1 3.0425 2.67248 42.2405
354 1 2.24294 2.83088 41.6126
351 1 2.65097 1.71101 41.8739
353 1 1.78469 2.58135 42.4031
352 1 2.32161 1.85598 42.8633
104 1 36.468 51.4268 37.9135
105 1 37.281 52.0749 37.7978
211 1 59.5472 56.7783 40.5694
210 1 58.6161 57.285 40.622
212 1 59.0679 55.9009 40.9962
216 1 1.41831 55.7981 41.4154
214 1 -0.502803 56.1848 41.01
213 1 60.0105 55.8811 40.8319
59 1 1.59584 33.7769 47.7712
60 1 1.41173 34.52 48.4826
53 1 1.80127 32.0487 47.8824
54 1 2.12351 32.8611 47.5205
52 1 2.72226 32.158 48.0975
58 1 2.5472 33.9283 47.4526
56 1 2.42599 34.0906 48.4411
44 1 4.19789 32.718 48.752
48 1 3.36866 33.4697 48.8905
57 1 2.32174 34.8509 47.8212
55 1 2.33435 33.2319 48.4545
43 1 4.6533 32.1942 49.2425
50 1 2.96599 32.0218 49.7537
51 1 3.25544 32.5109 48.8522
47 1 3.49083 34.0801 48.2063
49 1 2.59942 32.983 49.4929
42 1 3.90549 31.684 49.0835
41 1 3.85619 31.6975 48.1747
45 1 4.55713 33.6165 48.302
46 1 3.72888 33.0999 47.9582
ITEM: TIMESTEP
2000
ITEM: NUMBER OF ATOMS
500
ITEM: BOX BOUNDS pp pp pp
-1.9376869813564994e+00 6.1937686981356350e+01
-1.9376869813564994e+00 6.1937686981356350e+01
-1.9376869813564994e+00 6.1937686981356350e+01
ITEM: ATOMS id type x y z
166 1 55.167 0.387436 0.233622
162 1 54.1965 -0.964378 0.110124
163 1 54.8372 -1.57621 0.697269
242 1 56.0919 -1.10146 -0.0544054
164 1 54.5716 -0.897937 1.42561
173 1 54.6182 2.65165 -0.723174
172 1 55.2666 2.47166 0.12749
308 1 -1.77602 -0.598552 5.02415
424 1 -0.702907 -1.71986 3.07527
425 1 0.313247 -1.58977 3.4704
313 1 -1.67835 0.369081 3.75029
314 1 -1.75309 1.25173 4.13136
441 1 24.8638 3.84411 2.95084
453 1 24.1112 2.60566 1.75479
254 1 53.8206 -0.125712 1.31536
168 1 55.1558 1.32513 1.41927
167 1 54.9154 1.16708 0.618098
161 1 54.4742 -0.276016 -0.742421
243 1 56.672 -0.421679 -0.518607
244 1 56.2324 0.372272 -0.269672
241 1 55.9499 -1.4516 0.835963
443 1 23.182 2.85003 2.57321
457 1 23.4414 0.778013 1.69885
455 1 24.203 0.940616 2.48773
456 1 23.1761 0.789568 2.62875
454 1 24.546 1.80924 2.15278
175 1 53.9183 1.39904 0.32861
174 1 54.1403 2.23077 -0.0976036
255 1 54.0495 0.418359 0.636446
165 1 54.8731 -0.472626 0.541011
169 1 54.773 2.12067 1.19076
171 1 55.7257 1.49118 0.0883309
170 1 55.8142 1.94154 0.980894
459 1 24.2923 0.108914 1.65597
176 1 53.0035 1.73498 0.285072
427 1 0.979079 -0.601829 3.07691
426 1 0.3165 -0.635158 3.67657
307 1 -1.054 -0.113557 5.61088
423 1 -0.758738 61.4935 3.91211
311 1 -0.0502939 0.270272 3.81164
306 1 -0.47636 -0.755256 6.14094
431 1 1.73727 0.887902 3.11755
300 1 36.5606 -1.59779 7.39501
309 1 -1.09799 -0.513712 4.35972
310 1 -0.0992692 -0.16595 4.67334
312 1 -0.87218 -0.133675 3.39454
315 1 -1.84024 1.51065 5.03604
316 1 -1.91027 0.517985 4.97861
320 1 -0.143729 1.77593 3.43087
442 1 23.9941 3.3633 2.61176
450 1 24.5915 3.0619 1.03375
451 1 24.3332 3.94996 1.66898
452 1 24.8819 3.29876 2.01504
448 1 23.6664 2.49778 0.817848
253 1 53.8135 0.441016 2.09679
251 1 55.4658 0.277783 1.36758
250 1 55.9936 -0.398885 0.691921
252 1 54.6973 0.151213 1.94493
245 1 56.7195 1.08897 0.150708
247 1 57.0758 0.992245 1.71425
249 1 56.9179 0.00484412 1.01122
246 1 57.4531 0.952046 0.868546
317 1 -0.957914 0.576253 4.50085
444 1 23.5733 1.95472 2.81513
449 1 24.6051 2.13626 0.824497
445 1 23.2065 1.84829 1.84985
460 1 25.1584 0.119798 2.21173
256 1 53.7603 0.387663 -0.340576
248 1 56.3515 0.774083 1.01583
458 1 24.2272 1.04607 1.15825
257 1 54.3822 0.917509 -0.830975
180 1 52.7492 -0.14693 -0.350484
259 1 53.3424 0.605457 -1.20647
258 1 53.6047 1.53354 -0.786355
179 1 53.0559 0.511691 0.287146
178 1 52.2136 1.01869 0.486728
177 1 52.5567 1.47688 -0.4927
260 1 52.5285 0.865447 -1.43682
422 1 -0.484001 -1.3981 4.05573
421 1 -1.13285 -1.61884 4.69963
428 1 1.4031 -1.41494 3.62182
429 1 1.30746 -0.610074 4.1561
430 1 1.18055 0.304301 3.83969
304 1 -0.342057 0.694595 5.74488
303 1 0.371297 1.10641 6.3959
305 1 0.197894 -0.0109713 6.15827
440 1 0.0881559 0.999 4.82759
432 1 0.836214 1.21958 3.52944
434 1 1.01611 0.246521 4.89496
283 1 36.4078 -0.0474011 5.44333
281 1 35.5623 0.386834 6.22615
282 1 35.9561 0.822633 5.38279
297 1 36.0155 -0.831071 6.5451
299 1 37.0462 -0.994931 6.83744
298 1 36.696 -0.0157804 6.59818
295 1 36.0563 -1.80391 6.1794
296 1 35.5477 -1.59731 6.92893
301 1 -0.182864 2.22374 7.77158
302 1 0.372384 1.90794 6.92427
318 1 -0.922499 1.11488 3.627
439 1 -0.547407 1.65542 5.41529
438 1 0.480032 1.91201 5.73367
437 1 0.670443 2.09156 4.72923
433 1 1.19668 1.19469 4.39741
319 1 -0.243633 0.863204 3.03461
447 1 22.6764 2.00562 0.787867
446 1 22.476 1.19127 1.36906
1 1 27.5775 8.49733 10.3298
150 1 21.4816 5.71113 6.48917
2 1 28.5729 8.11588 10.3049
157 1 22.784 7.67581 6.76588
158 1 23.6814 7.48406 6.79411
148 1 21.4177 6.8572 7.64852
149 1 22.0554 6.04196 7.37735
3 1 28.839 7.5823 9.58105
156 1 22.798 7.2042 5.84674
11 1 29.1784 7.6997 8.44562
435 1 1.01977 1.0672 5.40992
289 1 37.0129 -0.896869 3.68187
284 1 36.0724 0.0734499 4.57851
291 1 35.485 -0.916545 4.16528
287 1 36.9715 -1.59681 5.15672
286 1 36.1279 -1.09826 5.39802
290 1 36.1585 -0.375282 3.59467
285 1 35.4335 -0.426182 5.26898
293 1 36.5136 61.4444 4.60259
294 1 35.7214 61.6383 5.40919
436 1 1.43147 1.93714 5.4011
151 1 21.1088 6.30743 5.74077
152 1 20.782 6.65926 6.6653
155 1 23.3129 6.29686 6.14312
159 1 23.9265 6.47965 6.97559
153 1 21.7247 6.70336 6.47422
154 1 22.6745 6.72967 6.69989
147 1 21.6993 7.68048 6.99419
4 1 28.1183 8.20667 9.35813
160 1 23.7806 5.52621 6.71218
141 1 22.5288 5.42247 6.5931
145 1 21.8235 7.04292 5.29781
146 1 21.8019 7.68001 6.07078
142 1 23.2124 5.26689 5.70078
16 1 29.4917 10.6378 6.97963
17 1 29.1599 10.2678 7.9031
10 1 29.9062 8.0088 7.76553
5 1 29.2297 8.53283 9.27653
15 1 29.1843 9.67413 7.02978
13 1 28.4811 8.87464 7.35097
12 1 28.4058 8.35963 8.28371
9 1 30.1343 8.28327 6.77062
292 1 36.2033 -1.58207 4.20655
6 1 29.8434 8.67719 8.65383
143 1 22.2318 5.21807 5.54787
144 1 22.2513 6.12309 5.83396
20 1 28.326 9.22767 9.2196
18 1 29.645 9.33761 7.88061
7 1 30.6556 9.36788 8.30733
8 1 30.6889 8.72384 7.59494
14 1 28.2424 9.55623 6.74736
19 1 28.9577 9.2211 8.45982
288 1 37.0437 -0.85312 4.61662
273 1 42.5375 60.0293 20.1019
274 1 41.5714 59.862 19.9586
272 1 42.3084 58.9571 20.1849
271 1 42.4878 59.174 21.0921
280 1 41.497 59.1146 18.9062
279 1 40.502 58.9336 18.7999
278 1 40.1961 58.692 19.8212
270 1 42.3211 59.8223 21.8019
275 1 41.0903 59.1479 20.0427
277 1 40.2759 57.9524 20.563
268 1 41.7095 61.3215 21.5153
276 1 41.2704 58.3344 20.3511
269 1 42.0188 60.4299 20.9843
392 1 40.7054 60.0229 17.9466
391 1 40.8822 60.5481 18.7469
390 1 40.1636 60.819 19.0844
389 1 39.8816 60.8512 19.963
400 1 39.9354 57.1827 19.4788
399 1 38.8861 57.497 19.2878
266 1 41.1694 59.7675 21.3237
265 1 40.2479 59.3102 21.0936
264 1 40.5483 58.6283 21.8875
263 1 39.546 58.6 22.1895
393 1 39.7556 60.0568 18.1949
398 1 39.5128 58.3295 18.9526
267 1 41.3477 60.4125 22.1256
388 1 40.7911 61.0533 19.9569
381 1 42.0146 -1.23854 22.969
382 1 42.1746 -1.62798 22.019
383 1 41.734 61.5984 22.5876
261 1 40.4496 59.9561 22.2767
384 1 40.9024 61.7276 21.9844
397 1 39.0016 58.561 19.8065
395 1 40.0697 59.7896 19.4414
396 1 39.5891 59.3595 20.1576
262 1 39.5146 59.4737 22.4722
394 1 39.2549 59.4849 18.981
386 1 40.3164 60.4388 21.2048
387 1 40.5756 60.0321 20.3744
75 1 19.2853 53.0535 21.8371
74 1 18.874 53.9893 21.7994
70 1 17.7813 54.4663 20.3488
71 1 18.5432 54.6348 21.0563
68 1 18.5852 55.1396 19.3859
69 1 18.5855 54.3856 20.0068
61 1 19.1945 56.2512 22.2841
67 1 18.0875 55.6746 20.1085
62 1 19.006 55.3441 21.836
65 1 19.2247 56.1291 20.4379
66 1 18.3231 55.9673 21.0768
385 1 40.6316 61.3297 21.1775
76 1 20.263 53.2484 21.6877
73 1 18.0353 53.6455 21.4587
78 1 19.5469 54.1873 20.8981
77 1 20.2206 54.2147 21.6651
72 1 17.7152 54.3494 21.6603
63 1 19.4957 55.2685 21.1358
64 1 19.229 55.0762 20.372
80 1 18.8084 53.3736 19.7583
79 1 19.1528 53.4193 20.6523
231 1 41.9033 10.2891 31.2217
224 1 41.2965 9.65269 32.175
223 1 41.8986 9.24459 31.2969
221 1 42.7305 8.53885 31.8949
222 1 41.7551 8.37068 31.8337
240 1 43.4881 11.554 33.2546
227 1 40.7873 8.83755 31.4096
226 1 40.6691 8.61204 32.3243
228 1 40.3061 9.70515 31.3974
225 1 40.7378 9.29272 33.0357
229 1 40.5107 10.4358 31.8336
233 1 42.0755 11.1997 31.8287
230 1 41.021 10.4573 31.0409
232 1 42.423 10.3211 32.0382
239 1 42.506 11.4868 32.8729
236 1 40.7973 10.446 33.3107
234 1 41.5964 10.5969 32.651
235 1 41.6303 10.0799 33.4678
238 1 42.1368 11.9172 33.6302
237 1 41.5067 11.0669 33.7302
407 1 61.4651 54.1714 34.619
408 1 -1.58097 54.1607 35.0498
405 1 60.4886 55.7219 35.0795
410 1 61.4974 55.5777 35.5676
406 1 60.5988 54.8167 34.5857
413 1 59.8071 54.8344 36.2925
493 1 59.6242 55.6049 37.1969
494 1 60.3697 55.9819 36.6225
411 1 61.5127 54.8696 36.0238
412 1 60.5041 55.1505 36.0206
340 1 -0.919401 56.7267 36.9725
492 1 60.4614 55.7339 37.7047
414 1 60.3292 54.8309 37.1396
124 1 0.778467 55.2345 35.8351
500 1 61.4435 57.5438 36.9336
409 1 61.8591 55.1339 34.9091
496 1 60.9351 56.6078 37.5316
338 1 0.975377 57.162 37.0351
339 1 0.133571 56.7702 36.5154
335 1 -0.280454 59 37.0927
499 1 60.6395 57.9879 36.7085
403 1 61.6332 56.6529 35.3538
404 1 61.0768 56.1316 34.553
466 1 -1.66099 58.9807 37.8357
401 1 -0.283802 55.9811 35.9262
489 1 61.7062 56.4296 36.8328
337 1 0.499247 58.0169 36.5184
336 1 0.700747 58.9063 36.8361
402 1 -1.29508 56.2091 35.8274
462 1 -0.795373 57.3561 35.9828
463 1 -1.51813 57.5016 36.4163
461 1 -0.929681 56.7419 35.1205
419 1 61.7619 52.477 38.4353
420 1 -1.2441 52.4513 38.8382
101 1 35.0695 53.4238 38.2742
102 1 34.4992 54.1857 37.8662
105 1 33.6389 52.6802 36.6871
418 1 -1.85323 53.4039 38.1295
416 1 61.5213 53.985 36.9933
415 1 60.5157 53.8234 37.2918
114 1 35.3015 53.6781 36.7912
103 1 34.493 53.2336 37.4656
113 1 35.9198 53.7363 37.5419
417 1 61.2502 54.1912 37.9745
361 1 -0.594323 53.4316 37.4857
123 1 0.636478 54.56 36.5741
125 1 -0.109939 54.9169 35.6038
122 1 0.862871 53.6866 36.2095
127 1 -0.413336 54.9044 36.6389
128 1 0.0521686 54.7998 37.4047
491 1 61.4387 55.4082 37.2345
495 1 60.6178 56.8875 36.6306
497 1 60.3724 57.3308 37.8047
490 1 -1.62508 55.5778 36.7599
487 1 -1.46054 55.9248 38.1142
486 1 -0.884289 55.7874 37.4511
334 1 -0.663305 58.5015 37.9277
126 1 -1.08194 55.151 35.9374
498 1 59.8201 57.9454 37.1864
467 1 61.6202 59.0009 38.6044
488 1 -1.67866 56.8594 37.7321
329 1 61.6881 57.7652 38.0318
330 1 -1.41918 58.1904 38.7076
331 1 -0.945149 58.1065 39.4545
333 1 -0.901398 59.1167 38.7319
482 1 0.267107 58.1015 38.0787
464 1 -1.2159 58.2234 37.0072
465 1 -1.40667 59.1763 36.9526
481 1 0.82489 58.1252 38.9559
85 1 -0.842695 1.43171 40.9474
84 1 -1.73376 1.85428 40.5927
83 1 -1.82685 1.05912 40.0091
110 1 35.8522 52.1713 36.3596
108 1 35.5435 52.8132 37.4156
109 1 36.1245 52.0171 37.3172
120 1 35.3243 53.0002 35.9381
104 1 34.0762 52.3474 37.5477
364 1 -1.54757 55.0782 38.7089
365 1 -1.51996 54.0555 38.77
366 1 -1.56802 53.5933 39.5945
367 1 -0.659557 53.4278 38.7557
371 1 0.428771 53.7231 38.4505
112 1 36.4741 53.3299 36.7959
119 1 35.0244 53.8936 35.8626
116 1 36.2709 54.4935 36.5785
111 1 36.5762 52.8165 35.9964
107 1 34.7959 52.5511 36.8251
106 1 34.3732 53.2811 36.4566
362 1 -1.01502 54.3467 37.7493
363 1 -1.66722 54.9848 37.791
182 1 61.4178 55.7014 39.3218
121 1 1.90265 53.6948 36.1476
372 1 0.815263 53.4857 37.648
129 1 0.868143 55.4752 37.1677
130 1 1.03269 56.2527 37.827
115 1 35.2991 54.6855 36.8467
326 1 60.7454 57.8062 39.5263
328 1 61.0615 58.0465 38.5904
327 1 61.45 58.2344 39.3473
324 1 59.1462 57.4512 40.1244
183 1 61.4785 56.1853 38.5782
485 1 0.0754596 56.2855 37.4511
484 1 -0.600412 56.6899 37.9755
134 1 0.315666 56.969 38.3032
133 1 1.18948 57.3061 38.3319
131 1 1.65391 56.2838 38.594
132 1 2.05441 56.9179 38.0543
468 1 60.7155 59.1797 38.2224
469 1 59.9996 58.5165 38.2422
321 1 60.0333 57.6426 41.3291
470 1 60.4155 59.1454 39.173
322 1 60.2428 58.093 40.7341
473 1 61.6189 59.2404 39.7574
332 1 -0.204261 58.5389 39.1448
186 1 -0.638869 57.3885 38.7183
483 1 -0.0527265 57.4487 37.4005
471 1 60.499 59.7407 39.9538
472 1 60.9953 58.7677 40.1854
478 1 -1.77664 57.5914 39.7331
474 1 61.911 59.991 40.4036
26 1 52.5317 60.1793 40.1676
27 1 53.1008 59.8728 40.9285
204 1 0.596898 59.7569 41.879
31 1 52.1041 58.9368 41.6763
25 1 51.7761 59.8121 40.7724
348 1 0.709458 1.15611 40.7333
32 1 51.462 58.6297 40.9088
88 1 -1.57747 0.121289 40.8152
87 1 61.5994 0.41205 41.5872
86 1 -1.65673 1.08617 41.4573
347 1 0.309484 2.01657 41.009
81 1 60.7833 0.689731 41.0675
346 1 -0.377722 2.36463 41.6958
345 1 -1.36601 2.15473 41.6414
82 1 61.3601 0.347013 40.3754
118 1 35.7983 54.394 35.5339
368 1 0.0999893 53.7525 39.5696
370 1 -0.0158149 54.529 38.8534
369 1 0.928717 54.2524 39.3618
117 1 36.5032 53.8526 35.8774
181 1 60.5463 56.007 39.7406
219 1 -1.61388 55.7 40.5364
135 1 0.0557735 56.0002 38.4391
136 1 -0.598556 55.214 38.3822
137 1 -0.466728 55.3639 39.3494
373 1 1.09039 54.4793 37.5412
374 1 0.662534 55.0709 38.1737
325 1 59.7744 57.8598 39.6041
184 1 -1.48662 56.8032 38.8529
480 1 61.3565 56.8876 40.1423
185 1 -0.656204 56.395 39.0714
218 1 -1.56154 56.4825 39.8995
217 1 -0.684928 56.1754 40.3429
379 1 0.891423 56.5346 39.239
323 1 59.3818 58.3872 40.6009
479 1 61.3981 57.087 39.0786
220 1 61.2517 55.3061 40.2468
477 1 61.4007 57.8286 40.3842
187 1 0.0723695 57.4788 39.4191
188 1 -0.761446 57.1399 39.9284
380 1 1.66311 57.0723 39.54
21 1 51.8657 61.6948 40.9242
40 1 51.4317 59.7316 42.9689
209 1 -0.882358 58.4333 43.5083
210 1 -1.62541 57.9354 43.1153
206 1 -0.930002 59.2189 42.7039
476 1 -1.73015 58.4846 40.2533
211 1 61.6455 57.9829 42.4357
475 1 61.7841 59.1602 40.8942
36 1 52.24 60.148 41.9276
22 1 51.5547 60.8952 41.4573
23 1 51.2894 60.6934 40.404
208 1 -0.29691 59.0914 43.907
207 1 -0.841203 59.8898 43.5373
203 1 -0.0813813 59.3762 41.091
201 1 -0.365784 58.4266 40.1783
205 1 -0.0644592 58.9964 42.0846
29 1 53.3056 59.9831 41.951
28 1 53.514 59.1137 41.4749
30 1 52.7 59.2086 42.2611
24 1 51.4397 59.9762 39.7424
202 1 -0.877491 59.3051 40.5125
95 1 0.840199 -0.966666 41.9957
94 1 0.78908 -1.5791 42.9582
89 1 -0.727694 0.112032 41.359
91 1 -0.75701 -1.30496 41.4469
90 1 -1.36719 -0.5309 41.5882
349 1 0.147175 0.833685 41.359
350 1 0.616399 -0.0312912 41.3514
351 1 0.819441 0.191422 42.294
360 1 1.16762 -0.564485 43.4278
358 1 0.499443 0.971891 43.1966
344 1 61.8886 1.82243 42.4054
354 1 -1.25966 0.672917 42.4318
359 1 1.3885 0.472059 43.2608
356 1 0.359399 1.48053 42.0246
341 1 -1.07027 0.963384 44.452
342 1 -0.802874 1.12648 43.5638
343 1 -1.62593 1.47699 43.1629
357 1 1.13431 1.56945 42.8009
140 1 61.3719 54.1917 39.5796
139 1 -1.80769 54.8149 39.6353
138 1 -0.858837 54.6056 39.5743
215 1 61.8335 56.835 41.1909
200 1 -0.962353 57.1107 42.864
214 1 61.0909 57.2926 41.7801
216 1 -1.17243 56.6625 41.0799
377 1 0.940194 55.9565 40.2636
376 1 0.58172 55.038 39.9365
375 1 0.899539 55.3917 38.978
212 1 61.3272 58.5272 41.8484
213 1 61.8677 57.9415 41.3497
189 1 -1.11667 57.712 40.6254
190 1 -0.0581769 57.456 40.6288
195 1 -0.442017 58.3736 41.3116
199 1 -1.57946 56.7487 42.1186
378 1 0.179374 56.1552 39.6987
191 1 -0.127924 56.8175 41.3397
196 1 -1.15961 58.6489 41.7925
197 1 -0.451595 58.1419 42.3847
198 1 -0.979825 57.4268 42.0084
37 1 52.4684 61.0698 42.086
38 1 52.6913 60.3547 42.9595
39 1 51.8158 60.6537 42.7626
194 1 0.37153 58.0212 41.8066
33 1 50.7356 58.7262 41.4862
34 1 51.0782 58.7763 42.4947
35 1 51.2423 59.5696 41.9677
97 1 -0.105109 61.6056 41.654
96 1 0.329054 -1.49789 41.4679
98 1 0.722449 61.0276 41.9465
99 1 0.56606 61.1783 42.8009
93 1 -0.0703452 -1.44609 42.5484
92 1 -0.283398 -0.651354 41.9945
352 1 0.292162 -0.316975 42.989
353 1 -0.198541 0.415241 42.3997
355 1 -0.618789 1.26264 42.1413
193 1 0.240554 57.2454 42.3202
192 1 -0.185943 56.5553 42.2104
100 1 0.836497 61.4532 43.6882
53 1 4.18206 34.8878 48.7167
54 1 5.00727 34.7207 49.2655
59 1 4.50013 33.2458 50.4003
58 1 5.34411 33.9431 50.0101
57 1 5.68073 33.6122 48.9912
42 1 1.85841 32.1957 50.9307
41 1 2.46326 32.9261 50.7649
52 1 3.84833 34.5263 49.5058
48 1 3.83466 33.2013 48.7261
55 1 4.56278 33.8076 49.2462
51 1 3.62951 33.672 49.8792
44 1 2.0403 32.0085 49.3773
43 1 1.30225 32.3974 50.0733
45 1 2.26219 32.9485 49.3304
46 1 2.6625 33.8719 49.4366
60 1 4.48804 34.2004 50.5642
56 1 4.94183 33.9692 48.352
47 1 3.34845 34.0136 48.7832
50 1 3.2127 32.8534 49.6154
49 1 4.17187 32.7243 49.5068
ITEM: TIMESTEP
3000
ITEM: NUMBER OF ATOMS
500
ITEM: BOX BOUNDS pp pp pp
-2.6939626150269831e+00 6.2693962615026841e+01
-2.6939626150269831e+00 6.2693962615026841e+01
-2.6939626150269831e+00 6.2693962615026841e+01
ITEM: ATOMS id type x y z
259 1 56.6986 -2.4171 -1.80754
260 1 56.3877 62.1304 -1.59063
161 1 55.8037 -1.67276 -2.0514
243 1 57.3907 -0.992939 -2.42457
257 1 55.5752 62.6237 -2.44674
258 1 56.455 62.2083 62.6716
173 1 55.365 -0.0604032 62.1046
162 1 55.6704 -2.54324 -1.41084
163 1 56.2006 -2.02508 -0.841382
242 1 57.0756 -1.84144 -2.693
241 1 57.6669 -1.75211 -1.76429
180 1 53.1027 -2.06776 61.4734
179 1 52.9103 -1.11786 62.0338
255 1 54.434 -1.82386 -2.69627
256 1 55.3923 -1.84562 62.4459
166 1 55.9781 0.272091 -1.0843
244 1 56.3142 -1.09051 -2.66935
165 1 56.2188 -0.409921 -1.82889
250 1 57.0169 -0.845198 -0.144661
447 1 26.6598 2.20672 2.5636
449 1 26.7661 1.84852 1.11363
176 1 53.5983 -0.744599 61.0075
178 1 52.6011 -0.294294 61.6174
177 1 52.9066 -0.231875 60.5988
175 1 53.7204 -0.51468 61.9547
174 1 54.4638 0.220578 61.999
167 1 55.6831 0.729116 -0.189264
171 1 54.5118 -0.371662 -2.48772
245 1 56.4072 -0.399922 61.9467
246 1 56.6956 0.251686 -2.61475
448 1 27.397 1.7902 1.8941
172 1 54.8928 -0.92659 62.2954
164 1 56.5593 -1.33588 -1.39246
457 1 27.7135 1.93417 -0.844657
459 1 27.097 3.23476 -0.380574
460 1 26.7548 3.65072 -1.14194
254 1 54.716 -1.61374 -1.87136
253 1 55.0797 -0.690441 -1.68734
252 1 55.4775 -0.663609 -0.813751
251 1 56.058 -1.06852 -0.249267
249 1 57.4894 -1.28088 -0.84129
248 1 57.3232 -0.59009 -1.46581
445 1 27.2396 2.75882 1.20633
446 1 27.2936 2.87772 2.22871
454 1 26.6653 1.32376 -1.39961
458 1 27.524 2.76411 -1.30638
169 1 54.6032 0.235191 -1.13228
168 1 54.8991 0.159221 -0.213585
170 1 54.4639 0.533806 -1.97358
247 1 56.8803 0.38102 -1.64973
453 1 26.8557 0.964528 -0.534902
450 1 26.0454 1.19821 1.46533
452 1 27.1528 0.680099 0.387209
451 1 26.303 0.520443 0.724602
424 1 62.5796 -1.61477 4.3404
425 1 -1.99909 -1.3908 3.71117
426 1 -1.35288 -0.85205 3.30062
427 1 -0.879688 -0.00962659 2.87501
428 1 -0.310045 0.670428 2.7789
289 1 36.3293 62.6266 6.29404
312 1 62.5269 -0.382374 4.00504
319 1 62.0271 1.17975 4.622
431 1 -1.70333 0.397276 3.69958
456 1 27.4399 1.83208 0.0350662
290 1 36.6564 -1.83224 6.56298
318 1 61.2026 0.903363 5.04547
320 1 62.3285 1.68772 3.74216
432 1 -2.43631 0.364135 3.19011
444 1 26.2751 2.69926 1.55785
455 1 26.6786 1.9807 -0.633595
443 1 25.9734 2.39869 0.63752
442 1 26.3603 1.46647 0.211053
441 1 25.824 1.04796 -0.42278
308 1 -2.39132 0.940789 5.96001
421 1 62.3721 -0.478035 6.49857
422 1 62.0045 -1.02991 5.81272
429 1 -0.578019 0.830118 3.6814
291 1 36.1836 -1.02871 6.73193
292 1 37.0397 -0.897609 6.01764
287 1 36.596 -1.23472 5.06711
288 1 36.7785 -2.33775 5.39243
313 1 -2.49465 0.427377 4.53223
309 1 -2.04945 0.104194 5.5592
316 1 62.1088 0.109696 5.72164
317 1 61.9426 1.07515 5.69657
311 1 -1.95863 -0.503321 4.16145
310 1 -2.48461 -0.514275 5.01494
430 1 -1.25612 0.729833 4.31299
434 1 -1.76285 1.67143 4.63318
284 1 35.8507 -1.84402 5.60351
314 1 61.9314 0.0709447 4.66985
315 1 61.2807 -0.147969 5.24901
440 1 -2.61454 2.04294 5.80889
437 1 61.929 2.07373 5.24267
433 1 -2.13919 1.23758 3.88589
423 1 62.0116 -0.964053 4.85759
293 1 36.873 -0.184735 5.24616
306 1 -0.951111 0.437054 5.35993
297 1 35.349 -1.17956 2.94088
295 1 36.5544 -1.2003 3.87439
286 1 35.5548 -1.08897 4.81622
307 1 -1.54833 1.18706 5.63924
304 1 -0.128672 1.87545 6.04594
305 1 -0.640645 1.05666 6.04916
281 1 34.8717 -1.69079 3.89719
282 1 35.7428 -1.95753 3.58694
285 1 35.8868 -0.711955 5.65083
283 1 35.9691 -2.06776 4.65292
439 1 62.2325 2.25742 6.41803
303 1 -0.255393 2.83965 6.26759
438 1 61.3421 1.99733 5.99858
435 1 -1.98233 2.46624 4.20413
436 1 62.6656 2.05894 4.6936
150 1 24.4856 5.27619 7.83327
151 1 25.2936 5.65826 7.28903
155 1 22.9869 5.91923 7.14816
142 1 23.325 7.04115 7.43316
143 1 24.0702 6.39405 7.68644
144 1 24.361 6.63776 6.80449
153 1 23.9679 5.5857 6.80022
145 1 24.2756 6.52739 5.82758
146 1 23.8276 5.62543 5.53589
156 1 23.3551 6.43213 6.32409
294 1 36.419 -0.397555 4.45045
296 1 35.7534 -0.673326 3.6692
300 1 36.6922 -1.03683 2.7277
299 1 36.2957 -0.0738451 2.84894
298 1 35.6433 -0.580187 2.27044
301 1 -0.325547 1.46504 6.94343
302 1 -0.743121 2.23128 6.84658
149 1 24.5022 4.59082 7.04014
141 1 23.6056 7.56795 6.74065
159 1 23.2941 5.46125 4.20265
160 1 23.4143 4.42629 4.53708
148 1 23.6671 4.57762 6.50412
152 1 24.8157 5.5678 6.34671
147 1 24.1953 4.75078 5.63213
157 1 23.1649 6.39203 5.39184
154 1 23.1281 5.46426 6.28729
158 1 23.4867 6.39766 4.46733
13 1 26.1226 9.30594 9.12326
10 1 25.2278 9.19186 10.783
9 1 26.0937 8.69783 11.0535
18 1 27.2204 9.45454 9.34384
8 1 26.2974 8.9719 10.1601
17 1 27.2251 8.48659 9.39009
15 1 25.3331 7.86259 8.65921
14 1 25.648 8.83655 8.37229
16 1 26.3191 8.17906 9.04392
11 1 25.2631 8.36094 10.5263
4 1 25.1618 10.6344 10.0805
5 1 25.5798 9.73357 9.87244
12 1 25.5342 8.5524 9.46925
20 1 27.8705 8.7125 8.43228
19 1 26.9405 9.05367 8.4609
6 1 26.3784 10.1334 9.53622
7 1 26.7232 9.99261 10.4711
3 1 25.4407 11.6433 9.87045
1 1 25.965 11.4175 10.8859
2 1 26.3632 11.4226 9.84304
399 1 42.0395 57.6691 21.5323
279 1 44.3799 59.2333 21.0262
398 1 41.3544 57.3767 20.7997
393 1 42.5487 59.0651 20.2518
394 1 42.2182 58.4653 20.9695
280 1 43.5811 58.4616 20.7106
392 1 42.9656 58.3453 19.7851
390 1 43.2241 59.3698 19.2757
391 1 43.8774 58.654 19.3159
80 1 17.6249 53.4555 18.4292
79 1 17.7493 54.0317 19.5223
70 1 17.7802 54.9534 18.7457
69 1 17.186 55.061 17.861
68 1 16.6165 55.6906 18.1384
67 1 17.4974 56.0525 18.3708
65 1 18.5258 56.4354 17.9175
64 1 17.6094 56.0846 17.3669
400 1 42.8499 57.4546 20.9544
397 1 40.9831 58.0481 21.2951
278 1 43.6227 59.3455 21.6001
277 1 43.472 59.2172 22.6021
276 1 42.6597 59.4028 22.1694
272 1 43.9777 61.0871 20.8296
395 1 42.1022 58.0564 20.1505
396 1 41.2612 58.6111 20.4792
387 1 41.7188 59.3948 21.199
274 1 43.4492 59.6904 20.4182
275 1 42.7167 59.7826 21.1478
273 1 42.9934 60.7381 20.533
389 1 42.3813 59.9516 19.3831
388 1 42.0019 59.9531 20.4049
382 1 41.888 -1.99203 22.2506
75 1 19.3306 54.5178 17.6077
76 1 19.2844 53.6496 18.023
72 1 19.033 54.9781 18.479
74 1 20.1367 54.0469 17.8239
71 1 18.6423 54.9568 19.2537
73 1 20.0068 54.9731 18.3635
78 1 18.7234 53.9195 19.1253
77 1 19.847 53.8189 18.853
62 1 19.2343 55.683 17.6365
66 1 18.3705 55.832 18.6817
63 1 18.3573 55.3458 17.5776
264 1 40.8001 59.3732 21.676
263 1 40.0628 59.8935 21.3533
265 1 40.916 60.4877 21.3921
386 1 41.7041 60.0011 21.8934
269 1 41.7841 60.7232 23.2112
266 1 41.1912 61.0167 22.1082
267 1 40.8648 60.2548 22.6947
271 1 43.2821 60.8434 21.6437
270 1 42.4826 60.6992 22.2874
268 1 41.7712 59.8375 22.9839
384 1 42.2405 61.751 21.7246
385 1 42.0292 60.8178 21.3018
381 1 42.3359 -2.36004 23.0627
61 1 19.3619 56.0595 18.6861
261 1 39.8501 60.1704 20.2998
262 1 40.6667 59.5384 20.7096
383 1 41.9365 62.4403 22.2098
223 1 40.5353 9.9394 34.2286
222 1 41.1945 9.22545 33.855
227 1 42.1056 10.1551 32.4643
221 1 41.5668 10.0175 34.2761
228 1 42.6304 9.32459 32.4627
229 1 42.8884 9.99659 33.3056
231 1 44.4594 9.43224 33.5296
230 1 43.8281 10.0043 33.149
232 1 44.91 8.87741 34.1298
233 1 44.352 9.44338 34.7102
226 1 41.3235 10.9197 32.3439
225 1 40.8561 11.0559 33.1536
224 1 40.567 10.0507 33.0986
236 1 42.6256 9.08716 34.1398
234 1 43.8827 8.55909 34.7583
235 1 43.5555 8.93914 33.8863
239 1 41.7938 11.3501 33.9267
240 1 41.8223 10.8369 34.7854
237 1 42.7171 9.94184 34.4531
238 1 42.5521 10.6847 34.1084
407 1 -2.15236 58.996 34.8072
406 1 -2.40592 58.1696 34.1677
409 1 62.1272 57.9166 35.6197
404 1 -1.17531 56.8928 34.7891
110 1 34.1365 53.483 35.1879
120 1 33.6768 54.0633 35.9028
111 1 33.8969 53.9095 34.3542
408 1 62.4132 58.6431 35.021
122 1 -1.53167 55.2226 36.9711
121 1 -1.75343 54.4865 36.2581
119 1 33.9913 54.9756 35.5473
118 1 33.2961 54.7009 35.0264
117 1 32.5754 54.5623 34.3452
402 1 -0.761024 55.6093 35.5664
126 1 -2.60753 56.3518 35.5767
124 1 62.6386 55.1696 35.8745
401 1 -1.27465 56.1848 35.8655
125 1 -2.04162 55.6303 35.4351
405 1 -1.88802 57.3155 34.4417
413 1 61.7456 57.289 37.0167
410 1 -2.46687 57.8261 35.4009
411 1 -1.7775 57.234 35.9942
412 1 -2.72293 57.1056 36.5584
462 1 -0.84715 59.5636 36.4161
461 1 -0.329506 60.3754 36.7854
403 1 -0.609549 56.0074 34.6028
105 1 35.9224 54.666 35.3634
103 1 36.6099 53.776 34.7659
104 1 36.4614 53.9411 35.7573
107 1 34.7838 53.6468 36.161
106 1 35.0821 54.5971 35.8308
108 1 35.3773 53.4804 35.3959
109 1 34.9001 52.9371 34.8799
112 1 34.3347 53.0971 33.9971
361 1 -2.29709 55.468 37.8204
362 1 -2.26688 55.1617 38.7885
123 1 -2.58185 55.19 36.7246
128 1 -1.67594 56.796 37.1222
372 1 -2.08599 54.3629 37.9205
373 1 -1.2821 54.1338 37.2436
114 1 34.8211 54.4297 34.8883
113 1 34.9817 53.8335 34.2498
116 1 33.3936 54.6516 33.754
115 1 34.1503 54.9604 34.2553
414 1 61.656 56.7476 37.8877
416 1 62.0755 55.3084 37.749
415 1 62.2847 56.1662 37.4335
490 1 60.5954 56.4238 40.6647
486 1 -2.39582 56.4429 38.2301
363 1 62.3671 55.7623 38.7381
127 1 -2.11341 56.0964 36.6535
129 1 -0.868821 57.0778 36.5273
493 1 60.0322 56.5743 39.8342
494 1 60.1584 57.1408 39.027
492 1 59.3772 57.1619 40.4432
491 1 60.0048 57.0017 41.1307
340 1 -1.08234 57.8199 35.3922
463 1 -1.6984 60.0836 36.0831
488 1 61.4002 56.2144 38.9216
339 1 -0.580077 58.17 36.2268
485 1 -2.25625 57.304 37.8696
483 1 -1.30336 57.5903 37.5699
338 1 0.0557234 58.358 37.1107
497 1 60.6154 58.8461 37.982
500 1 62.1906 58.3473 37.1641
496 1 60.6424 58.2306 38.9175
489 1 61.0326 56.2386 39.8645
495 1 60.4653 57.4878 38.1623
464 1 -1.81214 59.1501 36.4971
335 1 -1.02627 59.7804 38.3449
337 1 -0.728651 58.8885 37.1805
336 1 -0.26213 59.2928 37.8504
498 1 61.0995 58.5704 37.0742
499 1 61.6074 57.9634 37.8448
465 1 -1.56173 59.6814 37.2808
420 1 -2.51334 53.3449 38.1608
418 1 61.3555 54.2931 37.6058
419 1 62.0582 53.9109 38.2432
365 1 62.3221 54.9832 39.763
367 1 62.5821 54.0329 39.381
371 1 -1.41851 53.5163 38.1544
370 1 -1.70034 54.0514 38.9884
102 1 35.9023 53.1869 34.3687
101 1 35.9634 52.6052 35.1385
417 1 62.2944 54.3483 37.3647
487 1 62.2675 56.9074 38.731
364 1 62.2121 56.017 39.7633
136 1 -1.95025 56.3199 39.2104
135 1 -1.40445 56.0286 38.5415
374 1 -1.08128 54.753 37.9571
375 1 -0.577527 53.9939 38.381
183 1 62.1525 57.8299 39.0389
484 1 -1.55716 57.1073 38.4167
186 1 -1.66971 58.6818 38.3708
184 1 -2.24669 57.6583 38.9763
185 1 -2.66873 58.1048 38.193
134 1 -0.497299 56.0537 38.9301
130 1 -0.534121 56.2827 36.5543
133 1 -0.186257 56.0237 38.0281
131 1 -1.04114 55.9977 37.481
132 1 -0.662456 56.7394 37.918
479 1 -2.17803 58.7483 40.8106
466 1 -2.38302 59.1594 37.4166
334 1 -1.00857 59.9241 39.2029
330 1 -2.47044 58.9552 39.2296
482 1 -0.483594 57.7282 38.0105
481 1 -0.287383 57.2056 38.9631
332 1 -1.40197 59.2996 40.1456
469 1 -1.57158 60.6358 38.7666
467 1 62.672 59.5926 38.1149
329 1 62.0253 58.941 39.0806
328 1 62.0958 60.0221 38.8949
333 1 -1.68396 60.1494 39.6793
470 1 -0.842434 61.1309 38.5949
468 1 -2.01815 59.812 38.6386
82 1 60.6968 -1.9811 43.629
84 1 62.0147 -1.7923 42.6459
83 1 61.0852 -1.99307 42.6122
366 1 62.0613 54.6908 38.8199
139 1 62.6075 57.0973 40.1962
138 1 -2.5156 56.2452 40.6558
368 1 -2.17279 53.3776 39.8454
369 1 -1.52067 54.0526 39.9946
140 1 62.1066 57.5908 40.9078
219 1 62.1217 58.5939 40.701
217 1 -1.72093 57.7391 40.244
137 1 -1.72826 56.7157 40.1134
376 1 -0.476805 54.1567 39.2656
378 1 -1.25578 55.7668 39.6208
377 1 -1.13666 54.9236 39.1028
182 1 61.3303 57.384 39.193
181 1 60.656 57.5797 40.0282
220 1 61.9409 58.6314 41.5999
478 1 -1.61302 58.3085 41.3477
218 1 62.6314 58.0967 39.9966
188 1 -0.543868 58.7246 39.703
379 1 -1.46687 55.6941 40.4806
187 1 -0.710841 58.6426 38.584
190 1 -0.722356 58.2138 40.6722
380 1 -1.97513 55.0532 39.901
324 1 61.7481 60.4464 40.9356
480 1 -2.59544 59.4153 40.2154
331 1 -1.5972 58.5488 39.411
476 1 -2.13372 60.0054 40.9168
189 1 -0.779401 57.9442 39.7581
201 1 0.31064 58.6649 40.9601
325 1 62.1447 61.1368 40.2616
323 1 61.7043 59.4981 41
326 1 61.5873 60.4706 39.8046
327 1 62.6581 60.1419 39.5258
472 1 0.217856 59.8614 38.9845
477 1 -1.55193 59.3887 41.4531
202 1 -0.295283 59.2785 40.5731
24 1 52.1581 60.0141 41.4036
26 1 51.4512 60.5613 42.5497
471 1 0.123464 60.562 38.4916
473 1 -0.354237 60.4975 39.7308
474 1 -0.336045 61.175 40.2478
23 1 53.1721 59.9139 41.6738
91 1 62.2158 61.7024 41.2396
90 1 62.2627 62.2329 40.4974
95 1 -1.54692 62.3888 41.6997
96 1 -1.66343 62.4248 40.7039
92 1 62.2273 61.1295 42.0811
88 1 61.3336 61.4561 41.3335
89 1 61.3099 62.2979 40.7329
349 1 -1.7146 -1.88656 41.9038
350 1 -1.33043 -1.69385 40.9635
87 1 61.0818 61.9009 42.0147
81 1 60.4577 -1.01309 43.2264
85 1 61.7646 -2.12458 43.5283
86 1 61.4675 62.4422 42.7554
345 1 61.5473 -1.16412 43.7516
348 1 -2.13512 -1.22263 42.6401
347 1 -2.57262 -1.38558 43.4804
356 1 -2.51754 -2.68598 42.8121
346 1 62.1115 -0.726976 43.0926
216 1 -1.86248 57.2821 41.2137
198 1 -0.399199 57.0629 42.3861
191 1 -0.987722 57.2219 40.6922
321 1 60.5244 59.1313 39.8909
215 1 -2.26333 57.351 42.1822
214 1 -1.53262 57.8033 42.5288
196 1 -0.75852 57.6514 41.5827
195 1 -0.36958 56.7115 41.2764
194 1 0.146878 57.5762 40.906
32 1 54.6789 60.5296 42.6663
33 1 53.8985 60.9515 42.1975
31 1 54.4422 61.0951 43.4611
322 1 61.0729 58.8099 40.7856
212 1 -1.48449 59.0638 42.4143
213 1 -2.24856 58.5008 42.2246
204 1 0.077596 60.6049 41.0285
203 1 -0.309523 59.7491 41.3614
25 1 51.887 59.6907 42.3702
35 1 52.7361 60.3217 42.4721
27 1 52.0592 61.0041 43.1616
36 1 52.8878 59.4859 42.654
29 1 53.0959 61.1279 43.8146
28 1 52.2037 60.7881 44.082
475 1 -1.17157 60.2904 40.6862
97 1 -1.75311 61.5114 41.0335
98 1 -2.51933 60.8767 41.2271
21 1 54.6522 59.417 42.1499
22 1 53.8557 59.7687 42.4277
94 1 -1.62667 62.191 42.5799
93 1 -2.16703 61.499 42.1602
360 1 -0.762623 -2.64771 42.3977
354 1 61.7275 -2.55727 41.8295
351 1 -2.29398 -2.08941 40.8139
352 1 62.5174 -1.80582 41.5409
353 1 61.5174 -1.62857 41.437
359 1 -0.696298 -2.32121 43.2907
343 1 62.2395 0.174568 45.0656
355 1 -2.66787 62.4868 41.7678
358 1 -1.09135 -1.6149 42.617
357 1 -1.73027 -2.14731 43.2097
344 1 61.9759 -0.319348 44.1942
200 1 0.0256541 58.3441 42.7443
199 1 0.33847 57.7068 42.0144
193 1 0.14985 57.7225 40.0374
192 1 -0.573181 56.9107 39.9751
210 1 -1.32528 59.7507 43.5957
205 1 -0.833221 60.963 41.3232
197 1 -1.13216 56.8298 42.0085
34 1 53.0286 60.9924 41.8751
211 1 -0.730635 59.2003 42.8778
206 1 -0.360368 60.7209 42.13
40 1 50.5816 60.3537 43.265
30 1 53.6328 60.5182 43.2504
38 1 52.1585 59.848 43.4105
99 1 -2.15535 60.3908 41.871
39 1 51.2901 59.549 43.3686
37 1 53.0891 59.6344 43.5192
341 1 62.2427 1.97948 44.486
342 1 62.0137 1.01978 44.5366
209 1 -2.05673 59.9305 42.9581
208 1 -1.24738 60.493 42.9894
207 1 -1.04985 60.0519 42.0733
100 1 62.4411 59.8333 41.8306
48 1 5.91516 34.3728 51.0258
47 1 4.91644 34.4957 50.9532
53 1 4.98044 31.8927 50.3954
56 1 4.55294 33.3194 49.8264
57 1 3.54166 33.4981 50.1261
44 1 3.65264 35.6833 50.1552
43 1 3.80243 36.0815 49.3268
45 1 4.57457 35.2541 50.3194
50 1 5.95427 32.9652 51.2059
59 1 3.92449 32.5456 50.9391
49 1 5.4853 33.6622 51.7025
51 1 5.10833 32.3865 51.4297
46 1 4.2174 34.2588 50.3411
54 1 5.42911 32.5331 49.9335
52 1 5.76154 32.0119 50.8066
55 1 5.20409 33.334 50.5449
60 1 4.17825 32.3948 49.9632
58 1 4.20343 33.4182 50.885
42 1 4.6032 36.6546 49.1334
41 1 4.62641 36.2726 50.0268
ITEM: TIMESTEP
4000
ITEM: NUMBER OF ATOMS
500
ITEM: BOX BOUNDS pp pp pp
-3.9622629606957886e+00 6.3962262960695639e+01
-3.9622629606957886e+00 6.3962262960695639e+01
-3.9622629606957886e+00 6.3962262960695639e+01
ITEM: ATOMS id type x y z
254 1 56.7103 63.9554 -3.46576
259 1 58.1258 63.8733 63.7257
161 1 57.1841 63.8653 63.5731
162 1 56.9204 -3.10626 63.7042
164 1 56.682 -2.28114 62.7475
241 1 58.4608 63.5083 61.5141
171 1 55.7595 63.0478 63.102
253 1 55.8574 -3.94343 63.8931
244 1 56.5098 -3.5034 61.7008
165 1 55.7347 -1.87807 62.7629
243 1 57.3595 -3.75537 61.239
248 1 57.0306 -1.61735 63.7933
454 1 29.6792 2.1803 -1.16386
170 1 54.99 63.4802 62.7446
246 1 57.7537 -2.21462 62.0576
247 1 57.3658 -1.4905 62.8052
458 1 31.0818 1.56664 -0.85907
260 1 58.4025 -3.6473 62.7901
257 1 58.0154 -3.03783 63.8118
163 1 57.5195 -2.91535 62.9632
249 1 56.0974 -1.61173 63.7065
252 1 55.0948 -3.39146 63.4394
251 1 55.5697 -2.85969 -3.82159
250 1 56.4811 -2.3395 -3.64035
453 1 29.2869 2.95268 -1.78313
441 1 29.6473 0.493221 -0.0417223
169 1 55.2169 -3.78385 61.9016
168 1 54.7438 -3.08761 62.3971
166 1 55.0363 -2.24959 63.4511
167 1 54.5582 -2.08548 62.5112
455 1 30.1035 1.84161 -0.324442
457 1 30.5314 1.43923 -1.60367
456 1 29.8338 1.06974 -0.960585
459 1 30.6873 0.628597 -0.571185
460 1 30.6059 0.894111 0.343166
450 1 28.1651 2.57169 -2.04207
451 1 28.6255 1.90415 -1.34157
442 1 29.6784 -0.0417608 -0.960907
452 1 29.1591 2.06431 -2.18841
449 1 28.6163 3.06552 -2.84924
444 1 30.2345 0.395073 -1.79572
443 1 29.1982 -0.0191872 -1.7735
445 1 29.5122 1.13676 -1.91643
427 1 62.8226 -0.780409 3.82153
297 1 35.5741 -2.15105 5.75373
298 1 35.0301 -2.39927 5.06263
300 1 35.8802 -3.29181 5.17813
299 1 35.4515 -2.97055 4.30303
428 1 62.6395 -0.219988 3.20569
447 1 28.5823 1.49617 -3.05396
448 1 28.085 2.40773 -3.53017
446 1 29.417 1.10084 -2.90868
425 1 62.8721 -1.65847 4.54008
281 1 37.6495 -1.60715 1.52239
282 1 37.3999 -2.41601 1.99527
424 1 63.0204 -0.763854 4.92478
426 1 63.4893 -1.25704 3.87134
311 1 -3.81067 -0.457342 4.60085
295 1 36.237 -2.22992 4.80944
296 1 36.0124 -1.50231 5.29964
312 1 63.3815 -0.013807 4.01004
431 1 63.1797 1.00214 3.53192
432 1 62.2932 0.709939 3.43455
433 1 61.6338 1.09387 3.9526
429 1 63.5892 -0.0511821 2.89603
430 1 -3.87369 0.550631 3.38165
435 1 62.7032 1.61345 4.23936
320 1 61.6734 0.281474 5.49294
159 1 25.2087 6.39416 6.56352
288 1 37.0079 -2.97078 2.82306
284 1 36.1353 -1.71276 2.35911
283 1 36.628 -2.02797 1.6106
309 1 -3.42325 0.278906 5.4004
310 1 -3.88641 0.516021 4.61741
286 1 37.0912 -1.09181 2.42388
287 1 36.9461 -1.98094 2.84981
293 1 36.0484 -1.53009 3.3399
285 1 36.1802 -0.762044 2.38635
294 1 35.5495 -1.88522 4.1589
422 1 63.1032 0.419164 6.29402
316 1 60.9727 -0.768278 5.17045
314 1 62.0523 -0.215488 4.59135
315 1 61.4698 -0.817462 4.16302
423 1 62.9807 -0.0700495 5.40527
313 1 62.7236 0.561493 4.53862
307 1 -3.14814 1.43431 5.12335
306 1 -2.37811 1.89566 5.74355
318 1 62.3041 -0.801544 5.60006
319 1 61.6871 -0.464591 6.22908
317 1 61.6 -1.41703 5.42247
434 1 61.9032 1.47855 4.75717
440 1 62.954 2.74301 6.30513
437 1 62.7777 1.03042 5.42136
436 1 63.4653 1.51064 4.86267
146 1 25.0338 5.07876 6.74548
160 1 25.2534 5.94242 7.45502
147 1 25.9477 4.63791 6.46559
145 1 24.1639 5.55188 6.50444
157 1 26.2142 5.11582 5.60306
158 1 25.8134 5.70947 6.16204
290 1 35.5471 -3.01256 3.30418
291 1 35.4138 -2.19768 2.94863
292 1 35.303 -1.18473 2.84712
421 1 63.8604 0.934538 5.90963
308 1 -2.5994 0.751889 5.61147
305 1 -3.10709 2.47836 5.36423
301 1 63.727 2.11897 3.69873
304 1 -3.9531 1.96805 5.63802
303 1 63.8385 2.9065 5.65452
302 1 63.9629 2.54778 4.71481
439 1 62.468 2.09113 5.75072
438 1 62.2372 1.26413 6.32006
153 1 25.462 4.36557 5.52632
148 1 25.2742 3.97858 6.69946
154 1 26.1424 3.65756 5.71901
149 1 24.3903 3.53182 6.32082
152 1 24.6026 4.49657 5.98528
155 1 26.9928 4.21725 5.85738
156 1 26.4914 4.37483 5.04149
144 1 24.8962 5.44748 5.79558
141 1 25.5318 4.63737 4.26129
289 1 36.4112 -2.54618 3.54015
150 1 23.6579 3.85031 5.68608
151 1 24.1956 4.28399 5.09571
142 1 25.6206 5.34945 4.87518
143 1 24.6957 5.31042 4.85361
15 1 21.5576 9.86113 12.3591
14 1 21.2903 9.55525 11.4982
19 1 23.1772 8.66603 11.0597
20 1 22.6059 7.97093 10.8075
12 1 22.2939 9.29883 10.1955
16 1 21.5079 10.6021 11.7315
17 1 22.4426 10.1592 11.3553
5 1 24.3734 9.77646 10.9125
13 1 22.08 8.92476 11.1973
18 1 23.0969 9.44268 11.706
4 1 24.2406 9.0145 10.2532
6 1 23.7926 10.6092 11.1055
2 1 24.62 9.20195 9.24486
3 1 24.7036 9.90542 9.72359
11 1 23.1857 8.94775 9.72343
10 1 23.2513 9.61795 10.4659
9 1 23.7005 10.3086 9.93842
8 1 22.6325 10.2813 9.98741
7 1 23.1349 11.0451 10.3664
1 1 24.2107 9.42113 8.31541
80 1 18.7336 55.8591 17.0357
76 1 17.6633 55.1072 15.3013
74 1 18.5329 54.5281 14.8764
69 1 19.2482 56.1072 16.0264
63 1 17.8838 56.6982 14.1721
75 1 17.9518 54.1517 15.6508
72 1 18.2725 55.8788 14.857
73 1 18.7326 55.2803 15.4301
68 1 18.1737 56.2631 15.929
67 1 17.1948 55.981 16.0722
65 1 17.025 55.961 14.8755
64 1 17.6473 55.7397 14.0336
62 1 17.4351 57.125 14.9668
79 1 18.2264 55.2493 16.4229
78 1 17.9151 54.4443 17.0148
77 1 17.3193 54.6798 16.2381
70 1 19.665 56.3752 15.1061
71 1 18.6208 56.8752 15.1686
66 1 16.4729 55.5823 15.5919
61 1 17.6095 57.2821 15.9305
392 1 44.0313 58.6341 20.0022
390 1 44.0836 60.318 20.4727
391 1 43.6242 59.5624 19.821
389 1 43.9327 61.2006 20.0032
398 1 43.7871 58.9351 23.4655
397 1 43.0786 59.3606 22.684
395 1 43.8793 58.7427 21.8495
400 1 45.4417 59.0246 22.4639
396 1 44.1 59.5695 22.5267
262 1 43.8489 60.6836 22.2331
393 1 44.565 59.2219 20.7704
394 1 44.399 58.268 21.4616
387 1 44.7585 62.0497 20.9587
275 1 44.3052 60.8323 23.1616
280 1 43.9329 60.6477 24.2991
274 1 44.6232 59.8591 23.3569
279 1 43.069 59.9237 24.3316
261 1 43.1566 61.061 22.0356
263 1 43.8621 59.9153 21.6475
265 1 42.035 60.6154 21.9765
388 1 44.8775 61.2633 20.2827
385 1 43.5457 61.0157 21.061
272 1 44.8647 59.5787 21.8315
273 1 45.1021 60.172 22.4978
382 1 42.4864 59.4974 20.2215
399 1 44.65 58.8122 23.1133
264 1 42.8689 60.0672 21.8242
276 1 43.2924 60.9446 23.4563
278 1 43.6018 59.9883 23.4061
277 1 42.8826 60.3914 22.891
266 1 42.4314 61.2184 21.4461
267 1 43.2409 61.9817 21.5203
386 1 44.317 61.3816 21.4454
270 1 44.9341 61.1256 22.227
271 1 44.8421 60.4721 21.4246
384 1 42.9933 60.6194 20.3387
383 1 42.5119 60.2478 19.6679
381 1 43.3454 59.4774 20.9205
268 1 44.1753 62.4602 21.7078
269 1 44.2536 61.8441 22.4579
228 1 44.3841 9.48091 34.8576
226 1 43.7592 10.1155 34.3123
227 1 44.7685 10.2216 34.3517
223 1 42.0133 9.53324 34.3987
222 1 42.5973 10.3762 34.648
224 1 42.935 9.18354 34.1997
236 1 42.9271 9.59172 35.6711
229 1 44.8635 8.54022 35.0889
230 1 44.9911 9.21711 35.794
235 1 42.1358 8.85914 35.2687
231 1 44.8699 8.30133 36.2458
232 1 44.182 7.52247 35.9171
225 1 43.5255 9.68629 33.4602
239 1 44.1188 10.4332 36.2033
238 1 44.1553 9.62747 36.4536
112 1 34.2242 54.1932 34.2138
113 1 33.7097 53.9356 33.4248
116 1 34.0399 55.1531 33.7922
115 1 33.1353 55.4123 33.3905
406 1 -2.3093 60.8747 36.5962
234 1 42.944 8.09837 35.0565
221 1 42.0837 10.9504 35.1461
237 1 43.6539 8.98618 35.7512
233 1 43.2496 7.79132 35.8994
240 1 44.079 10.6678 35.2238
101 1 34.1248 54.0914 31.9487
110 1 34.8404 55.1108 34.4764
111 1 34.0373 54.9146 34.8916
108 1 34.7422 54.495 32.6775
109 1 35.0752 54.6155 33.5925
103 1 32.9923 54.4606 31.8141
102 1 33.2974 53.6953 32.4086
117 1 33.9368 55.9922 34.4015
119 1 35.0894 55.8713 33.5025
118 1 34.7576 56.539 34.1965
114 1 33.39 54.5969 32.9194
105 1 33.9113 55.1259 31.9285
126 1 63.596 58.2808 36.1498
125 1 62.6677 57.9874 36.531
404 1 -1.61768 60.753 35.5449
402 1 -1.22326 59.3807 35.4066
403 1 -0.881351 60.1176 36.1138
405 1 -1.863 60.1372 36.444
410 1 -3.66131 60.7685 38.0006
340 1 -1.2466 58.4779 37.4446
409 1 -3.4846 60.4239 37.0184
407 1 -2.85872 60.8976 35.7572
408 1 -3.04731 59.9333 36.2604
120 1 35.7867 55.4829 34.0688
107 1 35.0004 55.2402 32.1842
104 1 32.9774 55.3503 32.0562
122 1 62.7174 58.1809 37.5654
121 1 63.4216 57.3885 37.2941
123 1 63.3953 58.4841 37.2486
106 1 34.2449 55.6214 32.7646
124 1 62.7798 58.8895 36.6676
401 1 -0.198404 59.6518 35.4571
127 1 -3.31848 58.6136 36.0658
130 1 -2.3445 57.9727 37.5253
411 1 63.8448 59.8947 38.1119
129 1 -2.44593 58.2282 36.5588
339 1 -1.77907 58.998 36.6985
413 1 62.4526 58.9389 38.1528
412 1 63.146 59.5514 37.638
464 1 -1.20194 61.5303 36.6541
462 1 -0.314701 61.2177 37.0777
498 1 62.6635 59.7656 38.6903
463 1 -1.01389 60.616 37.0668
461 1 -0.443549 61.8947 37.8874
373 1 -3.84997 56.7232 38.0015
420 1 62.3597 56.0727 38.7672
371 1 63.3905 55.704 39.0738
375 1 -2.49083 56.6806 37.6386
419 1 63.0382 56.6448 39.0297
361 1 63.723 57.7548 40.1208
372 1 63.3179 55.9946 38.0984
374 1 -3.02262 57.1148 38.4307
416 1 61.9418 56.6875 39.9545
418 1 62.681 57.449 39.0125
417 1 61.8259 57.0038 38.9021
128 1 -2.73868 57.8574 35.7108
486 1 63.2054 58.1815 38.526
133 1 63.8282 57.4325 38.9408
131 1 -3.08548 57.4992 37.2557
132 1 -3.69731 57.8707 37.9805
414 1 61.8468 58.1085 38.5884
415 1 61.9789 57.781 39.614
485 1 63.8266 58.8654 38.1258
483 1 -2.96074 58.82 37.9812
484 1 -3.42725 58.4894 37.2514
185 1 -3.43091 59.4287 38.8006
338 1 -2.55314 59.2738 37.1134
482 1 -1.97718 58.397 38.3476
495 1 62.1907 60.035 40.0156
500 1 62.8277 61.3821 39.3163
499 1 62.8642 60.6428 38.5187
465 1 -0.497543 61.3109 35.7605
186 1 -2.59087 59.0636 38.9027
466 1 -1.11996 61.7961 35.153
335 1 -2.40503 61.0828 38.486
337 1 -2.83582 60.0803 37.7931
336 1 -2.63971 60.9602 37.4877
497 1 61.9971 59.0857 39.2496
467 1 -2.05649 62.2485 35.1445
471 1 -2.09951 62.2 38.1582
370 1 63.4489 55.7639 40.0895
368 1 61.8389 55.3305 41.0754
376 1 -2.56062 56.0976 38.3097
367 1 62.6158 55.3305 41.6095
362 1 -3.78494 56.9461 40.3404
380 1 -1.80303 56.5356 39.6473
377 1 -3.47264 55.5948 38.2723
365 1 63.4356 56.495 41.7256
366 1 63.5811 55.5188 41.349
136 1 63.8632 58.5556 40.7662
135 1 -3.8098 58.8716 39.9046
134 1 -3.5867 58.2213 39.3753
378 1 -3.70577 56.2777 39.1612
493 1 61.819 59.1788 41.844
489 1 62.7077 57.8906 40.5079
363 1 63.1913 56.8104 40.4445
488 1 62.2904 58.6025 40.1572
487 1 62.9034 58.4594 39.4396
364 1 62.6525 56.2562 41.084
184 1 63.5501 59.2364 39.0105
481 1 -1.97576 59.3722 37.8735
189 1 -1.10701 58.5303 40.3959
494 1 61.8508 59.696 40.9553
496 1 61.4427 59.2392 39.9622
183 1 63.0424 59.5983 39.6941
182 1 62.9565 59.1918 40.7147
330 1 -2.74041 60.2392 38.8283
468 1 -2.00949 61.8408 36.041
331 1 -2.65743 59.6136 39.7349
188 1 -0.939948 58.5359 39.5254
187 1 -1.54718 59.1321 38.9722
321 1 61.347 60.7437 40.7987
329 1 -3.54465 60.2104 39.5348
469 1 -2.25647 62.0506 37.0952
333 1 -2.75502 60.9138 39.7126
334 1 -3.20803 61.5037 38.9572
470 1 -1.63667 61.631 37.5932
473 1 -1.48396 62.3132 39.8779
472 1 -2.09906 62.0685 39.2217
328 1 63.6994 60.8141 38.9788
326 1 63.639 60.9419 40.6713
327 1 63.2632 60.5306 39.9377
350 1 62.621 -3.76662 42.9649
351 1 62.2219 -3.85523 41.9884
369 1 62.7751 55.0749 40.566
138 1 63.415 58.2067 42.2224
137 1 63.9198 57.8264 41.398
379 1 -2.79389 56.6248 39.4356
195 1 -2.94481 57.2839 40.92
192 1 -2.62245 57.9032 39.0337
490 1 61.7082 57.6469 40.7924
491 1 62.5244 57.2638 41.3421
217 1 -3.5609 58.5142 41.9534
478 1 -2.59767 59.2847 41.0761
216 1 -3.70161 58.75 42.9266
190 1 -1.67537 59.2749 40.4002
191 1 -2.41935 58.5875 39.8606
194 1 -2.5397 57.503 40.0989
193 1 -1.80652 57.7301 39.5821
492 1 62.6452 58.4774 41.5044
181 1 63.4691 59.1902 41.5589
139 1 62.6029 57.5786 42.395
140 1 61.7883 58.0672 42.0528
218 1 -3.52755 59.2792 41.3844
479 1 -3.06753 60.0425 40.5026
332 1 -1.99977 60.3662 39.7925
480 1 63.8355 59.7679 40.6404
202 1 -0.750727 60.9464 40.1368
201 1 -0.891465 60.3144 39.3328
322 1 61.9464 60.6351 41.4801
219 1 -3.43436 60.2288 41.538
323 1 61.9982 61.5283 41.2739
476 1 -2.7955 60.9898 40.9112
98 1 63.906 61.4076 41.7036
474 1 -1.59517 61.6274 40.6064
204 1 -1.41655 59.4741 41.4262
475 1 -2.54662 61.8619 40.3085
205 1 -2.28343 59.7617 41.9662
324 1 62.3869 61.2145 40.3375
325 1 62.6069 60.4156 40.7996
96 1 -3.64249 62.0106 40.9455
97 1 -3.07146 61.7012 41.6975
91 1 62.3411 63.227 41.4819
90 1 61.7252 62.5612 41.0528
88 1 62.2269 61.5092 42.6917
89 1 62.1659 62.2564 42.0452
349 1 63.4834 -3.48109 42.865
360 1 -3.60388 62.1968 43.6033
358 1 -2.65155 61.6184 42.9085
83 1 61.6193 62.187 43.1681
84 1 62.1512 63.0725 43.2896
354 1 -3.7407 63.6188 42.4212
352 1 63.0673 -3.8732 41.6098
353 1 63.9252 -3.90288 41.6316
348 1 63.4837 63.4925 43.1746
197 1 -2.21309 58.3624 41.1954
215 1 -3.63803 57.8122 43.4548
214 1 -3.68375 57.2701 42.6312
198 1 -1.6745 57.661 40.5867
196 1 -3.06309 58.3299 40.747
200 1 -0.123405 57.7379 40.9781
199 1 -0.752303 57.4696 40.2159
477 1 -2.18623 60.1765 40.9907
212 1 -2.80149 57.8143 42.2248
213 1 -3.46545 56.9199 41.8565
203 1 -1.03857 60.232 40.6931
25 1 54.9038 61.0156 43.8127
36 1 53.957 61.0736 44.3088
22 1 54.9139 62.7575 44.0881
21 1 54.1637 63.4616 43.8315
220 1 63.7262 60.3887 42.3048
100 1 62.6486 59.9115 41.8089
99 1 63.004 60.8906 41.6322
206 1 -2.29381 60.7674 41.9832
207 1 -2.71307 60.5024 42.8813
24 1 54.8164 61.728 44.5838
26 1 55.0388 60.4715 42.9882
35 1 53.9521 61.9964 44.0317
23 1 55.5544 62.008 43.813
33 1 53.1562 61.463 43.4787
34 1 54.1338 61.3122 43.2582
32 1 52.6012 61.4799 44.3556
92 1 62.8649 63.0743 42.3233
95 1 -3.79958 62.9406 41.4924
94 1 63.8808 62.5242 42.3567
93 1 63.2473 62.4939 41.7792
355 1 -3.06965 63.2225 42.9246
87 1 62.8571 60.9138 42.8194
86 1 63.3509 61.6461 42.5423
347 1 63.6655 62.9865 43.9195
356 1 -2.94972 62.603 42.3478
357 1 -2.11831 61.9059 42.1763
359 1 -3.61345 61.4742 42.976
82 1 61.0533 63.0707 43.1201
85 1 63.0933 62.4218 43.041
81 1 60.4392 63.6924 42.5768
345 1 61.8267 62.6238 44.2561
346 1 62.7989 62.5584 44.0597
344 1 62.1515 62.8435 45.084
210 1 -1.97689 58.7646 43.2316
211 1 -2.44598 58.7129 42.238
39 1 54.6112 60.2254 44.5522
38 1 54.0276 60.6106 45.3346
37 1 53.422 61.2308 45.0728
209 1 -2.71201 59.3625 43.1555
208 1 -3.21059 59.7229 42.4672
40 1 55.434 59.993 44.133
27 1 54.2277 60.1127 43.4367
28 1 53.2279 60.4568 43.6836
29 1 53.4386 60.1142 44.6186
30 1 52.8131 60.3027 45.4967
31 1 52.2203 60.8973 45.0021
343 1 61.1571 62.9826 45.5439
342 1 60.7355 62.333 44.8816
341 1 61.1901 61.9164 44.0632
56 1 5.25714 34.4069 51.7929
43 1 7.28994 32.1471 51.3842
42 1 7.41679 33.2206 51.1759
59 1 5.07816 35.7559 52.3088
60 1 4.37382 36.2013 51.6259
53 1 4.23044 34.9437 50.3893
54 1 5.22223 34.7001 50.4371
52 1 4.24165 34.7774 51.4216
57 1 5.51455 34.5293 52.8543
58 1 4.70629 35.0708 53.0086
55 1 5.32016 35.3193 51.2511
50 1 4.48228 34.1017 52.6139
46 1 5.9425 34.0579 50.8735
47 1 5.05881 33.6 50.7226
45 1 6.22263 33.6863 51.7976
48 1 5.15764 33.4207 51.607
44 1 6.56853 32.8121 51.6404
41 1 7.24171 33.9572 51.8357
51 1 3.84174 34.9282 52.4221
49 1 4.21907 33.8098 51.6946
176 1 56.0067 -2.23032 61.3049
177 1 56.8417 -1.77525 61.6512
180 1 57.2559 -2.73508 59.5696
255 1 57.1376 -3.12656 -2.92276
256 1 57.8559 -3.53423 -3.29398
242 1 57.6833 63.7844 62.0561
178 1 56.9985 -1.54295 60.6358
179 1 56.5411 -2.3768 60.1996
175 1 55.8969 -2.86855 62.1335
173 1 56.6869 -3.52212 62.7592
172 1 56.3251 63.5924 62.4077
245 1 57.0037 -2.7872 61.8008
174 1 55.9056 -2.86806 63.0337
258 1 58.9775 -3.48091 -3.81476
ITEM: TIMESTEP
5000
ITEM: NUMBER OF ATOMS
500
ITEM: BOX BOUNDS pp pp pp
-4.9766599275435510e+00 6.4976659927543182e+01
-4.9766599275435510e+00 6.4976659927543182e+01
-4.9766599275435510e+00 6.4976659927543182e+01
ITEM: ATOMS id type x y z
251 1 56.2877 -4.36998 61.9495
255 1 58.1598 64.8793 63.5374
256 1 57.7615 -4.17816 63.8169
258 1 57.1775 -4.38933 62.9921
250 1 57.174 -4.26695 61.605
447 1 33.1821 1.44759 -2.10918
446 1 32.8681 0.89164 -2.91697
448 1 32.4568 1.80698 -2.64633
449 1 31.4985 1.84644 -2.29613
254 1 57.7828 64.3612 62.8269
443 1 33.4397 1.82322 -3.13695
445 1 33.7001 0.397733 -3.15398
457 1 32.5706 1.29926 -3.88184
444 1 33.645 1.1126 -3.9146
450 1 31.1267 0.802743 -2.32611
454 1 31.024 0.198393 -3.92171
453 1 31.2842 -0.311004 -3.05408
451 1 32.0291 0.912629 -1.89859
452 1 32.0699 0.22449 -2.52105
442 1 33.0099 2.68504 -3.16859
441 1 32.065 2.47187 -3.39362
456 1 31.7694 1.14955 -3.30323
458 1 32.7961 2.17764 -4.29701
459 1 31.9502 1.6005 -4.70212
455 1 31.9719 0.324724 -3.86299
283 1 34.8059 -2.8691 3.17199
281 1 36.1607 -1.63955 3.17777
460 1 31.8254 0.680733 64.9556
288 1 36.5489 -2.94038 2.95295
291 1 36.002 -2.2197 2.24601
292 1 35.4796 -3.06509 2.21853
284 1 35.4652 -3.62754 3.50235
287 1 36.6288 -3.8685 3.19199
282 1 35.6193 -2.32304 3.4641
285 1 36.1614 -3.30492 4.04681
286 1 37.1393 -3.22846 3.752
429 1 61.1224 -0.415963 4.40224
299 1 36.6215 -1.6388 1.13936
290 1 36.9975 -2.14793 2.13218
294 1 36.3442 -3.61689 2.04505
293 1 35.6524 -4.07215 2.41186
289 1 37.5219 -2.50021 2.93184
426 1 62.9169 -1.04745 4.79716
315 1 61.6374 0.401276 5.67358
427 1 62.2587 -0.605201 5.46058
428 1 61.5104 -1.05907 5.06971
312 1 63.3291 -0.234641 3.89986
430 1 61.4733 0.322494 3.73222
432 1 63.0797 0.886751 4.1711
433 1 62.2365 1.35269 4.50074
431 1 62.3648 0.591227 3.54389
435 1 62.4722 1.15099 5.45901
301 1 62.8533 2.9644 3.09257
141 1 27.5615 5.10927 7.08613
300 1 36.0814 -1.41467 0.354416
297 1 35.1391 -1.96152 1.47302
298 1 35.899 -1.26389 1.7621
295 1 36.7995 -2.88902 1.38807
296 1 35.9044 -2.67316 1.28585
317 1 62.0026 -0.255047 6.42571
425 1 63.5487 -0.724116 5.32639
311 1 63.9594 0.171084 4.46573
316 1 61.1086 0.271384 6.59095
320 1 62.8247 -1.09038 6.16599
314 1 61.8807 0.246927 4.76819
318 1 61.3753 -0.944984 6.17284
424 1 64.4139 -0.381696 6.05766
423 1 63.9389 0.454985 5.60851
309 1 64.4216 1.74684 4.80093
310 1 64.114 1.0735 4.09131
307 1 64.4078 3.46742 5.13346
308 1 64.3523 2.78574 4.31976
434 1 61.551 1.25142 4.92052
313 1 62.5602 -0.165818 4.37656
437 1 63.2106 -0.0588209 6.18985
436 1 62.9955 0.327693 5.25675
421 1 63.1778 1.87194 4.88619
305 1 63.1972 2.84515 4.42078
304 1 63.5072 2.01839 3.83665
302 1 63.3901 2.04983 2.78705
306 1 63.5328 3.63096 4.76009
439 1 62.1394 1.12453 6.56668
303 1 62.616 1.78507 3.41822
150 1 26.4554 3.81202 7.20217
151 1 26.8399 2.94574 6.75418
153 1 27.3816 3.83954 6.51124
154 1 26.9459 4.71378 6.28092
155 1 26.5248 4.20846 5.50943
156 1 25.555 4.39197 5.67146
144 1 27.975 3.99837 5.52191
142 1 28.0426 4.68021 6.28465
143 1 27.5572 4.90495 5.38327
157 1 25.7201 4.2593 4.6836
319 1 61.9987 -1.6482 5.75147
438 1 63.0572 0.709797 6.73909
422 1 63.6465 1.1809 5.33535
440 1 61.4323 1.6423 6.3765
148 1 25.3812 3.38524 5.67274
149 1 25.9235 3.75853 6.37589
152 1 26.92 3.24908 5.88716
145 1 27.4074 3.34423 4.91419
146 1 26.7744 2.57901 4.57095
147 1 26.0767 3.21452 4.94515
158 1 26.392 4.91798 4.70061
159 1 27.1996 4.4094 4.52496
160 1 26.5598 3.72934 4.0994
1 1 19.564 9.26889 13.5274
11 1 19.3665 9.52319 10.93
2 1 20.6218 9.09947 13.6568
3 1 20.6631 9.97032 13.423
8 1 19.6485 9.76798 11.9693
9 1 18.8001 9.50009 12.4999
20 1 20.5067 11.0047 11.32
19 1 21.1548 10.6932 10.5213
14 1 19.2702 10.8723 10.2916
12 1 19.0359 10.3974 11.3666
17 1 20.4013 9.45763 10.476
13 1 18.6164 11.1758 10.963
4 1 20.416 10.4135 12.6621
10 1 18.5019 9.47966 11.656
5 1 21.1065 10.0689 12.0544
6 1 21.3333 9.24516 12.613
7 1 20.2358 9.29774 12.6101
15 1 20.1956 10.5795 10.1275
18 1 20.813 9.98101 11.1502
16 1 21.004 9.96028 9.8235
63 1 16.1435 57.7007 13.1924
64 1 16.147 56.8771 12.6019
76 1 18.4699 55.3399 12.7674
74 1 18.8788 55.8132 11.9232
75 1 19.1319 56.0846 12.7013
73 1 17.8503 55.6457 11.7065
65 1 17.0052 56.3562 13.023
66 1 17.9798 56.6213 12.6871
72 1 17.1776 54.7393 12.0385
71 1 17.3696 55.468 12.6303
70 1 16.8094 55.8959 11.8572
62 1 17.0729 57.4736 13.3148
79 1 17.5859 56.3417 14.7704
78 1 17.8046 56.6386 13.8399
77 1 18.4508 55.9369 13.5835
67 1 18.6484 57.0992 12.0481
68 1 18.0197 57.0737 11.4614
80 1 17.028 55.568 14.1329
69 1 17.2287 56.8504 12.0352
61 1 16.6962 57.3659 14.1549
392 1 47.3851 59.2094 22.5817
391 1 47.9179 58.6575 21.886
383 1 45.8889 61.083 20.5482
389 1 47.1539 58.548 21.105
394 1 45.7433 59.0629 22.5667
382 1 45.2191 61.9115 20.7212
381 1 44.5445 61.2832 20.938
393 1 46.6593 58.7055 22.1996
390 1 47.9724 57.9329 21.3024
385 1 46.7431 60.2471 21.6272
384 1 46.4365 61.0807 21.3584
271 1 44.3228 63.1802 22.1622
266 1 44.5816 60.7142 22.6927
267 1 44.1504 60.62 21.8507
387 1 45.8096 60.0736 21.3596
388 1 46.4262 59.3491 21.0665
386 1 46.6395 60.2548 20.6511
397 1 45.8158 60.2346 24.0892
395 1 46.42 59.6908 23.0247
396 1 45.4189 59.7294 23.4959
400 1 45.7649 59.9636 25.6792
272 1 44.381 62.2372 22.3995
265 1 45.1565 60.8652 21.8793
262 1 45.394 62.1069 22.7048
261 1 45.867 61.8576 21.8595
263 1 45.6199 61.0946 22.9235
264 1 45.7545 60.0945 22.3397
277 1 44.2901 59.4973 23.8249
273 1 43.923 61.4935 22.9533
270 1 44.7871 62.5306 21.529
268 1 43.9372 61.5625 21.8176
269 1 44.021 62.1827 21.044
398 1 45.8884 60.8602 24.829
399 1 45.0027 60.6967 25.2667
280 1 44.5737 61.0448 23.6928
279 1 44.1522 60.7989 24.6359
276 1 44.073 59.2824 22.9725
278 1 44.878 60.1306 24.2964
275 1 43.7142 60.2323 23.24
274 1 43.3392 60.8071 22.7203
102 1 32.6586 55.936 32.7963
101 1 31.8314 55.4297 32.4678
103 1 33.49 56.3676 33.2081
105 1 32.9933 57.0566 31.5205
104 1 33.3567 56.5245 32.2072
108 1 33.1275 55.3848 31.7183
107 1 32.3899 56.1093 31.493
106 1 33.0304 56.2916 30.8311
224 1 45.2879 8.79954 35.3499
225 1 45.18 9.56103 35.9308
113 1 34.389 54.7475 32.3151
112 1 34.119 54.7188 31.3555
116 1 34.1302 55.7756 31.9273
115 1 34.8909 55.4291 31.4362
114 1 35.0147 54.4136 31.7674
109 1 32.7567 55.1142 30.9339
119 1 33.7557 56.9328 30.3547
118 1 34.6138 56.6996 30.7744
120 1 33.8836 56.1859 29.7075
234 1 43.9208 9.98244 37.315
229 1 45.5904 7.41479 35.9344
223 1 44.382 9.23757 35.2714
235 1 44.4014 10.6062 36.7326
226 1 46.0443 9.44293 36.5136
228 1 45.9891 8.28404 35.8045
222 1 44.2232 9.07257 36.1363
221 1 43.5045 8.96824 35.5039
240 1 42.8787 8.53999 37.9953
227 1 46.3414 9.14595 35.5905
111 1 33.8734 55.5161 30.8498
110 1 33.256 55.484 30.0816
117 1 33.9884 56.4614 31.3892
402 1 -1.78121 63.5903 36.172
401 1 -2.43938 62.8563 36.1214
404 1 -3.10611 63.6935 36.938
467 1 -2.96532 62.7797 37.804
466 1 -2.00002 62.7927 38.0132
233 1 43.2751 9.39243 37.5253
231 1 44.3994 8.22029 37.0637
232 1 43.4782 8.67771 36.8505
236 1 45.2934 10.0442 37.0077
237 1 44.9245 9.14773 37.1493
230 1 45.2402 8.18044 36.6408
238 1 44.3236 8.6671 37.9598
239 1 43.7601 8.29462 38.4325
128 1 -3.97043 59.7752 37.6991
129 1 -4.37288 59.0149 37.3124
126 1 -4.42402 59.322 36.3297
125 1 64.6939 59.7968 36.0236
127 1 -3.86463 60.0041 36.7395
339 1 -3.99712 60.9523 37.9286
124 1 64.2362 60.1407 36.8431
409 1 64.233 61.1941 37.3662
407 1 -4.89512 62.2578 38.0101
408 1 64.1482 61.9252 38.0042
406 1 -4.22149 62.6338 37.2746
405 1 -4.00841 63.6385 37.0358
403 1 -2.11941 63.7585 37.0263
463 1 -1.53921 63.3726 38.8787
464 1 -1.25945 62.421 38.8617
468 1 -3.36409 63.5622 37.9871
465 1 -2.009 61.9573 38.3821
373 1 -4.8625 57.4869 39.2187
376 1 -4.32232 56.0077 39.467
377 1 -3.97383 56.801 39.2019
375 1 -4.74214 55.6229 38.7956
372 1 64.6235 57.0607 40.0408
374 1 64.8998 56.5714 39.0252
131 1 64.5091 59.1414 37.9033
132 1 64.6098 58.4407 38.5991
130 1 -4.88284 58.3322 37.7576
122 1 64.7784 58.6728 36.0684
121 1 64.4655 58.2262 36.8432
483 1 -4.5978 60.4165 38.7585
484 1 64.5957 59.8315 38.576
338 1 -3.4362 61.6764 38.1712
340 1 -3.27228 60.5003 37.6911
482 1 -3.73946 60.8861 38.9609
481 1 -3.64623 61.7267 39.4079
413 1 63.0159 59.7054 38.2947
123 1 64.1015 59.1298 36.6944
412 1 63.2499 60.1859 37.1582
485 1 63.9162 59.2205 39.1324
410 1 64.8256 60.4574 37.7742
337 1 -4.37778 61.6397 38.6909
336 1 -4.49038 62.6391 38.9859
335 1 -3.69517 62.7315 38.6456
411 1 63.8835 60.2309 37.8624
471 1 -2.98863 63.5208 39.1036
469 1 -3.68959 64.5625 37.9189
470 1 -3.72378 63.8672 38.8175
462 1 -1.41598 64.2114 38.6798
461 1 -2.44323 64.2337 38.4358
378 1 -3.76921 56.7711 40.2578
379 1 -4.52001 56.8208 41.0528
380 1 -3.85974 56.1487 41.2565
420 1 63.5867 57.5566 39.9087
371 1 63.9493 56.2698 39.7816
419 1 64.3412 58.0515 39.7478
134 1 64.3959 59.2308 40.0732
192 1 -4.43549 59.4566 40.1848
193 1 -4.38879 58.7318 40.8841
417 1 63.7087 57.9102 38.6429
414 1 63.4904 59.0431 37.6756
415 1 62.6033 58.7667 37.8608
418 1 64.1027 57.1692 39.1227
486 1 63.4135 58.8799 39.7944
133 1 64.8555 58.8993 39.3109
185 1 64.2577 60.1547 39.5766
186 1 64.9753 60.2859 39.9252
135 1 64.5522 58.9536 41.256
331 1 -4.02129 61.7407 40.4266
187 1 -3.93831 60.7665 39.9361
191 1 -3.75957 59.6398 40.9183
188 1 -3.60238 59.7977 39.8453
497 1 62.9117 60.7637 38.6223
487 1 62.4413 58.9955 39.6564
184 1 63.2838 59.9333 39.4648
183 1 63.3914 60.4344 40.2282
330 1 -4.83203 62.1754 39.9715
329 1 64.7705 61.323 39.5436
333 1 -2.29582 62.1855 39.5973
332 1 -2.98042 62.0669 40.3099
201 1 -3.08027 60.3917 40.4509
498 1 62.75 61.4548 39.4476
499 1 62.6223 62.479 39.8197
328 1 64.0853 60.9531 38.925
334 1 -2.96884 62.3426 38.7776
473 1 -3.53947 62.8701 40.6786
472 1 -3.68527 62.8893 39.6227
500 1 61.9935 62.8355 40.3656
368 1 63.6407 56.8097 41.6719
369 1 63.7859 55.9057 41.7298
416 1 62.9889 58.6477 38.6657
370 1 64.2364 56.1651 40.7847
363 1 62.9932 57.526 41.2073
364 1 62.8484 57.0513 40.4325
362 1 63.9463 57.2832 40.734
195 1 -4.44048 57.7433 41.5386
194 1 64.8797 57.8429 40.6897
198 1 -3.91388 58.4115 39.1454
200 1 -3.91404 58.0096 38.0445
199 1 -4.23831 58.9929 38.4508
490 1 62.0121 58.1869 40.6029
361 1 63.7844 58.1998 40.8278
489 1 61.5078 58.5502 40.0609
478 1 -4.85548 61.2458 41.1875
196 1 -3.93477 57.6434 40.7381
190 1 -3.45376 58.8073 40.2915
197 1 -4.30185 58.0304 40.0266
189 1 -2.82636 59.1458 39.761
488 1 61.5734 59.5777 39.9674
494 1 61.6903 60.4619 40.5588
496 1 62.3042 59.9693 39.0207
136 1 63.64 59.3558 41.1015
182 1 62.7616 60.6403 41.1227
479 1 64.4004 60.7125 40.7317
476 1 -4.65128 62.4704 40.948
477 1 64.4849 61.8771 40.8048
202 1 -3.07598 61.1862 40.932
203 1 -2.95095 61.611 41.8083
495 1 62.4401 60.2876 39.9161
321 1 61.5235 61.6229 39.0108
326 1 64.116 62.264 39.2993
327 1 63.8102 61.2991 39.8583
480 1 64.9447 60.0459 41.2087
325 1 63.5657 62.1952 40.1025
475 1 -4.00412 62.009 41.4391
96 1 64.7728 62.5318 41.861
474 1 -3.79746 63.0021 41.5594
323 1 62.2048 61.7437 40.7417
324 1 63.1946 61.5201 40.7316
90 1 64.2263 64.1894 40.47
351 1 64.6756 63.8229 43.8467
352 1 64.49 62.9389 43.5575
353 1 -4.48473 62.9417 43.6578
367 1 62.6889 56.393 41.4302
365 1 61.9693 57.0974 40.9108
366 1 61.92 56.012 40.8631
214 1 -3.30831 57.9329 41.777
212 1 -3.07077 58.5578 42.7372
213 1 -2.55853 57.8494 42.4125
491 1 62.1275 58.659 41.5205
140 1 64.3347 57.2718 42.5993
138 1 63.1599 58.5464 41.8404
137 1 63.6863 59.2316 42.1645
139 1 63.8971 58.1084 42.4711
217 1 -4.19816 59.4867 42.9729
218 1 -3.96511 59.909 42.194
204 1 -2.67338 62.4824 41.5646
211 1 -2.45253 58.7011 41.9662
493 1 60.8412 59.9259 40.6327
492 1 61.299 59.184 41.0846
181 1 62.4277 59.7146 40.7478
219 1 -4.30531 60.7429 42.7343
208 1 -2.53773 60.6214 41.8401
205 1 -2.05646 62.4488 40.8016
206 1 -1.78737 61.5491 41.1021
322 1 61.8571 61.2227 39.9321
220 1 -3.94993 61.0886 41.8844
100 1 62.7913 62.3214 41.3793
99 1 63.7991 62.0189 41.5378
97 1 -4.95002 61.615 42.1994
357 1 -2.92032 61.9179 43.0904
88 1 -4.88084 63.3929 41.5177
89 1 -4.78399 63.5816 40.5729
98 1 64.0851 62.0437 42.5269
94 1 64.2579 63.2541 40.0952
93 1 63.4544 63.0985 40.6287
86 1 64.2724 63.1626 42.4113
354 1 -3.95645 63.2127 43.0606
95 1 64.3729 62.8558 41.1341
356 1 -3.21285 62.506 42.4913
81 1 63.492 60.9102 43.7675
91 1 63.2773 64.1268 40.8371
92 1 63.2558 63.5919 39.9734
350 1 64.3291 63.7662 44.7751
349 1 64.6233 62.7105 44.882
215 1 -3.82993 57.7346 42.496
216 1 -4.13044 58.5656 43.0141
209 1 -2.77225 59.7076 41.5525
210 1 -3.48733 58.9413 41.7155
207 1 -1.44941 60.7594 41.4995
28 1 54.0596 62.5999 45.826
25 1 54.8639 60.8512 46.0212
26 1 54.4294 61.0985 46.9952
40 1 55.0896 62.8937 46.5171
27 1 54.4923 61.7882 46.3213
87 1 64.3543 63.8392 41.6338
360 1 -4.62375 61.9849 44.0842
358 1 -3.9519 61.6946 43.1919
359 1 -4.73765 62.0374 43.1408
35 1 54.8433 61.2813 44.6046
33 1 56.0761 60.9722 45.1891
34 1 55.2342 60.4156 44.9961
23 1 54.1202 61.5787 45.3055
83 1 64.2749 62.0399 44.1439
341 1 63.8715 60.4731 45.8274
85 1 63.299 62.665 42.4593
355 1 -4.08137 62.4549 42.5104
22 1 53.7958 60.902 44.5786
21 1 53.7091 61.7752 44.0576
82 1 64.4668 61.3356 43.3462
84 1 63.6787 62.1644 43.5042
348 1 -4.7296 61.787 45.1637
347 1 -4.71352 60.8335 45.0935
346 1 -4.89018 60.8708 44.1216
31 1 55.7474 62.0351 44.4389
36 1 55.2034 61.6029 45.3341
38 1 56.2557 62.6386 45.7479
29 1 55.0244 62.6454 45.5233
30 1 55.6894 62.8892 44.816
39 1 56.0593 62.7414 46.7892
32 1 56.4102 61.754 44.9774
37 1 55.6739 61.9084 46.2378
24 1 53.9777 60.7439 45.8343
342 1 63.8019 61.4032 46.0269
345 1 64.4759 60.1585 44.5999
344 1 64.1282 61.0502 44.9014
343 1 63.9349 61.9805 45.1146
47 1 6.63651 35.5566 51.6207
46 1 5.61285 35.5464 51.7797
42 1 5.09792 34.4972 53.5195
53 1 6.27617 33.4914 52.203
54 1 5.63122 32.6443 52.5597
43 1 5.27937 35.5179 53.8109
44 1 5.6194 35.6739 52.8563
50 1 7.10587 36.0466 52.5306
49 1 6.19741 36.4535 52.1452
48 1 6.72871 36.5257 51.4355
45 1 5.46064 34.7831 52.5326
41 1 4.23085 34.6052 53.0852
52 1 6.88493 34.2786 51.9847
51 1 6.66254 35.1159 52.4997
56 1 5.96109 34.053 53.1104
55 1 5.32329 33.3585 53.2612
60 1 8.35398 33.6954 53.2413
59 1 7.82256 34.4376 52.906
57 1 6.33563 33.2006 53.495
58 1 7.0384 33.8109 52.9685
180 1 58.6934 -3.35501 60.0016
179 1 58.381 -4.07417 60.5576
178 1 58.6406 64.808 60.3115
169 1 55.8018 64.0544 62.4145
168 1 55.9408 64.5807 61.6738
244 1 59.0977 -4.57297 61.1685
175 1 57.5096 63.5073 61.6818
243 1 59.3415 64.8779 61.9865
245 1 59.437 -3.71802 60.7091
167 1 56.4745 63.9515 61.4834
176 1 58.347 63.9994 61.8098
177 1 58.4261 64.0245 60.9497
246 1 58.8826 -3.19466 61.2673
172 1 57.5076 63.6595 63.4762
242 1 58.8881 64.2951 62.5471
241 1 58.4414 63.2831 62.7563
252 1 56.9649 64.8947 62.1789
253 1 56.9089 64.5892 63.2755
173 1 57.0614 62.9952 62.8763
174 1 56.858 63.8427 62.4473
162 1 58.3512 -4.70442 62.4976
257 1 56.8456 -4.41627 63.9443
163 1 58.2204 -4.1429 61.6127
260 1 57.0546 -2.81014 63.0261
166 1 56.8362 64.6213 60.95
164 1 57.8429 64.9355 61.1624
165 1 57.2435 -4.44775 60.5696
249 1 56.9676 -3.33373 61.3938
248 1 57.5278 -3.21065 60.4359
247 1 57.9705 -3.11551 61.2041
170 1 55.9603 64.2553 63.3235
171 1 56.4981 63.4483 63.7561
259 1 56.7966 -3.65395 62.4112
161 1 57.9519 -3.69039 62.6465
ITEM: TIMESTEP
6000
ITEM: NUMBER OF ATOMS
500
ITEM: BOX BOUNDS pp pp pp
-6.1433506381434952e+00 6.6143350638143261e+01
-6.1433506381434952e+00 6.6143350638143261e+01
-6.1433506381434952e+00 6.6143350638143261e+01
ITEM: ATOMS id type x y z
454 1 34.5715 1.87174 -4.65936
455 1 34.463 0.942513 -4.51622
459 1 35.6554 0.350945 -3.58885
457 1 35.478 0.7871 -4.93059
444 1 35.6578 -0.756032 -5.31737
458 1 35.6774 1.27429 -4.13893
453 1 35.318 1.7935 -5.41452
452 1 34.7636 2.60504 -5.32965
445 1 35.8062 0.0540534 -5.88728
449 1 34.0108 0.307779 66.0962
450 1 34.1929 1.23731 -5.69169
456 1 34.7061 0.297926 -5.36526
446 1 36.0433 0.755625 65.6762
448 1 34.3927 0.894476 65.3415
443 1 35.3044 -0.292488 -4.46346
441 1 34.5422 0.0862264 -3.64625
442 1 34.947 -0.838186 -3.62974
451 1 33.8759 2.2288 -5.43977
447 1 35.2195 1.3096 65.9631
300 1 34.6556 -3.47637 3.29421
294 1 37.1419 -3.51899 1.21223
296 1 37.0203 -4.18969 2.33469
290 1 36.1125 -3.59649 2.04429
295 1 37.4716 -3.24604 2.09333
297 1 36.6604 -3.63188 3.17429
298 1 36.4106 -2.77112 2.91738
299 1 35.6036 -3.37138 2.98175
284 1 36.0134 -2.84062 0.374331
293 1 37.0129 -2.55343 0.768792
287 1 36.513 -3.78964 0.360773
283 1 35.3421 -3.16532 -0.238821
291 1 35.6523 -2.76521 1.97726
292 1 36.4298 -2.555 1.62986
282 1 35.3738 -4.08318 -0.524755
288 1 35.6914 -3.79433 0.768631
289 1 35.2332 -3.80184 1.67549
281 1 35.2549 -4.62001 0.358311
431 1 61.3296 2.1006 5.21908
302 1 61.8283 0.746929 0.62963
303 1 61.2596 1.13964 1.37451
301 1 62.3232 0.0705704 0.0430126
285 1 36.3761 -2.82562 -0.480449
286 1 37.0899 -3.44008 -0.269293
426 1 62.7173 -0.247841 5.29743
429 1 61.6374 0.702138 4.44757
430 1 61.09 1.18321 4.94885
314 1 61.8677 0.398345 5.39024
312 1 63.1496 1.48876 4.99595
313 1 62.6959 0.640237 4.65802
311 1 63.9294 2.0283 5.21837
434 1 63.0285 0.563775 5.96908
432 1 62.0978 1.65469 5.35004
433 1 62.8499 1.49443 5.94105
421 1 63.1715 2.51121 6.03026
304 1 62.0138 0.417734 1.77414
309 1 62.3681 2.22955 4.3604
310 1 63.1231 2.55224 4.93006
147 1 28.803 2.61678 6.75108
145 1 27.9393 4.50295 6.68906
146 1 28.2404 3.52123 6.87302
305 1 62.2172 -0.0141326 2.67944
308 1 62.1457 2.37213 3.39981
157 1 29.39 3.25438 4.65472
158 1 28.3334 3.09672 4.71579
159 1 28.0337 3.98747 4.39532
160 1 27.8356 4.58801 5.14671
306 1 62.2217 1.00891 3.08118
428 1 62.246 0.129381 3.85826
318 1 62.0268 -1.24971 6.35024
319 1 62.7793 -1.25561 5.68659
425 1 63.7021 -0.0169956 5.05956
320 1 63.5617 -1.11954 5.03701
315 1 61.5361 0.932701 6.1807
427 1 62.1538 -0.469605 4.54276
437 1 64.0948 0.161065 6.80005
436 1 63.6434 -0.538402 6.00751
424 1 64.1602 0.576111 5.67515
423 1 63.9076 1.47631 6.19936
440 1 63.4244 0.172672 7.86456
435 1 63.0921 -0.219262 6.6222
422 1 63.4611 1.98236 6.8558
148 1 29.3849 2.27243 6.01382
152 1 27.5075 2.19685 4.66919
307 1 61.6388 1.57599 3.7155
156 1 28.8518 3.92455 5.11792
149 1 28.8645 1.9014 5.21464
154 1 27.8058 2.93347 6.02529
155 1 28.6826 3.25735 5.83591
143 1 27.5729 3.51483 5.21641
144 1 27.4257 3.92055 6.09012
142 1 27.0746 3.07519 4.3761
317 1 61.9571 -0.335368 6.14137
316 1 62.0032 0.358345 6.71794
438 1 63.9281 1.02356 7.22315
439 1 62.9861 0.910368 7.22167
151 1 27.8425 1.51654 4.27632
150 1 28.7592 1.95134 4.27859
153 1 27.8537 2.10222 5.57905
141 1 27.7266 2.59531 3.72476
17 1 16.4267 9.84251 12.9549
15 1 15.8514 8.91653 12.339
19 1 17.5143 9.64284 13.3543
16 1 16.7051 8.99046 12.7024
14 1 16.1639 9.24389 11.4619
12 1 17.711 9.42802 11.2114
10 1 17.9465 10.4428 11.7815
11 1 18.6085 9.78329 11.416
8 1 16.6441 10.9751 12.2686
5 1 16.2395 11.6093 13.5413
18 1 17.2063 9.83059 12.3767
13 1 17.1222 8.86258 11.668
20 1 17.5557 9.75237 14.3052
72 1 17.2192 55.8466 9.70283
73 1 16.751 56.7302 9.78557
70 1 15.9524 56.0955 10.1093
74 1 16.8073 57.2346 9.02226
69 1 15.939 55.3239 10.7772
67 1 15.6291 56.7693 11.2638
68 1 16.2115 55.9795 11.4528
7 1 15.766 11.268 12.675
6 1 16.0896 12.1571 12.7844
9 1 17.5095 11.3593 11.7066
1 1 17.6276 10.7128 12.9032
3 1 17.4111 10.8969 14.1153
4 1 16.4732 10.784 13.9234
65 1 15.9053 57.4341 9.55398
71 1 16.3454 55.231 9.8025
76 1 18.0822 56.7318 9.86128
75 1 17.6704 57.4169 9.31342
77 1 18.7041 57.5465 9.95574
63 1 17.2016 58.4399 9.05064
64 1 16.6746 58.0572 9.75141
62 1 17.9745 58.6243 9.49396
66 1 16.0366 57.3159 10.6637
2 1 18.1997 10.3115 13.6487
79 1 18.1693 57.2068 10.8531
80 1 17.605 56.293 10.9
78 1 17.9631 57.8409 10.258
61 1 18.7797 58.8538 9.9996
386 1 48.3605 60.7905 24.4992
383 1 48.5195 61.4646 22.1761
389 1 48.2293 59.4649 24.3243
391 1 47.4614 59.9918 23.7631
390 1 47.7338 59.1914 23.454
267 1 46.7867 60.2631 22.033
387 1 47.8134 60.4481 25.2348
385 1 48.9484 61.3177 23.8014
388 1 47.5215 59.6176 25.0008
381 1 48.7103 62.5648 21.3444
268 1 46.7883 60.6776 21.1867
382 1 48.2427 61.7904 21.3335
384 1 48.9798 60.9648 22.9635
265 1 47.0792 61.6661 22.5403
261 1 47.9451 62.2879 22.4515
270 1 45.1538 60.7274 21.7495
269 1 45.7141 60.4437 21.0034
276 1 46.4536 61.6002 23.8711
394 1 47.6859 59.7361 22.4317
392 1 48.379 60.2481 23.4544
393 1 48.6813 59.8244 22.7356
275 1 46.2792 60.7419 23.7099
395 1 47.9545 60.688 22.4699
396 1 47.7291 61.1402 23.4487
264 1 46.2183 61.8645 22.9179
274 1 45.8804 59.8037 23.7832
266 1 46.9494 60.746 22.8103
273 1 46.3091 59.7965 22.7773
263 1 46.1652 62.2404 22.0269
271 1 45.9756 60.8323 22.3858
272 1 45.3714 60.3462 22.8799
262 1 46.9432 62.824 22.1502
277 1 45.6121 61.6435 24.201
278 1 44.962 61.2537 23.5341
397 1 47.3453 61.2056 24.3361
280 1 44.2699 59.614 22.7291
279 1 44.4377 60.7555 22.7423
398 1 47.1939 62.1488 24.4056
400 1 46.2327 62.3503 24.6826
399 1 46.6412 61.5466 25.097
110 1 32.7385 55.7389 30.6666
120 1 32.2608 56.9982 30.7393
119 1 32.2184 57.7711 30.0268
118 1 32.3948 57.6486 28.9877
112 1 32.3065 55.4524 29.6751
114 1 31.5335 56.2022 29.5137
108 1 33.6814 55.8102 30.0092
107 1 34.1095 56.7154 30.1787
106 1 33.2671 56.808 30.7854
109 1 33.6801 55.718 31.0233
116 1 33.1476 56.1308 28.8208
115 1 32.2337 56.3392 28.8088
111 1 32.6549 56.3858 29.8271
105 1 33.1831 57.3017 30.0379
117 1 33.2348 57.1647 29.0097
113 1 31.3617 55.2254 29.751
101 1 34.3807 57.3954 29.3979
102 1 34.5605 58.3288 29.2722
103 1 33.9053 58.2798 28.4937
104 1 33.5026 58.0626 29.3987
229 1 45.2909 6.94797 38.0057
221 1 47.2476 9.52993 38.0923
223 1 47.3996 8.57211 37.2118
222 1 46.7251 9.3733 37.2885
224 1 47.3529 7.72051 37.9009
228 1 45.9273 7.47642 37.2824
227 1 45.9891 8.49567 37.4725
225 1 46.8513 7.32363 38.5977
122 1 65.0885 60.2308 37.0938
126 1 -6.14665 60.5942 36.5216
125 1 -6.03863 61.3881 37.0668
401 1 65.1707 62.1547 37.9989
402 1 65.9448 62.7913 38.456
232 1 44.7274 8.90271 37.5746
231 1 45.1694 8.43943 36.8852
237 1 45.551 8.56964 38.8885
230 1 45.1441 7.85271 37.7776
233 1 44.566 9.98269 37.8212
234 1 44.7968 9.63814 38.7598
235 1 45.665 9.53501 39.2697
226 1 46.302 8.1559 38.3243
236 1 46.0784 9.13942 38.3106
129 1 -5.34029 59.1409 37.2215
130 1 -5.30713 60.1013 37.3394
414 1 64.4246 60.7139 37.9343
121 1 64.2334 59.7306 36.8508
123 1 64.6074 61.1459 36.738
128 1 66.0607 58.8382 37.4449
127 1 66.0234 59.7729 37.183
340 1 64.8734 62.8697 38.5843
412 1 63.8696 62.3873 37.4228
124 1 65.3939 61.1335 37.3715
410 1 65.2317 62.6027 36.4733
409 1 65.473 63.3519 37.1053
406 1 65.2026 64.7648 38.4717
467 1 -5.02535 65.65 41.7349
405 1 65.4662 63.8829 38.3724
404 1 -5.93324 63.8716 38.7862
403 1 -5.53844 63.0887 39.0066
240 1 43.5306 8.24322 38.7512
238 1 44.928 7.85064 38.8813
239 1 44.4524 8.50881 38.4848
375 1 -5.0179 57.6351 40.9194
373 1 66.0665 58.064 40.2603
377 1 65.4437 57.4803 41.0598
374 1 -5.12212 57.9289 40.0323
418 1 64.1549 59.7239 39.2119
198 1 -5.51156 60.128 38.9185
200 1 -4.18261 59.5995 37.918
199 1 -4.5411 60.1651 38.534
415 1 64.6815 59.8483 38.0907
416 1 65.454 59.7644 38.4849
131 1 -5.75893 59.6158 38.0053
132 1 -6.0475 59.1433 38.8458
485 1 64.5498 61.5143 39.0034
417 1 64.9664 59.1493 38.9858
483 1 -6.01843 61.56 38.3228
413 1 64.3783 61.6628 37.7285
496 1 64.1753 62.6296 39.5359
484 1 65.3703 61.4082 38.858
411 1 64.297 62.8098 36.6606
339 1 65.1821 62.3314 39.2303
482 1 -5.01631 61.6882 38.0622
337 1 65.1691 63.9828 39.4449
338 1 65.7529 63.077 39.5192
465 1 -4.20919 64.6066 42.3908
321 1 61.5411 62.158 42.488
497 1 63.7505 63.0987 38.7901
408 1 64.7125 63.4517 37.7198
328 1 64.6888 62.7483 40.924
407 1 64.5759 64.3473 37.8469
336 1 65.9488 64.6176 39.265
335 1 66.1253 64.6844 40.4108
468 1 -5.371 64.6699 41.3426
471 1 65.5686 64.5204 41.2308
334 1 -5.24139 64.8337 40.2112
466 1 -4.21686 65.1185 41.434
463 1 -4.14728 64.0856 41.2723
464 1 -3.35806 63.9153 41.9241
469 1 66.0132 65.4197 41.706
470 1 65.1878 65.4628 41.4616
461 1 -4.15534 63.4751 43.0178
462 1 -4.42594 63.6248 42.1099
376 1 -5.9599 57.7564 41.3121
371 1 65.5287 59.0247 40.1471
378 1 65.5901 56.8291 41.7158
196 1 -4.4435 58.7323 40.1011
364 1 63.6596 60.1531 40.021
372 1 65.8864 58.8388 40.8934
420 1 64.2631 60.6337 40.8177
197 1 -5.31311 59.3139 39.5144
190 1 -4.88065 60.7815 39.949
189 1 -4.72289 61.0457 38.9082
490 1 63.2155 59.1914 38.8775
489 1 63.5837 60.094 38.3864
486 1 65.2751 60.9351 39.7206
487 1 64.8599 60.4817 38.9048
419 1 64.6713 60.1089 40.0045
134 1 66.0373 60.4449 40.3882
133 1 66.0174 59.8322 39.6136
192 1 -5.31748 60.0735 41.0203
186 1 66.0829 61.6591 40.0398
188 1 -5.43549 61.7571 39.0888
201 1 -3.65924 60.6344 39.3864
488 1 63.7661 60.8399 38.9356
494 1 63.0382 61.0886 39.9915
493 1 62.6384 61.021 38.875
184 1 64.327 61.6335 40.3578
183 1 63.5228 61.4723 40.7833
495 1 63.4538 61.9446 39.589
181 1 62.5697 61.1368 41.6182
185 1 65.2434 61.7918 40.3861
481 1 -4.44188 62.0819 38.8255
331 1 -5.01371 62.5972 39.8035
187 1 -6.01412 61.0066 39.3184
332 1 -4.58784 63.5275 39.7888
322 1 62.4829 62.5139 42.8215
498 1 62.9272 63.0618 39.1908
329 1 65.6217 62.8639 40.7015
327 1 63.7972 63.1516 41.05
330 1 -5.85635 62.6088 40.2774
473 1 -5.85234 63.5761 40.8184
472 1 66.0477 63.6944 41.786
333 1 -5.51774 63.8993 39.9441
500 1 61.8604 62.7833 40.0197
499 1 62.4058 62.1836 39.5471
326 1 62.8975 62.8236 40.6932
325 1 62.7904 63.2216 41.5785
94 1 64.6703 62.9446 42.4642
89 1 66.0503 64.9813 42.688
92 1 65.0155 63.7947 41.8256
90 1 65.2157 64.7984 42.3085
380 1 -5.03931 57.3571 42.0223
366 1 63.3435 58.1768 40.0153
369 1 64.7579 58.7208 41.0158
370 1 64.5672 58.9515 40.2249
379 1 -6.08187 57.2826 42.264
195 1 -5.16244 58.8141 40.6876
365 1 63.4043 59.1816 39.833
363 1 63.1126 60.5182 40.9893
367 1 63.2712 57.8254 41.0754
368 1 64.1243 58.1123 41.4551
362 1 63.4008 59.6396 41.4693
193 1 -4.83164 59.5961 41.7416
214 1 -4.46068 57.4063 42.9953
211 1 -4.06377 59.1116 41.1284
210 1 -4.41296 59.7904 40.3791
491 1 62.2684 59.1842 39.0341
492 1 62.066 60.1349 39.1631
138 1 65.6904 59.3102 41.8945
135 1 65.3347 60.8624 40.86
194 1 -5.46799 58.8453 41.5941
361 1 64.1334 59.6436 41.0831
191 1 -5.33803 60.9744 40.6572
480 1 -4.69137 61.1672 41.8025
208 1 -3.45263 60.1606 41.4702
209 1 -4.21241 60.3471 41.0184
182 1 63.4919 61.3036 41.7633
136 1 65.1624 59.8843 40.9579
478 1 65.9445 61.1928 41.7147
475 1 -5.73022 62.6387 41.5893
220 1 -4.22996 60.455 42.3513
202 1 -3.7676 60.9074 40.2681
203 1 -4.38355 61.7296 39.9687
206 1 -3.66351 61.278 42.0131
207 1 -3.14591 60.5595 42.4034
323 1 63.4251 62.9826 42.4155
324 1 63.3416 62.3699 41.5933
479 1 -5.59752 60.5385 41.9653
477 1 66.0485 61.8499 41.0875
99 1 64.6748 61.1571 42.7765
476 1 -5.15985 61.8826 41.1901
474 1 -5.08699 63.0525 41.0198
88 1 -5.24114 65.0175 42.9627
204 1 -4.1599 62.4562 40.3449
205 1 -3.89812 61.7842 41.2075
100 1 64.3707 60.6677 41.9148
93 1 64.249 63.8307 42.5713
96 1 65.272 61.8807 42.0104
95 1 65.522 62.8635 42.0206
91 1 64.6279 64.4049 41.463
87 1 -5.82234 64.6152 43.4466
215 1 -5.516 57.9203 43.0874
213 1 -4.02815 57.916 42.1492
140 1 66.0805 58.5075 42.5512
216 1 -4.89376 58.2875 42.497
212 1 -4.48319 58.3759 41.457
137 1 65.5114 60.2259 41.8519
139 1 65.4058 58.3745 41.8401
217 1 -4.23994 58.525 43.2196
218 1 -3.83776 59.1152 42.4501
219 1 -4.26269 59.8031 43.0622
358 1 -4.95267 62.7998 42.2488
359 1 -5.888 62.9982 42.705
357 1 -4.56691 62.0177 42.4537
97 1 64.4517 61.7564 41.5044
98 1 64.2271 61.972 42.3911
82 1 64.2278 62.8632 43.5742
354 1 -5.18092 62.2443 43.5561
355 1 -4.20781 62.2284 43.4263
356 1 -3.71116 62.4771 42.6259
85 1 65.7175 64.0018 42.8961
86 1 -5.60027 63.9332 42.8653
84 1 64.8595 63.635 43.4729
345 1 -4.54032 60.7591 43.5817
360 1 -5.6535 62.065 42.457
346 1 -4.36749 61.3986 44.0411
35 1 56.636 63.3162 47.1533
22 1 57.2762 62.4414 46.3526
21 1 57.9645 63.0211 46.1362
31 1 56.1274 62.9299 45.6303
81 1 64.0134 61.9092 43.4835
83 1 64.1099 63.7565 44.2138
344 1 -5.21948 60.5316 43.0337
353 1 -5.51594 62.7852 44.4136
30 1 55.7741 62.4213 46.1892
352 1 66.1325 63.284 43.876
349 1 65.7445 62.4204 45.5846
351 1 65.4842 63.0291 44.7127
350 1 64.9137 62.2511 44.826
34 1 56.4372 64.1987 46.9094
341 1 65.1498 62.2135 43.0696
348 1 -6.01516 61.8549 45.0048
347 1 -5.21247 61.55 44.5335
25 1 56.5454 62.3464 47.5395
27 1 56.3125 60.865 46.9571
23 1 58.1628 62.242 46.7604
24 1 57.5816 62.7209 47.3269
33 1 56.0398 64.1003 46.0716
36 1 55.7153 62.9964 47.1055
37 1 55.4784 62.3263 47.8018
32 1 56.907 63.458 46.0293
342 1 66.0402 62.2134 43.5228
343 1 -6.05075 61.2226 43.0308
28 1 55.2896 60.7915 46.8448
38 1 54.6424 61.8736 47.3398
29 1 55.6426 61.7024 46.9268
26 1 56.9101 61.7066 47.0486
40 1 53.8412 62.6604 48.1044
39 1 53.6878 62.2792 47.1421
52 1 7.30807 35.4402 52.8658
46 1 8.29667 35.8625 53.3072
47 1 8.22249 35.7431 52.3379
48 1 8.9128 34.9871 52.5388
53 1 6.56714 35.3051 53.518
54 1 6.76279 35.763 54.4876
55 1 6.59703 34.9301 55.1672
57 1 4.84774 35.5322 54.3304
41 1 7.83116 35.0819 54.8922
42 1 8.84916 35.1238 54.6253
45 1 7.63379 35.3197 53.8513
56 1 5.62889 34.8601 54.813
59 1 3.52076 34.4467 54.1924
58 1 4.10191 34.9999 54.7615
60 1 3.85481 35.1856 53.6282
44 1 8.04464 34.5433 54.0535
50 1 7.25111 34.2538 53.3957
51 1 7.00443 34.6025 52.5793
49 1 8.17321 34.7817 53.0018
43 1 9.0795 34.6858 53.7207
165 1 59.1878 65.5015 60.8516
179 1 60.7712 64.9417 59.7222
248 1 57.9908 65.3317 60.2232
180 1 60.2303 64.272 60.3204
178 1 60.1757 65.3464 60.573
251 1 57.1016 64.7974 61.4343
250 1 56.9985 64.5756 60.451
244 1 59.8633 -5.95901 60.8534
163 1 58.6222 -5.26376 61.4829
245 1 59.2872 -5.25806 60.5298
249 1 57.9771 64.4015 60.1949
246 1 59.0534 -6.05707 59.8969
247 1 58.0878 -5.92665 59.9787
175 1 59.3242 64.6658 61.7402
168 1 59.209 63.6536 61.496
167 1 58.7063 64.1223 60.8532
166 1 58.3953 65.0175 61.1931
164 1 58.5622 -5.99729 60.8647
176 1 60.1185 64.1211 61.745
177 1 60.4019 65.1197 61.5794
243 1 59.8311 -6.07283 61.8205
258 1 57.5738 -5.64457 61.2489
259 1 57.8739 -5.16091 62.1818
162 1 58.1322 -4.32593 61.5145
161 1 58.1487 -4.38871 60.5268
260 1 56.942 -5.01175 61.9527
173 1 59.2225 64.3912 62.7715
241 1 59.8606 65.5308 63.7594
169 1 58.5444 62.9712 61.8111
170 1 58.2365 64.0331 62.0234
254 1 57.9499 -6.01188 62.7714
172 1 58.2332 64.271 63.0424
252 1 57.68 65.1394 62.2861
253 1 58.5425 65.5573 62.2247
174 1 60.046 64.8605 62.4523
255 1 57.1663 -6.0357 62.2266
242 1 59.6766 65.9553 62.7712
256 1 56.7704 65.7786 61.389
257 1 57.664 65.6703 61.3156
460 1 36.3984 0.3103 -4.21152
171 1 58.2742 63.4095 62.7379
ITEM: TIMESTEP
7000
ITEM: NUMBER OF ATOMS
500
ITEM: BOX BOUNDS pp pp pp
-7.3056843388245838e+00 6.7305684338824477e+01
-7.3056843388245838e+00 6.7305684338824477e+01
-7.3056843388245838e+00 6.7305684338824477e+01
ITEM: ATOMS id type x y z
454 1 37.185 -0.910445 -6.31098
456 1 37.6953 0.186958 -6.76546
455 1 36.7532 -0.12629 -6.78495
445 1 38.4836 0.661256 -7.28171
450 1 38.1141 1.07526 -6.33174
446 1 38.8501 0.198883 -6.49115
453 1 37.846 -0.411957 -5.86692
447 1 38.9687 -0.366471 -5.54212
452 1 37.5609 0.327403 -5.51685
449 1 38.6754 0.800264 -5.64263
448 1 38.5139 0.197242 -4.87214
451 1 37.5009 1.33385 -5.70934
300 1 35.4477 -5.00016 -1.69179
294 1 35.442 -4.92501 -0.53306
297 1 36.9906 -4.66217 -0.832305
298 1 36.434 -5.28419 -1.24019
295 1 36.0875 -4.17733 -0.384335
299 1 36.0778 -4.3954 -1.58454
289 1 37.144 -3.72355 -0.387193
286 1 35.767 -4.87363 0.507744
296 1 36.8481 -4.71323 0.0516547
293 1 35.0911 -4.22148 0.0653103
291 1 35.8118 -3.20677 -0.0723184
292 1 35.4354 -3.71384 0.7397
288 1 36.7836 -3.70119 0.389701
287 1 36.3893 -4.28093 1.02514
281 1 36.3289 -2.90979 0.99738
290 1 36.7878 -2.72359 0.0205445
285 1 35.4011 -4.65559 1.30807
284 1 35.5563 -3.91769 1.91308
282 1 36.8454 -3.54149 1.61421
283 1 36.399 -3.98898 2.35826
302 1 62.1067 -0.797146 3.15051
301 1 63.0631 -0.492927 3.22756
428 1 61.3243 0.628529 3.41938
426 1 62.9255 0.782805 3.40676
144 1 30.6677 1.61579 3.8508
146 1 29.5357 2.08603 3.40371
145 1 29.9303 1.19974 3.39417
427 1 62.1157 1.23825 3.13112
319 1 62.3655 -1.8165 5.3105
304 1 61.7663 -0.925193 4.39402
303 1 62.6451 -1.1447 3.98405
305 1 61.184 0.0230255 4.51326
306 1 60.3977 0.619786 4.68532
429 1 61.5101 1.07021 4.22872
430 1 61.7109 1.04422 5.2598
314 1 62.2082 0.293798 4.29958
315 1 63.0034 -0.108836 4.87381
316 1 62.0187 -0.0314164 5.24466
423 1 63.6359 1.13271 5.09433
149 1 27.997 2.15732 5.15723
148 1 28.9622 1.84997 4.99238
147 1 29.249 1.45873 4.15925
142 1 30.6875 2.29613 5.28344
154 1 29.9782 1.29603 4.93545
155 1 29.8885 2.24376 4.47896
143 1 31.1513 1.59566 4.71466
307 1 60.4363 1.40291 4.19811
308 1 61.1717 1.97834 4.6962
313 1 62.7674 1.23494 4.60696
312 1 62.8317 2.00499 3.96921
309 1 62.1018 2.34824 4.60745
425 1 63.6366 1.33677 4.00673
424 1 64.3362 1.48976 4.51229
311 1 63.3669 2.18775 4.64909
157 1 28.7049 3.32034 5.08541
156 1 29.0043 2.64287 4.26881
160 1 29.5542 3.54518 4.49812
159 1 30.3135 3.23818 4.96485
320 1 61.4694 -1.46695 5.53589
318 1 62.8165 -0.956796 5.78853
153 1 29.551 0.880559 5.77234
431 1 61.0945 0.394973 5.56177
436 1 63.0376 0.242408 6.64036
434 1 61.7896 0.715605 6.25211
435 1 62.5768 0.611768 5.8788
317 1 62.1728 -0.232746 6.30397
437 1 63.7397 0.678236 6.36819
151 1 29.0778 1.96012 6.74699
150 1 28.6877 2.4058 5.92345
152 1 29.5771 1.78895 5.91149
141 1 31.1394 1.70908 5.91325
432 1 60.8313 1.47173 5.80808
310 1 62.6046 1.99435 5.44008
433 1 61.8638 1.65379 6.03445
421 1 63.9799 2.35254 5.70319
422 1 64.3113 1.39671 5.72722
438 1 63.285 1.49604 6.00739
158 1 29.4995 2.76142 5.46049
74 1 15.9825 56.7518 6.68276
78 1 17.1342 56.9823 6.20199
75 1 16.1483 57.7031 6.3069
76 1 16.7426 58.4381 6.49703
77 1 16.9103 57.8857 5.66962
439 1 63.5232 1.6461 6.97379
440 1 64.4434 1.83122 6.80277
71 1 16.3576 55.9862 7.89228
69 1 15.8971 56.9861 7.87196
73 1 16.6015 57.2784 7.24281
72 1 16.8857 56.3632 7.10983
64 1 15.9281 58.3266 7.39064
65 1 16.8828 58.7518 7.5827
66 1 17.4808 58.3536 8.15523
79 1 17.7045 57.5142 6.8922
80 1 17.9112 58.3816 7.0441
63 1 15.333 59.0578 7.27069
62 1 16.2394 59.2835 6.98889
61 1 16.0251 59.6782 7.93622
70 1 16.0348 56.3122 8.76275
68 1 16.8528 56.9345 8.28077
67 1 16.6973 57.9637 8.25152
8 1 14.5419 9.56727 13.6729
7 1 15.0623 9.53722 13.0475
15 1 12.4933 9.87101 13.4191
16 1 13.4258 9.63458 13.7246
20 1 13.2117 10.4951 12.9152
9 1 14.6659 10.5912 13.7569
6 1 14.3748 10.1653 12.6075
4 1 15.1962 10.8711 12.7307
3 1 15.9328 10.5563 13.149
1 1 16.7081 10.0182 13.6455
19 1 12.5207 11.2024 13.0211
18 1 13.0926 11.3933 13.7501
5 1 14.2236 11.1004 12.9402
14 1 12.2638 10.7076 13.8832
17 1 13.6846 10.6555 13.8212
10 1 14.1385 10.6607 14.7739
2 1 15.8196 9.6436 13.8338
13 1 12.3894 11.5069 14.4075
11 1 13.2551 11.0898 14.8424
12 1 12.4642 10.9355 15.2367
270 1 47.8556 60.066 22.2263
266 1 49.6485 60.1664 21.4723
261 1 47.4929 61.2788 22.1334
269 1 48.7591 60.369 22.0136
262 1 48.2753 61.2899 21.6931
267 1 49.8998 60.8524 22.2154
263 1 49.0574 61.4395 21.9228
264 1 49.8004 61.2939 21.1723
265 1 49.0283 60.6694 20.9538
273 1 48.6595 59.8626 23.0437
268 1 49.497 59.8267 22.4207
279 1 46.7282 60.2803 23.6295
278 1 46.4337 60.3701 22.6965
277 1 46.6504 61.2709 22.963
276 1 47.3643 61.1556 23.6067
272 1 48.9731 60.8618 23.1833
271 1 48.0578 60.7106 22.8037
400 1 47.6483 62.341 23.5701
399 1 48.1786 61.7407 22.9819
398 1 49.1252 62.0118 22.8783
381 1 50.0538 63.4679 23.6458
280 1 45.9782 60.166 24.3108
275 1 47.3762 60.8196 24.5331
395 1 48.5925 60.6971 24.5255
396 1 48.334 61.476 24.0177
274 1 47.9978 60.3413 23.7535
383 1 49.4044 62.8424 24.8122
382 1 50.1928 62.6479 24.3948
389 1 49.4262 61.7869 24.9761
397 1 49.1859 62.0848 23.8766
384 1 48.3857 63.2591 24.6917
394 1 48.7692 60.4256 25.371
388 1 48.5547 61.5146 25.1513
392 1 50.0656 60.7717 26.2568
393 1 49.0609 60.9948 26.188
386 1 48.0288 61.9427 25.9084
385 1 48.4629 62.8298 25.6002
387 1 48.9639 61.9151 25.9235
390 1 50.1853 62.2413 25.596
107 1 31.4985 57.1203 27.5673
110 1 33.1505 57.2832 27.5883
109 1 32.4039 56.5777 27.8314
106 1 32.1652 57.0912 26.8072
102 1 30.821 57.9799 27.4493
103 1 31.4219 57.7056 26.5581
104 1 31.7818 58.4806 27.0495
111 1 32.282 57.6242 27.8336
105 1 32.5578 57.974 26.9156
119 1 33.9772 58.0384 27.7776
391 1 50.0029 61.7096 26.5154
112 1 31.7083 57.1859 28.5838
108 1 31.5537 56.2257 27.9962
113 1 32.7013 57.1543 28.6146
101 1 31.4736 58.3824 28.1134
116 1 32.3448 58.2118 28.8651
115 1 33.1011 57.9365 29.2511
118 1 33.0743 58.3217 28.0961
114 1 33.6535 57.5307 28.7165
120 1 34.1433 58.5134 28.6641
117 1 33.1253 58.9999 28.8673
121 1 66.437 61.6265 36.1418
412 1 65.1358 63.6596 36.2863
228 1 47.2864 7.17864 37.7258
230 1 47.2678 8.38753 37.1958
232 1 46.2153 8.63636 37.6179
122 1 65.8824 61.5941 36.9077
416 1 64.9307 61.4727 37.513
127 1 66.5504 60.375 37.3141
484 1 -6.94206 62.7577 37.7305
490 1 63.1135 62.9201 37.4681
415 1 64.4229 61.8608 36.746
489 1 63.381 61.9286 37.4458
414 1 64.0337 62.9121 36.8495
487 1 65.1435 62.4867 37.6585
123 1 66.0116 62.5081 36.8418
124 1 66.7969 62.0665 37.2699
413 1 64.1186 63.9589 36.6149
411 1 65.0743 63.6885 37.2617
410 1 65.871 64.2047 37.4414
227 1 47.074 7.17669 38.5199
229 1 47.5865 8.08115 38.0154
233 1 46.3718 7.98609 38.34
231 1 46.9075 8.92334 38.0055
234 1 47.1685 8.24557 38.8547
130 1 -6.85516 60.1251 38.243
197 1 -6.24006 59.9868 39.0352
128 1 66.4603 59.8639 38.1405
129 1 67.2222 59.4683 37.7794
131 1 67.2104 59.6528 38.9468
200 1 -6.24202 61.0509 38.4325
126 1 65.6771 60.5461 37.7629
418 1 65.7001 60.9312 38.9478
417 1 64.7614 61.3429 38.4913
125 1 66.1425 61.4415 37.8883
132 1 66.8038 60.6058 38.8464
133 1 66.8171 61.5568 38.9855
483 1 -6.82522 61.954 38.4602
482 1 -6.23152 62.6497 38.8161
481 1 -5.29287 62.429 38.8317
488 1 64.2193 62.4909 37.8339
419 1 65.536 61.8652 38.6989
486 1 65.8957 62.8997 38.046
420 1 64.9153 62.4204 38.801
187 1 66.4881 62.8602 39.035
491 1 63.1054 63.5383 38.212
492 1 64.1913 63.5774 38.0191
493 1 63.8439 63.539 38.9297
401 1 65.0807 64.2802 38.1831
402 1 65.2478 64.0973 39.1128
408 1 67.0038 64.3815 37.9712
409 1 66.1032 63.8616 38.3747
485 1 66.7778 63.2241 37.8414
407 1 67.1884 65.2515 38.3872
225 1 46.6646 7.18234 40.4156
236 1 46.4914 8.09085 39.9081
226 1 46.7737 7.2778 39.3925
238 1 45.8169 9.05442 40.392
235 1 46.593 8.93258 39.2772
240 1 45.6426 9.67931 39.5887
239 1 46.4283 9.92253 40.169
373 1 66.2691 58.6003 40.4542
196 1 -5.98328 59.2746 39.4718
195 1 -6.90206 58.876 39.8234
194 1 -6.82501 59.9358 39.9073
193 1 -6.04638 59.7792 40.4253
366 1 64.8037 60.0576 39.3989
370 1 65.6397 59.3951 39.9789
367 1 64.6228 59.5463 40.177
371 1 66.5464 59.1906 39.4902
372 1 66.8085 59.4386 40.3544
198 1 -6.86643 60.7068 39.2614
199 1 -6.19465 61.525 39.2706
190 1 -7.21947 61.2664 40.0477
192 1 -5.97248 60.6284 39.8489
191 1 -6.46801 60.8891 40.5178
364 1 65.2669 61.5202 39.7096
365 1 64.5743 60.8647 39.523
363 1 65.5036 60.6862 40.2275
134 1 66.3407 61.0829 39.7904
206 1 -6.41228 62.3811 40.0613
207 1 -5.54987 62.4193 39.9248
498 1 65.0147 62.6457 40.0203
499 1 64.5089 62.0668 40.4672
189 1 67.2613 62.2677 39.5918
186 1 66.1269 62.3593 39.9207
185 1 66.0672 63.0744 40.3848
188 1 -7.18817 63.1585 39.3724
204 1 -6.54064 64.1807 39.7256
205 1 -6.16642 63.38 39.7297
494 1 64.0564 64.4354 39.4821
495 1 64.3974 63.7704 39.8782
331 1 67.1397 63.088 40.3088
332 1 66.9685 64.0019 40.0081
334 1 -6.60317 65.0149 40.2649
403 1 66.142 64.6325 39.2833
404 1 66.2727 64.8992 40.0667
405 1 66.8475 65.5378 39.7145
406 1 67.1932 64.8773 39.2619
223 1 47.0023 6.41333 41.4332
237 1 45.7503 8.01283 40.589
224 1 46.581 7.33306 41.3591
222 1 47.6103 7.24482 41.4986
375 1 -6.98109 58.8361 40.9246
377 1 -6.9024 58.587 41.9372
374 1 66.6706 58.6472 41.3685
376 1 -6.42845 59.3304 41.2791
479 1 -7.25242 60.1614 41.1279
368 1 64.9526 59.9302 41.029
369 1 65.7064 59.2255 41.048
137 1 65.8233 60.2594 41.9004
136 1 66.1874 60.2524 41.0622
211 1 -6.10912 60.304 41.7141
209 1 -6.11843 61.3909 41.3369
212 1 -5.49664 60.6762 41.0221
213 1 -5.11898 60.2679 41.8274
361 1 63.8154 61.3886 41.1948
362 1 64.5497 61.0045 40.6244
182 1 65.7714 61.2022 41.3208
135 1 66.5579 61.0822 40.6837
478 1 66.7691 60.8511 41.7371
477 1 67.2353 61.5013 41.4335
476 1 -6.84767 62.2044 40.9637
359 1 -6.07054 62.6023 41.6802
208 1 -5.58306 61.9335 40.6623
500 1 64.1867 62.7418 40.9574
497 1 65.1875 62.9663 41.0132
181 1 65.3945 61.9189 40.9076
184 1 66.4496 62.3116 40.877
183 1 66.3125 62.061 41.7668
475 1 67.3051 62.9615 41.6174
203 1 -6.56048 63.7307 40.6135
474 1 -6.64564 63.5336 41.6761
201 1 -5.69562 64.2151 41.7772
202 1 -5.73677 63.566 41.0422
496 1 64.5643 63.7476 40.8639
329 1 65.8484 63.9156 41.2882
330 1 66.8384 63.5834 40.9534
328 1 66.222 63.1572 41.5165
472 1 67.2215 64.2741 41.7477
333 1 -7.30125 64.5716 40.684
336 1 -7.25446 65.5278 41.552
335 1 -6.34333 65.2845 41.2208
339 1 65.6602 65.3434 41.6475
338 1 66.569 65.008 41.3717
337 1 66.5799 65.8366 40.9797
221 1 47.8635 7.20145 42.5238
379 1 -6.13275 58.5325 43.0254
378 1 -6.9575 59.1376 42.6375
480 1 -7.25802 59.9709 42.0778
138 1 65.4467 60.1472 42.9278
220 1 66.5627 59.7203 42.6317
210 1 -6.71395 61.0291 42.0467
217 1 -6.70995 61.3523 43.12
214 1 -4.62392 61.0812 42.1944
215 1 -5.10673 60.3855 42.8525
216 1 -5.75049 60.9533 42.814
99 1 65.4443 61.2032 42.6688
218 1 67.1814 60.6553 42.999
98 1 66.2468 61.1822 42.8577
360 1 -6.62067 62.2108 42.4481
358 1 -5.19437 62.1981 41.9859
357 1 -5.61411 62.4235 42.8776
100 1 65.3883 62.1293 42.2085
324 1 64.7707 62.9821 42.2948
323 1 65.2782 62.7583 43.0775
97 1 66.932 61.7125 42.4509
96 1 66.5517 62.4806 42.7884
355 1 -6.16852 63.2812 43.2058
356 1 -5.62122 63.3351 42.3321
326 1 65.1223 63.8442 42.8365
325 1 64.6011 63.8348 42.0811
327 1 65.8225 63.3021 42.3147
473 1 67.1693 63.6115 42.442
91 1 66.3232 64.3445 43.1774
92 1 66.5272 63.485 43.2583
463 1 -6.41483 64.6976 42.395
464 1 -6.93775 65.5043 42.7503
462 1 -5.86571 65.1499 42.9189
340 1 64.8796 64.9543 42.3446
471 1 66.8292 64.8444 42.479
470 1 65.9475 65.4468 42.9129
467 1 66.801 66.3019 43.3159
380 1 -5.56888 59.3939 43.4536
139 1 65.8735 60.2223 43.894
219 1 66.7911 59.782 43.5658
140 1 65.2986 60.961 43.7104
344 1 66.2171 61.298 44.0722
346 1 67.2054 60.7657 44.2631
321 1 65.1689 61.9666 44.3448
322 1 65.7762 62.112 43.5308
94 1 66.8417 62.7386 44.1346
95 1 67.1698 62.2177 43.4076
345 1 67.1393 61.7146 44.2988
354 1 -7.13245 63.1734 43.4638
353 1 -6.82956 64.1354 43.6216
461 1 -5.63906 64.429 43.507
93 1 66.0799 63.0897 43.9871
88 1 66.4825 64.3835 44.3808
87 1 -7.24742 64.8766 44.3486
352 1 -6.32584 64.5536 44.3088
89 1 65.6524 64.7205 44.57
90 1 65.3559 64.5442 43.7185
466 1 66.8542 65.8219 44.1378
469 1 66.0997 65.2242 43.7551
465 1 67.1657 65.3388 43.4068
468 1 65.8301 66.1674 43.7253
341 1 65.3896 60.1388 44.8795
343 1 66.3408 61.3286 44.9148
347 1 67.2996 61.1018 45.2125
342 1 66.1244 60.5961 45.4174
348 1 -7.11428 62.1535 45.2643
349 1 -7.19281 62.939 45.5569
82 1 66.41 62.7745 45.0866
85 1 -7.18098 64.005 45.913
351 1 -6.79978 64.0033 44.797
350 1 -6.27357 63.2758 45.5277
81 1 65.6528 63.5938 45.2722
84 1 66.5693 63.4604 45.9247
83 1 66.7135 63.6175 45.0382
86 1 67.1949 64.7036 45.2441
34 1 57.3346 62.5384 47.3319
32 1 56.8629 63.9783 47.4486
31 1 57.7098 63.5391 47.2351
29 1 57.7158 64.5416 47.3712
37 1 57.4081 61.4534 47.9422
38 1 57.5698 61.4196 49.001
36 1 56.622 61.7998 48.4367
35 1 57.2143 62.4987 48.2967
39 1 58.5713 61.8069 48.6237
40 1 58.4877 62.0954 47.7297
21 1 55.5216 64.3775 47.6894
33 1 56.5759 63.1258 47.7819
22 1 56.1008 64.2058 48.439
30 1 58.4873 63.9331 47.7904
27 1 58.0522 63.9695 48.9841
26 1 57.5285 63.7686 48.2151
28 1 58.0965 64.8134 48.2677
23 1 55.773 64.3474 49.3668
25 1 56.9224 63.3148 49.0553
24 1 56.6589 63.9809 49.8497
46 1 7.09346 33.4085 54.3037
47 1 7.73449 34.2004 54.0932
49 1 7.54313 35.8526 53.8507
48 1 7.03813 34.9494 53.8519
51 1 8.34392 35.9146 54.525
50 1 8.22108 35.2503 53.7239
57 1 8.16638 37.5746 54.527
58 1 8.89728 36.8582 54.1783
45 1 6.75111 34.349 54.6829
42 1 7.36013 34.0951 55.7579
44 1 6.65294 35.1798 55.2785
52 1 7.61177 35.34 54.7699
53 1 7.67126 35.223 55.7464
54 1 7.11101 36.0912 55.9159
55 1 7.06036 36.334 54.8209
56 1 7.71359 36.8869 55.2321
59 1 9.15738 36.6165 55.0934
60 1 8.75307 37.3762 55.4835
43 1 6.73483 34.6523 56.1901
41 1 7.635 33.5195 56.625
248 1 60.429 65.3756 58.218
247 1 59.949 66.1342 58.0466
246 1 58.9298 66.0957 58.1401
251 1 59.491 64.4303 60.0381
162 1 58.5618 65.5609 59.4698
250 1 60.2435 64.5545 59.4009
163 1 59.2668 65.093 58.9358
164 1 59.8143 65.6346 59.3716
249 1 60.7819 65.1777 59.0896
245 1 58.7135 66.4816 59.001
161 1 57.6992 65.968 59.5282
260 1 58.4857 66.3833 60.1943
244 1 59.4868 67.1577 59.284
243 1 59.5205 66.7653 60.1411
165 1 60.2155 66.068 60.112
258 1 57.8569 65.5454 60.5196
257 1 58.2729 64.7581 60.9045
254 1 58.9462 65.8714 61.1563
252 1 59.4582 64.6914 61.0102
253 1 59.5345 65.4611 60.5098
167 1 60.4622 64.698 61.0886
166 1 60.5719 65.2052 60.3601
259 1 57.9314 66.3374 61.0023
242 1 59.8584 66.5598 60.999
241 1 58.9833 66.988 61.0112
256 1 58.4597 64.7746 61.9609
255 1 58.4372 65.746 62.0971
175 1 59.6929 65.5781 62.0065
169 1 60.6162 65.1966 62.441
168 1 61.1456 64.5647 61.8268
177 1 61.5311 65.6536 62.4663
172 1 59.7273 67.2882 62.1569
173 1 59.5698 66.8011 63.0012
174 1 59.4135 66.3345 62.1072
176 1 60.6382 65.9794 61.7891
178 1 61.5276 66.5276 62.9841
170 1 60.4617 65.9636 62.8518
171 1 60.4142 66.8538 62.3189
179 1 61.4205 66.1231 63.9088
180 1 62.283 66.2828 63.7543
460 1 36.8012 1.04147 65.2671
441 1 38.0361 0.895168 65.5548
457 1 37.5677 -0.595221 67.2763
458 1 36.8145 -0.316041 66.7565
459 1 36.8853 0.350797 65.9733
442 1 38.7706 1.14057 66.2554
443 1 37.8702 0.445204 66.5468
444 1 37.7051 1.214 67.132
ITEM: TIMESTEP
8000
ITEM: NUMBER OF ATOMS
500
ITEM: BOX BOUNDS pp pp pp
-8.4554172044952409e+00 6.8455417204495149e+01
-8.4554172044952409e+00 6.8455417204495149e+01
-8.4554172044952409e+00 6.8455417204495149e+01
ITEM: ATOMS id type x y z
454 1 39.2074 0.233997 68.156
456 1 40.0723 0.425415 -8.18491
455 1 39.2103 0.0413202 -7.80196
445 1 41.7003 0.212247 67.6629
450 1 40.7752 -1.18862 66.8472
446 1 40.9203 -0.213454 68.0656
453 1 39.7924 -0.312679 67.6308
447 1 40.5508 0.388014 67.366
452 1 40.0979 -0.775806 -8.41906
449 1 41.2738 -0.397891 66.8662
448 1 40.4888 -0.0589574 66.4995
451 1 40.3444 -1.22012 67.7189
300 1 36.9785 -5.23496 0.0915801
294 1 35.418 -3.88524 -0.284992
297 1 36.9636 -4.53569 -0.887201
298 1 37.5029 -3.96194 -0.418314
295 1 36.4493 -3.98691 -0.0103567
299 1 37.6993 -4.57037 0.303776
289 1 36.7626 -6.23681 -0.924872
286 1 34.8307 -4.42708 -1.04998
296 1 36.4142 -3.61221 -1.03589
293 1 35.1039 -4.66798 0.176364
291 1 35.5872 -5.62729 -0.568948
292 1 35.9877 -4.97661 -0.0606666
288 1 36.438 -5.30908 -1.29082
287 1 35.8449 -4.58778 -1.01651
281 1 35.7686 -6.14838 -1.8043
290 1 35.881 -6.60108 -0.971142
285 1 35.4801 -3.8692 -1.71326
284 1 36.2461 -4.39983 -1.97444
282 1 35.502 -5.23186 -1.72881
283 1 36.207 -5.14691 -2.52392
302 1 62.2421 -1.25871 4.6484
301 1 61.5099 -1.03565 4.03114
428 1 61.3507 0.30421 4.69104
426 1 62.7676 0.681325 3.50226
144 1 31.5651 2.31078 4.96763
146 1 31.0218 1.79727 5.7244
145 1 31.9135 2.05338 5.88382
427 1 61.8412 0.813721 3.96802
319 1 62.0867 -1.10624 6.63176
304 1 61.1839 -0.677125 5.40059
303 1 62.1649 -0.739125 5.40199
305 1 60.823 0.19704 5.88386
306 1 60.9253 1.03821 6.10926
429 1 61.9277 0.262489 5.33855
430 1 62.8678 -0.0831216 5.72125
314 1 62.4585 0.955355 4.73807
315 1 62.5741 0.101675 4.53977
316 1 63.4363 -0.476907 4.64768
423 1 63.551 2.30526 4.09341
149 1 32.3618 1.43752 4.84052
148 1 32.0526 0.957369 5.613
147 1 31.0183 0.825264 5.68916
142 1 29.8196 1.83353 4.23236
154 1 30.0194 0.696721 4.24912
155 1 30.9789 0.504674 4.01502
143 1 30.78 2.26434 4.40399
307 1 60.8923 1.1672 5.06536
308 1 61.2662 2.0453 5.53069
313 1 62.6754 1.76461 4.07689
312 1 62.5802 2.37856 3.29095
309 1 60.8114 2.20103 4.66714
425 1 63.126 1.56355 3.08297
424 1 63.846 1.34913 3.69099
311 1 62.1107 1.46384 3.11674
157 1 31.5646 1.74995 3.91139
156 1 31.0826 1.24885 4.58038
160 1 31.5613 0.0211865 2.97537
159 1 31.6643 1.12195 3.05514
320 1 61.5233 -1.54992 5.81895
318 1 62.8726 -1.12901 6.07556
153 1 29.7683 0.55069 5.21278
431 1 62.6593 -0.284966 6.76335
436 1 63.1378 0.974882 5.6991
434 1 62.3221 0.917968 6.52065
435 1 62.1418 1.40963 5.71138
317 1 63.3977 -1.13961 5.39541
437 1 62.901 1.96271 5.31956
151 1 31.5414 0.291803 4.96182
150 1 32.0644 0.773839 4.28358
152 1 30.5489 0.0908785 5.05409
141 1 30.1267 1.63124 5.12862
432 1 61.8018 -0.0671162 6.40743
310 1 61.3855 1.93343 3.88878
433 1 61.7977 0.337352 7.30882
421 1 63.5058 1.12215 4.75814
422 1 64.1442 1.77713 4.79095
438 1 62.0777 2.09936 4.80447
158 1 30.7063 1.41101 3.50461
74 1 14.8218 58.1483 5.19715
78 1 15.4976 57.858 3.44475
75 1 15.8258 58.1384 5.08904
76 1 15.3108 58.5887 4.22502
77 1 15.0452 57.5402 4.2144
439 1 62.1301 2.7931 5.44903
440 1 62.0854 3.26025 4.60333
71 1 16.1609 57.5302 4.35787
69 1 17.3188 57.6847 4.76969
73 1 15.2216 57.6558 5.90101
72 1 15.5999 57.0452 5.1148
64 1 16.0834 59.4537 4.8797
65 1 16.6657 59.4601 5.57178
66 1 16.9286 59.913 4.60052
79 1 16.3743 58.3151 3.68789
80 1 16.993 57.6913 3.74262
63 1 15.9722 60.187 4.30121
62 1 16.0969 59.3868 3.77539
61 1 15.0688 59.4649 3.7156
70 1 16.8047 56.9982 4.92815
68 1 16.8246 58.5315 4.9361
67 1 17.3667 59.1411 4.51321
8 1 10.9923 12.6434 14.9236
7 1 10.5664 11.7601 15.095
15 1 10.1092 11.766 14.1913
16 1 9.64196 11.0154 13.6073
20 1 10.5397 9.49041 14.7621
9 1 11.1638 12.0723 13.9862
6 1 10.0583 11.0157 15.1335
4 1 10.6362 10.1041 15.6688
3 1 11.3635 9.58792 15.9225
1 1 12.1075 10.4471 16.9301
19 1 11.2357 10.0259 14.3484
18 1 10.3018 10.0951 13.9258
5 1 11.0366 10.8096 15.2766
14 1 10.6813 10.9864 14.194
17 1 9.95189 10.254 13.0002
10 1 11.6051 11.6087 14.7126
2 1 11.4108 10.2658 16.4267
13 1 11.133 10.5534 13.3175
11 1 12.066 10.8374 14.2908
12 1 12.0644 10.2525 13.3828
270 1 50.1129 59.9298 23.2396
266 1 50.9921 60.2685 22.503
261 1 51.1916 62.314 22.8795
269 1 50.7535 59.1971 23.0275
262 1 51.9181 61.8521 23.1912
267 1 50.278 59.6475 22.2064
263 1 51.1403 61.2996 22.8393
264 1 51.6281 60.8645 23.4632
265 1 51.5446 59.9174 23.2533
273 1 51.1963 60.8218 24.641
268 1 49.9975 58.7272 22.5612
279 1 49.6763 59.9804 24.3267
278 1 49.6637 60.7247 23.6568
277 1 48.8168 61.3278 23.7177
276 1 48.9652 61.5457 24.6159
272 1 50.7209 59.8629 24.653
271 1 50.7442 60.3701 23.8068
400 1 50.0443 61.7309 23.2775
399 1 50.9546 61.542 23.8634
398 1 51.7209 61.7152 24.4307
381 1 49.228 62.9446 23.78
280 1 49.8327 58.947 24.2381
275 1 49.7128 61.4008 25.3093
395 1 50.7657 63.2253 24.9802
396 1 50.8814 62.2119 24.9579
274 1 50.4492 60.7493 25.1422
383 1 50.4445 62.4454 23.8609
382 1 49.9975 63.4554 23.9028
389 1 49.5892 64.301 26.5489
397 1 51.9096 62.1579 25.3489
384 1 49.6007 62.3709 24.5118
394 1 50.5756 63.1639 25.8694
388 1 49.6493 63.9991 25.5314
392 1 48.7566 62.7555 26.489
393 1 49.6362 63.278 26.4168
386 1 49.1611 62.4837 25.4604
385 1 48.6493 62.6933 24.6574
387 1 49.7114 63.1745 25.1254
390 1 48.674 63.887 26.6063
107 1 30.7647 58.3036 26.8314
110 1 31.3174 58.8047 25.8958
109 1 31.2776 57.8019 26.0586
106 1 30.3011 59.2131 26.8279
102 1 32.4969 59.2772 27.4561
103 1 31.8044 58.7083 27.7668
104 1 30.8341 58.7644 27.8093
111 1 32.2038 59.2708 26.2474
105 1 31.2752 59.308 27.0973
119 1 31.7188 58.8851 24.3281
391 1 48.7949 63.4398 25.7538
112 1 32.7449 58.4767 26.5992
108 1 31.7612 58.172 26.8229
113 1 32.5588 57.4489 26.4405
101 1 32.8994 60.0736 27.0649
116 1 32.4273 58.1332 24.698
115 1 32.2843 58.3856 25.6142
118 1 31.9805 59.3677 25.161
114 1 32.7664 57.4198 25.524
120 1 31.3128 58.2742 24.9842
117 1 32.8769 58.9093 24.9197
121 1 67.9317 64.9003 35.4473
412 1 66.382 66.1293 38.2566
228 1 47.9753 7.34052 40.9368
230 1 48.7206 6.60879 39.7139
232 1 48.4629 7.64042 39.8263
122 1 67.3891 64.7675 36.1639
416 1 65.3064 63.344 37.7392
127 1 66.7508 62.6599 37.6963
484 1 66.6691 63.7496 38.4774
490 1 64.9694 64.9879 37.7194
415 1 65.7303 64.0513 38.1722
489 1 64.5813 64.495 38.4844
414 1 65.9294 64.7682 37.5245
487 1 66.4009 64.8042 38.5556
123 1 67.5407 65.4578 36.9467
124 1 67.0181 64.6457 37.4801
413 1 66.4665 65.593 37.4193
411 1 67.215 65.4826 38.2196
410 1 67.4745 64.87 38.8464
227 1 48.7657 7.64205 41.3901
229 1 48.3939 6.42165 40.6258
233 1 49.0679 8.29194 40.2872
231 1 49.2856 7.25977 40.4167
234 1 48.1332 8.36547 40.7253
130 1 66.6885 61.986 38.6006
197 1 67.1318 60.7616 39.0229
128 1 65.8601 62.5459 38.3924
129 1 66.0864 61.5132 38.1651
131 1 66.2646 62.4364 39.39
200 1 67.7484 62.2724 38.0678
126 1 66.6823 63.6115 37.4041
418 1 64.4918 62.6062 39.0959
417 1 64.4443 63.315 38.2585
125 1 66.4751 64.3751 36.6817
132 1 66.3532 61.3263 39.413
133 1 66.9544 61.7805 40.0125
483 1 67.6122 63.5856 38.01
482 1 67.9172 63.8849 38.8378
481 1 68.424 63.1738 38.3937
488 1 65.4152 64.9258 38.642
419 1 65.1269 63.2439 39.0286
486 1 66.3208 64.0909 39.4945
420 1 65.3136 63.8979 39.6181
187 1 67.1687 63.8683 40.4501
491 1 65.2579 66.0209 37.9826
492 1 65.0526 66.017 38.9896
493 1 65.8165 65.6361 39.3204
401 1 66.6521 65.0434 39.6995
402 1 66.5523 64.8445 40.7068
408 1 -7.79804 64.5493 38.4142
409 1 68.2682 65.017 38.6074
485 1 66.0364 63.3756 38.9931
407 1 -7.64832 65.1134 39.0983
225 1 47.4027 6.55793 42.0195
236 1 47.027 7.54127 40.5794
226 1 47.8514 7.42052 41.9395
238 1 47.5567 9.1591 41.5572
235 1 47.4558 8.2518 40.0207
240 1 48.5132 9.50396 41.0572
239 1 47.5629 9.92719 41.0587
373 1 67.3123 60.0623 41.2268
196 1 68.0901 60.5675 39.3295
195 1 68.3089 60.0644 40.0253
194 1 -7.83128 60.111 40.5909
193 1 -7.58941 60.884 40.4602
366 1 65.1107 61.5895 39.6334
370 1 65.8412 60.2212 39.9911
367 1 64.6537 60.7707 40.1871
371 1 66.389 59.4657 40.0121
372 1 67.2303 59.4875 40.4799
198 1 67.6255 61.5716 39.0052
199 1 68.099 61.3805 38.2026
190 1 68.3081 62.6847 39.8019
192 1 -8.08433 61.1718 39.6487
191 1 -8.22357 62.1372 39.2223
364 1 66.1294 61.287 40.4582
365 1 65.591 62.0849 40.2684
363 1 66.8876 60.6866 40.0617
134 1 67.491 62.6177 40.4146
206 1 -7.16011 63.5553 39.573
207 1 -7.16668 63.4943 40.4831
498 1 65.1158 64.6042 41.3216
499 1 65.6535 63.8591 40.7535
189 1 67.6087 62.8259 39.0732
186 1 67.7728 64.0796 41.1217
185 1 68.1248 63.453 40.7211
188 1 67.2107 63.3831 39.657
204 1 68.4281 64.2685 40.0657
205 1 -8.19664 63.6204 39.4267
494 1 65.6041 64.9027 39.9855
495 1 64.7978 64.9994 39.5837
331 1 67.7548 64.8778 41.7773
332 1 -8.37871 65.5223 41.4374
334 1 -8.11349 66.1422 42.8165
403 1 67.0065 65.5048 41.2069
404 1 67.8225 66.0344 40.9091
405 1 67.8765 65.1138 40.4276
406 1 -8.44804 65.2003 39.601
223 1 46.6429 5.7985 41.2581
237 1 47.3255 8.11864 41.4413
224 1 47.5649 6.07876 41.183
222 1 46.5172 6.71485 41.4925
375 1 -7.96264 60.5083 42.1918
377 1 -7.44787 60.0381 43.6118
374 1 68.3651 60.106 41.4967
376 1 -7.29824 60.3852 42.8075
479 1 -8.11004 61.9485 42.669
368 1 64.2632 60.1587 41.0201
369 1 64.9831 59.6646 40.5768
137 1 68.4483 61.0714 41.1194
136 1 67.8567 60.9731 40.4419
211 1 -7.49198 61.2712 41.6527
209 1 -8.05496 61.9601 40.4186
212 1 -6.58442 61.2629 41.8931
213 1 -6.62789 62.14 42.5108
361 1 65.4933 60.5635 40.9678
362 1 66.4533 60.2336 40.7775
182 1 67.0842 61.8007 41.3879
135 1 67.8938 61.8979 40.8
478 1 -8.23794 61.948 41.5967
477 1 -7.4412 62.3605 41.8692
476 1 -7.72307 62.9647 41.227
359 1 -6.49091 63.9238 41.2073
208 1 -7.62538 62.7888 40.0304
500 1 66.4555 63.1049 40.3928
497 1 65.3415 65.537 40.9079
181 1 66.5065 60.9765 41.4134
184 1 68.0222 62.691 41.387
183 1 67.6497 62.1843 42.0768
475 1 -7.86189 63.9397 41.1829
203 1 -7.50626 64.4077 40.2282
474 1 -8.41865 63.835 41.9384
201 1 -7.41987 65.4304 40.3904
202 1 -6.54534 64.8268 40.3152
496 1 64.8277 65.8603 39.9802
329 1 66.8415 64.8741 42.3649
330 1 67.4788 64.007 42.215
328 1 66.05 64.9086 41.8091
472 1 68.3465 64.4911 42.6833
333 1 -7.59227 66.0245 41.9428
336 1 66.8497 65.9406 43.3226
335 1 67.8692 66.1008 43.1587
339 1 66.1138 66.0955 42.262
338 1 65.3937 66.442 42.9315
337 1 66.2052 66.7955 43.2394
221 1 46.0731 7.13465 42.2883
379 1 -6.84634 60.8525 43.7497
378 1 -7.45601 60.4564 44.5869
480 1 68.1453 61.3773 42.5273
138 1 67.4979 60.9148 41.807
220 1 -8.24137 59.763 42.9987
210 1 -6.99145 61.8455 40.9376
217 1 -7.36215 61.7802 43.8535
214 1 -6.95009 62.8772 42.8988
215 1 -7.92516 63.0272 42.4836
216 1 -7.82972 62.5361 43.4595
99 1 66.567 61.6112 42.3531
218 1 -7.96422 61.2368 43.4957
98 1 67.1982 61.6094 43.2157
360 1 -7.07798 64.566 41.4211
358 1 -6.82619 63.5599 42.1222
357 1 -6.75916 64.1187 42.876
100 1 65.4627 61.6357 42.3094
324 1 67.1298 63.2492 41.3095
323 1 66.6747 62.874 42.1724
97 1 67.9389 62.2959 43.207
96 1 67.8352 63.1523 42.6936
355 1 -8.20464 65.2958 43.456
356 1 -7.286 64.8768 43.3385
326 1 66.2582 64.0152 42.3232
325 1 66.5996 64.0445 41.4226
327 1 65.4781 64.4631 42.6714
473 1 -7.92006 64.5771 42.0813
91 1 66.0058 65.2977 43.4631
92 1 66.8062 64.9617 43.7716
463 1 -7.70637 65.0715 45.9055
464 1 -7.51164 65.2344 44.9868
462 1 68.4216 64.7342 46.0335
340 1 65.2899 65.4961 42.1925
471 1 67.7477 64.3856 43.6809
470 1 67.7522 64.9307 44.4899
467 1 67.0691 65.8533 45.84
380 1 -6.3382 60.493 44.8575
139 1 66.7483 60.4239 42.3154
219 1 68.2607 60.5027 43.6148
140 1 67.6541 60.2185 42.5166
344 1 68.1143 61.8975 44.1208
346 1 67.6319 62.4935 44.9002
321 1 65.4752 63.2091 42.9769
322 1 66.1334 62.6467 42.8407
94 1 66.4532 63.6187 43.2683
95 1 67.1505 63.0379 43.3359
345 1 67.0796 62.087 44.1252
354 1 -8.27064 64.4498 44.0542
353 1 -7.71679 63.8283 43.4235
461 1 -8.27233 64.2689 45.284
93 1 66.9347 63.9154 44.2244
88 1 66.5899 64.8904 45.0042
87 1 67.1961 64.3763 45.5579
352 1 68.3548 63.465 43.9082
89 1 65.8361 65.3397 44.6425
90 1 65.9915 66.0676 44.1165
466 1 67.5846 65.209 45.5013
469 1 67.2072 65.7317 44.4194
465 1 68.3166 65.3665 45.1238
468 1 66.4186 66.0262 45.0629
341 1 67.436 61.1337 44.1604
343 1 -7.9669 61.4888 44.6565
347 1 -8.2579 62.447 44.8412
342 1 68.2659 60.6876 44.8118
348 1 -7.79285 62.9604 45.5825
349 1 -7.58932 63.9362 46.0426
82 1 68.2555 61.099 45.9389
85 1 67.8568 63.5371 46.0174
351 1 -7.90605 63.4851 44.4926
350 1 -7.23885 63.934 45.1563
81 1 67.4422 61.2041 46.2192
84 1 67.8108 62.5954 46.1261
83 1 -8.25067 61.9154 46.2528
86 1 67.776 63.7126 45.0445
34 1 60.2498 64.6587 49.4435
32 1 58.6799 64.2985 49.0663
31 1 57.7463 63.8611 49.0349
29 1 57.6421 64.732 49.8005
37 1 58.6506 64.8303 50.2947
38 1 58.9641 63.9263 50.2028
36 1 59.5642 65.1103 50.3516
35 1 59.4622 65.1128 49.3076
39 1 59.7043 63.6469 49.5597
40 1 59.9817 63.9336 50.4342
21 1 58.6543 63.3092 48.6528
33 1 59.6355 64.2283 48.7017
22 1 58.3629 63.1406 49.4947
30 1 57.2476 64.7878 48.9492
27 1 57.1097 64.1227 50.8932
26 1 57.4898 63.4956 50.138
28 1 56.8039 64.3212 49.9861
23 1 57.5292 62.7112 48.8884
25 1 56.9427 62.7589 49.7732
24 1 56.8087 63.4511 49.1211
46 1 10.1597 37.2533 56.0163
47 1 9.79327 36.6199 55.4022
49 1 8.40596 37.1307 55.5683
48 1 8.80938 36.2287 55.3386
51 1 7.84904 35.7781 55.7031
50 1 7.59261 36.699 55.4067
57 1 7.56143 34.1465 55.5365
58 1 8.41305 34.702 55.3923
45 1 9.2056 37.7592 56.0611
42 1 7.58762 37.4853 56.0993
44 1 9.08802 36.7225 56.3684
52 1 8.08224 36.3955 56.4641
53 1 8.80849 36.0447 57.224
54 1 8.53084 35.2554 56.6959
55 1 7.75894 34.778 56.3072
56 1 7.72514 33.771 56.489
59 1 8.63946 33.9937 56.0196
60 1 8.44856 33.0531 55.8353
43 1 8.42777 37.3686 56.6659
41 1 7.05324 36.6363 56.4158
248 1 61.9858 65.726 59.0284
247 1 61.5029 65.8659 58.2354
246 1 61.6134 66.5163 57.423
251 1 62.3999 64.9958 60.1199
162 1 59.9553 66.369 59.038
250 1 61.8925 64.5705 59.4739
163 1 59.9866 65.6229 59.6139
164 1 60.9548 65.9629 59.6371
249 1 61.1909 65.1332 59.1423
245 1 61.6146 67.0132 58.3177
161 1 59.0845 66.8223 58.8459
260 1 59.1435 64.8834 59.3242
244 1 60.7821 66.9268 58.9625
243 1 60.0054 67.4213 59.2822
165 1 61.7277 65.8715 60.2765
258 1 60.0404 64.3994 60.2946
257 1 60.4898 64.399 61.1673
254 1 60.7075 65.431 60.5378
252 1 61.9361 65.2492 61.1046
253 1 61.3645 64.6728 60.5144
167 1 62.99 66.6588 61.1634
166 1 62.7763 65.9058 60.4199
259 1 60.2029 64.5871 59.4006
242 1 59.95 66.656 59.9953
241 1 58.9243 66.8797 59.9818
256 1 60.4433 65.1688 61.7747
255 1 59.7495 65.2364 60.9869
175 1 60.2017 66.5085 60.9003
169 1 61.8204 66.64 61.6
168 1 62.1688 67.0652 60.7809
177 1 60.5907 67.6323 60.6055
172 1 61.1028 67.0248 62.3436
173 1 60.0386 66.8303 62.6564
174 1 59.8893 66.3452 61.8225
176 1 61.1664 66.8301 60.5376
178 1 59.6229 67.6635 60.303
170 1 60.9185 66.2373 61.6457
171 1 60.6634 67.2099 61.6471
179 1 59.7729 68.2689 61.1668
180 1 59.3582 67.5424 61.5891
460 1 41.1416 0.808114 -8.39447
441 1 40.5644 -1.72761 -8.32737
457 1 40.1666 1.16452 68.1939
458 1 40.089 2.1011 68.3941
459 1 40.7495 1.63769 -7.89315
442 1 40.8475 -0.957662 -7.81371
443 1 41.7873 -0.962095 -8.08719
444 1 41.9441 -0.0148458 -8.29147
ITEM: TIMESTEP
9000
ITEM: NUMBER OF ATOMS
500
ITEM: BOX BOUNDS pp pp pp
-9.7373759541251204e+00 6.9737375954124843e+01
-9.7373759541251204e+00 6.9737375954124843e+01
-9.7373759541251204e+00 6.9737375954124843e+01
ITEM: ATOMS id type x y z
441 1 42.5938 0.498934 67.754
455 1 42.0402 -1.31438 69.1603
452 1 42.9359 0.229809 69.3005
442 1 43.4813 0.990249 67.4979
443 1 43.6118 0.0187123 67.2103
444 1 43.4316 -0.099487 68.1527
456 1 42.7312 -1.81203 69.6355
460 1 42.4932 -1.92372 68.481
459 1 42.8914 -1.12226 68.0525
281 1 35.7353 -6.56876 0.0920883
282 1 36.054 -5.80355 -0.581449
284 1 35.8756 -6.17111 -1.97342
283 1 36.5517 -6.26341 -1.35556
285 1 35.9723 -5.27698 -1.70535
291 1 35.9602 -5.26168 -2.79313
289 1 37.8565 -5.31494 -2.72483
290 1 36.8357 -5.35569 -3.2008
286 1 36.5443 -4.56396 -1.28028
300 1 36.9529 -6.10978 -2.33568
297 1 35.3211 -6.66167 -3.28268
292 1 36.3918 -4.44519 -2.61103
288 1 37.1082 -5.1736 -2.00604
287 1 37.2326 -5.33677 -1.06357
294 1 35.0575 -5.24034 -2.18644
295 1 34.6343 -6.09089 -2.32819
296 1 35.0203 -5.6986 -3.22979
298 1 36.1329 -7.14293 -2.98923
293 1 35.5714 -4.37524 -2.17259
299 1 36.6971 -6.99463 -2.02763
160 1 31.207 1.57125 4.20948
301 1 61.1213 -0.647421 4.10611
154 1 34.1067 -0.311845 5.39828
155 1 33.496 0.24254 4.74605
158 1 32.1333 1.24347 4.44417
159 1 31.6536 0.845538 3.68918
150 1 31.4172 -0.0459793 5.28063
427 1 62.8298 0.706212 3.82962
426 1 62.5292 -0.163381 3.96926
424 1 62.5268 -0.813693 3.09045
142 1 33.8051 0.971938 4.02235
157 1 32.6234 0.459672 4.09594
313 1 61.772 0.652263 4.15416
312 1 61.1642 1.1026 3.66213
311 1 60.5201 0.264237 3.75498
310 1 60.0893 0.0916498 4.59682
423 1 62.8535 0.191918 2.95092
425 1 61.7198 -0.0913302 3.46071
78 1 14.8743 58.0226 2.28477
77 1 14.7412 57.8162 1.22655
71 1 16.6646 58.7258 1.26589
79 1 15.311 58.3512 2.97479
80 1 16.2557 57.9855 2.99965
76 1 14.4699 58.8333 1.54253
61 1 15.0562 59.4838 3.42319
62 1 15.7922 59.9945 3.1675
63 1 16.2434 59.9094 2.14257
152 1 32.4754 -0.659515 4.47617
304 1 61.3302 -1.22732 5.99131
302 1 61.6663 -0.237334 4.78297
303 1 61.774 -1.17424 5.16609
315 1 62.9367 1.69067 4.55037
430 1 63.3866 1.37891 6.10917
316 1 63.7558 1.78303 5.04643
317 1 64.3938 1.13658 4.94438
153 1 33.2936 -0.837246 5.09606
147 1 31.675 -1.10929 3.79009
156 1 33.3197 -0.30605 3.93093
149 1 31.2263 0.521097 4.56722
148 1 31.6008 -0.182888 4.10815
151 1 32.3644 0.114108 5.16071
428 1 62.6172 0.479767 4.76575
307 1 61.1589 -0.0822391 6.02325
429 1 63.2587 0.612271 5.52189
314 1 62.1556 1.51379 4.03275
435 1 61.8912 2.27224 6.18816
436 1 62.6874 2.16584 5.67651
421 1 63.5264 1.37614 3.3496
146 1 32.3302 -0.477019 3.46856
143 1 33.5882 0.539704 3.21216
141 1 34.5027 0.207794 4.1463
144 1 32.5875 0.389043 3.01344
308 1 61.7665 0.48289 5.46215
309 1 60.8298 0.429313 4.8765
438 1 61.3648 1.37346 4.79491
439 1 61.2854 1.47151 5.77485
437 1 62.2115 1.43549 5.33696
422 1 63.788 0.50317 2.94316
440 1 61.1056 1.41649 6.82863
70 1 16.1393 59.1554 0.739707
74 1 15.5458 59.2018 2.34301
72 1 16.0222 58.1159 1.8976
75 1 15.5057 58.9283 1.4405
69 1 15.2398 59.2776 0.531298
64 1 15.2341 60.0329 1.6871
65 1 16.0531 60.1958 1.05864
68 1 14.5863 60.05 0.646184
67 1 15.2615 60.4879 0.0691799
66 1 15.7631 61.0892 0.652033
320 1 62.882 -0.520446 5.08655
319 1 63.669 -0.200674 4.78899
431 1 63.5197 1.32604 6.98729
432 1 62.9696 2.15248 6.91999
318 1 63.9247 0.810798 4.32065
305 1 60.6175 -0.976368 5.26038
306 1 60.2436 0.0245588 5.72459
434 1 62.3936 1.36756 6.40095
145 1 31.6801 -0.0587635 3.01079
73 1 16.5049 58.8475 2.27227
433 1 62.0853 1.64523 7.24129
16 1 7.16032 10.8999 16.026
17 1 7.42443 11.7668 16.0667
18 1 7.42369 11.8821 17.0726
14 1 7.8659 9.93761 15.5137
13 1 8.15513 10.5162 16.161
11 1 8.13973 9.85384 16.9535
12 1 7.57591 10.6048 17.0413
15 1 7.7456 10.7703 15.1064
9 1 9.00438 10.0571 15.6599
20 1 8.40328 11.9119 17.549
19 1 8.14731 11.3975 16.7673
6 1 7.94254 10.9356 13.756
4 1 8.27634 12.3878 14.8989
5 1 8.1716 11.5873 14.3748
8 1 8.80874 9.72508 14.7421
7 1 8.01329 10.0398 14.1798
10 1 8.46657 9.34093 16.084
3 1 7.30047 12.3507 14.6671
2 1 6.72694 11.4592 14.7702
1 1 6.06851 12.1423 14.4104
267 1 53.2504 61.3376 25.0971
268 1 53.1329 61.3965 26.124
266 1 54.2135 61.4644 25.3127
263 1 53.5357 61.2677 23.8357
261 1 52.9237 61.8744 23.3145
280 1 50.2425 61.8727 25.7861
270 1 52.995 60.2382 26.0353
269 1 53.8433 60.7131 26.0341
278 1 50.8977 62.3934 26.4324
277 1 50.8507 61.6952 26.8632
271 1 52.5246 60.4386 25.1865
264 1 54.3835 60.7498 24.2972
265 1 54.6414 60.6658 25.1791
400 1 50.4487 61.4506 24.2545
399 1 50.9622 62.057 24.9512
383 1 51.7465 63.0725 24.6122
262 1 53.4858 62.0977 23.9748
381 1 52.6534 64.3645 24.9258
382 1 52.1428 64.0012 24.1523
120 1 29.8742 60.1365 25.3337
116 1 30.4493 59.532 24.593
115 1 30.55 59.1673 25.468
114 1 30.592 58.2016 25.0966
119 1 29.7238 60.5558 24.5256
118 1 30.6923 60.6618 24.7021
117 1 30.8218 60.2326 23.942
272 1 52.3062 60.3155 24.3766
279 1 49.8843 62.2141 26.6954
273 1 52.4137 61.2653 24.3583
274 1 51.361 60.9827 24.874
276 1 51.6898 61.2877 26.6345
275 1 51.5077 61.4178 25.5975
384 1 51.6149 62.598 25.5719
386 1 50.363 62.9184 24.8037
385 1 51.0221 63.2837 25.6275
396 1 52.5159 62.3642 25.0899
398 1 51.6635 61.9873 24.2041
397 1 52.4372 62.6171 24.0253
388 1 51.1372 62.4931 23.2223
387 1 50.6557 62.5292 23.9873
391 1 49.6461 63.8367 24.4305
395 1 52.3606 63.211 25.4377
107 1 32.4207 58.9373 24.6235
109 1 31.3051 60.0055 25.2531
112 1 31.845 58.658 23.6756
108 1 31.7128 59.1069 25.3424
113 1 31.29 58.3333 24.4666
110 1 31.4822 59.4955 24.3438
106 1 32.2452 59.889 24.8534
105 1 32.618 59.82 23.8841
111 1 31.125 59.1805 23.3885
101 1 31.9719 61.0431 25.0745
392 1 50.2395 64.0925 25.2884
393 1 51.1995 64.3277 25.2363
390 1 49.5828 62.9616 23.9163
394 1 52.0169 63.8778 25.8234
389 1 50.0774 62.4013 23.1458
104 1 32.1586 59.5349 23.2022
102 1 31.9118 60.7179 24.123
103 1 31.681 60.4115 23.1715
121 1 69.2139 68.0738 39.3826
125 1 67.3387 65.2459 38.3578
122 1 68.9103 67.0222 39.0555
123 1 68.1408 66.766 38.6553
127 1 68.565 64.5901 38.5226
128 1 67.5005 64.0885 38.3877
129 1 68.3077 63.5782 38.2934
200 1 69.5628 64.7544 38.7322
199 1 69.4957 63.719 38.8353
481 1 69.6645 66.3397 39.1274
416 1 66.1925 66.4612 38.2381
417 1 65.9897 65.707 38.7717
484 1 68.3191 65.7853 40.08
415 1 66.678 66.796 38.9918
126 1 68.4236 65.5666 38.3502
483 1 68.3483 66.0649 39.2678
408 1 69.2734 66.8496 41.1863
490 1 66.2164 67.1732 41.1079
489 1 65.6531 66.8726 40.2808
414 1 66.4111 67.779 38.7083
413 1 66.835 67.6378 39.6172
124 1 67.4285 66.1109 38.6103
411 1 68.5984 66.8686 40.0567
491 1 65.9383 66.2812 41.1623
412 1 67.779 67.2522 39.4429
230 1 49.416 7.12484 43.4007
232 1 50.4207 7.15527 42.7252
192 1 -8.51184 63.3508 38.9866
197 1 69.5541 62.7046 39.8403
196 1 -9.43812 61.8892 39.5849
191 1 -9.00477 64.2284 38.979
418 1 65.5794 66.4744 39.328
366 1 67.7505 59.7244 40.5029
130 1 68.2067 62.7093 38.9074
131 1 67.5505 61.9203 39.0573
132 1 67.061 62.004 39.981
198 1 -9.41467 63.3897 39.4599
190 1 69.6103 64.2958 39.6896
206 1 -8.74391 64.7361 40.8427
205 1 -8.29671 65.7178 40.7623
419 1 65.1112 65.9007 39.9865
420 1 64.8579 65.0189 40.5906
486 1 67.019 65.5965 39.4734
485 1 67.8494 65.2114 39.5915
482 1 69.1646 65.4107 39.4587
189 1 69.1513 63.6998 40.2391
188 1 68.6101 63.7877 39.4165
407 1 69.3676 67.731 41.2045
406 1 68.3016 67.4724 40.9977
488 1 66.1665 66.022 40.2389
495 1 65.5426 65.1353 41.4667
487 1 67.118 66.2442 40.2171
401 1 67.6834 65.1407 40.81
494 1 66.512 65.28 41.0396
410 1 69.6042 67.2711 40.0974
409 1 -9.24158 67.0708 40.9983
492 1 66.3966 66.0821 42.0869
493 1 67.0572 65.4154 41.8004
223 1 46.3186 6.04543 43.1741
229 1 49.2895 6.47937 42.5276
224 1 46.8296 6.18558 42.2266
236 1 49.9274 7.10485 41.0659
228 1 49.249 7.30063 42.0893
234 1 51.1602 6.92343 41.8535
235 1 50.2519 6.56954 41.8811
233 1 51.1484 6.50431 42.7458
231 1 50.3863 6.69877 43.6336
240 1 48.247 7.19892 42.8642
239 1 48.7128 8.17197 42.6438
369 1 68.0095 60.8907 38.9963
371 1 68.6936 60.4118 40.0184
372 1 69.436 60.7855 39.5712
194 1 69.323 62.0681 38.363
193 1 -9.40425 62.7458 38.6874
137 1 68.2387 61.385 41.4077
367 1 67.0343 60.6244 40.361
368 1 67.1037 60.9011 39.2554
361 1 67.2538 61.3139 41.9161
370 1 67.8058 60.1386 39.4815
364 1 67.1748 59.5164 42.0282
363 1 67.4854 60.3121 41.5478
362 1 66.9413 60.3876 42.3472
373 1 69.1609 61.4046 40.4218
195 1 69.0898 61.7864 39.3168
136 1 67.8965 62.19 41.8062
209 1 -8.61635 63.1521 40.1941
210 1 -8.99825 62.7252 40.9121
365 1 67.063 59.213 41.0558
133 1 67.6475 61.5834 40.6059
134 1 68.3957 62.3101 40.0481
135 1 68.5542 62.4541 41.0076
184 1 68.3901 63.5861 40.9465
207 1 -8.81942 64.0694 40.0015
476 1 69.7073 64.1771 42.647
208 1 -8.93722 63.729 40.8655
475 1 68.8924 63.501 42.8682
359 1 -8.41848 66.1006 41.7387
499 1 66.7238 63.945 40.1939
500 1 67.5311 64.0027 39.4635
187 1 68.5769 64.6075 40.0715
186 1 67.647 64.2169 40.5312
185 1 68.435 64.586 41.1087
324 1 65.3487 64.3652 42.2237
203 1 -9.61785 66.2913 40.2798
201 1 69.5852 64.5743 40.8416
202 1 69.6663 65.3265 40.4477
498 1 66.2802 64.764 40.1094
497 1 66.0895 64.2496 41.0986
402 1 68.1279 65.3875 41.7042
403 1 68.3155 66.2096 41.2443
204 1 -8.60096 66.454 40.0246
405 1 67.4773 67.2943 41.4017
496 1 65.166 64.2046 41.1307
404 1 67.3962 66.4391 41.3111
222 1 46.8897 6.72426 43.6017
221 1 46.6728 7.57709 43.2306
225 1 47.4129 6.91075 42.3251
226 1 47.9362 7.50669 41.643
237 1 50.0749 7.79294 41.747
227 1 48.6306 6.79737 41.5265
238 1 49.695 8.25894 42.5428
375 1 69.7539 60.6222 40.8422
376 1 69.3265 60.7447 41.8626
211 1 -8.29315 62.2941 41.2859
212 1 -8.93301 63.097 41.8645
181 1 66.9132 62.1726 41.3248
139 1 67.6599 60.8305 42.8193
374 1 -9.31793 61.5582 40.5615
138 1 68.2934 61.0959 42.2397
140 1 67.645 61.7419 42.8869
479 1 68.8876 62.5072 42.3138
478 1 69.3561 63.1027 41.6774
477 1 -9.70093 63.9781 41.7121
213 1 -8.6276 63.9767 42.0005
100 1 68.1641 63.2053 41.9521
182 1 67.3877 63.0601 40.9288
99 1 67.2396 63.0763 42.0289
322 1 67.1222 63.9459 41.4961
183 1 67.9067 63.2853 40.1593
480 1 68.3115 62.3517 43.2768
474 1 69.0585 64.3077 43.556
215 1 -9.34256 63.1607 42.9492
358 1 -9.41036 65.9409 41.3878
323 1 66.2502 63.9182 42.1105
326 1 66.7437 64.6579 42.7955
325 1 66.0737 65.1689 42.4042
330 1 67.9656 64.4144 42.0916
96 1 67.2109 63.6651 43.6486
332 1 69.2496 65.1401 41.6242
473 1 68.8317 64.7264 44.194
360 1 -8.31404 65.9769 42.6706
327 1 66.721 65.5374 43.279
340 1 67.3855 66.4716 42.3323
329 1 68.2395 64.4309 43.0736
328 1 67.5993 65.156 42.909
331 1 68.7615 64.9221 42.3623
472 1 69.321 65.4031 43.4955
333 1 69.6091 65.8874 42.3375
339 1 67.7269 67.2026 42.8133
220 1 -9.42532 61.3991 43.5643
377 1 69.3587 61.5074 41.7632
218 1 68.9871 61.5715 43.2391
379 1 -8.60399 61.856 42.925
219 1 69.7404 61.9976 42.8039
341 1 67.1811 62.5102 43.8927
217 1 69.2012 62.4921 43.8513
216 1 -9.49848 62.9987 43.999
98 1 66.7659 63.0073 42.8512
97 1 67.6896 63.2544 43.0318
344 1 68.3073 62.3686 45.1805
345 1 67.8671 63.1119 44.7587
353 1 -8.62737 64.2076 45.3813
214 1 -8.60532 63.7179 42.9651
357 1 -9.18784 64.974 41.7546
321 1 66.4128 63.2247 41.2903
94 1 66.7549 64.392 44.471
95 1 67.7223 64.1645 44.4201
352 1 -9.43453 64.9174 45.18
355 1 -8.7692 64.8948 43.4047
356 1 -9.19776 64.9627 42.6757
354 1 -8.7036 64.4527 44.2996
91 1 67.3061 66.2417 43.9511
92 1 67.3903 65.2204 44.1397
471 1 69.293 66.3432 44.0081
334 1 68.8973 66.2737 42.8279
338 1 68.5536 67.1998 43.329
336 1 68.5061 67.0721 41.8761
337 1 68.3826 67.7987 42.3999
90 1 67.7849 67.112 44.0931
335 1 69.4155 66.9341 42.3568
378 1 -9.12823 61.8121 41.9952
380 1 -8.46963 62.7391 42.7215
342 1 67.1677 62.4079 44.7958
343 1 68.0704 61.9128 44.4046
347 1 68.3189 63.3946 46.2175
346 1 67.5816 63.3371 45.5882
348 1 69.1228 63.6356 45.5181
351 1 -9.73392 64.4148 44.3887
350 1 69.0034 63.5994 44.3201
93 1 67.2436 64.8912 45.2132
86 1 68.2694 64.8216 46.158
464 1 -8.97961 65.7429 46.3828
461 1 -8.71395 65.9891 45.1782
88 1 68.4306 66.2751 45.3007
89 1 68.1988 67.1919 45.1486
470 1 69.6766 65.9135 44.7622
87 1 68.2096 65.2404 45.426
466 1 -9.53428 65.6077 47.2868
465 1 -8.90716 65.0031 46.7887
468 1 69.1771 65.4793 46.315
469 1 69.6839 65.9927 45.8411
82 1 69.1222 63.9421 46.7502
81 1 -9.67254 63.7238 47.5452
83 1 69.6437 64.2247 46.0686
84 1 69.0562 64.7386 45.3806
349 1 -9.56334 63.5371 45.0406
85 1 68.0735 64.1984 45.4116
463 1 -8.13873 65.4515 45.8892
462 1 -8.05199 66.3106 45.7149
467 1 69.1976 66.4038 46.8334
25 1 60.3737 64.2588 51.5348
23 1 61.0669 64.9281 52.187
24 1 60.8801 65.1614 51.2461
31 1 59.1541 65.4512 50.1379
22 1 60.697 64.6653 52.9717
39 1 60.1069 65.7282 50.9314
21 1 60.0797 65.1794 52.4234
29 1 60.1076 64.7094 49.3264
30 1 59.2131 64.6045 49.7358
32 1 58.2534 65.0176 49.9232
35 1 58.3113 65.4716 51.7529
33 1 57.722 64.927 50.7516
34 1 58.6591 64.7534 51.0232
27 1 59.7104 63.732 50.2743
26 1 59.9055 64.6553 50.6976
38 1 59.4065 65.2759 51.5565
40 1 59.547 66.5538 50.8949
28 1 59.8791 63.7518 49.2832
37 1 59.4632 64.3043 51.9179
36 1 58.6326 64.606 52.0267
57 1 8.51094 37.7965 57.4442
58 1 8.63819 37.6708 56.4509
50 1 9.52802 35.9022 56.9156
47 1 9.65343 34.3363 56.8409
48 1 10.274 35.039 56.6694
49 1 10.155 35.5454 57.4184
56 1 9.12714 37.334 57.9042
59 1 7.86574 37.7747 55.9268
60 1 7.57138 37.146 56.6633
54 1 7.6879 36.861 57.8922
55 1 8.37602 37.0879 58.4565
41 1 10.7855 36.3612 57.0716
51 1 8.86797 36.4366 56.2875
52 1 9.25525 36.9264 56.854
44 1 8.65142 35.3903 57.3936
42 1 10.0373 36.7142 57.5594
43 1 9.31775 36.0835 57.9431
45 1 8.61323 34.8003 58.1633
46 1 9.53427 34.5682 57.8256
53 1 8.54574 36.5768 57.4432
247 1 62.7195 65.6023 57.8623
246 1 62.77 66.4586 58.3907
245 1 61.7827 66.3975 57.8276
260 1 64.1335 63.795 59.7382
249 1 63.1124 66.1486 59.3645
259 1 63.5761 64.5608 59.7497
250 1 63.2104 65.686 60.1935
161 1 61.3672 64.8571 59.4387
162 1 62.1081 65.4896 59.7448
163 1 62.1541 65.7845 58.9341
164 1 61.8984 66.5897 59.4177
244 1 62.1041 67.3525 57.6838
248 1 63.1232 65.3553 58.7614
243 1 61.6476 67.6495 58.4697
255 1 61.7062 64.9799 61.7329
258 1 62.673 64.6516 60.0972
257 1 62.9208 64.6746 61.0369
254 1 61.7867 65.9065 61.9274
251 1 63.159 66.5937 60.5389
252 1 62.2398 66.3506 60.4537
253 1 62.4848 66.3035 61.3851
241 1 60.9724 65.9961 59.2346
242 1 61.1754 66.7732 58.6487
175 1 61.0741 66.8329 60.4213
176 1 61.3012 67.7207 59.946
165 1 62.5929 67.264 59.6762
167 1 62.4912 68.8977 60.3308
166 1 62.8277 68.0924 59.923
178 1 59.8819 66.6118 59.482
179 1 60.2 66.4831 58.6571
177 1 60.4978 67.2921 59.5557
168 1 61.7905 68.3668 60.7178
256 1 61.9687 64.9712 60.9443
174 1 61.562 67.1827 61.1585
173 1 60.8336 67.9178 60.8906
170 1 61.4301 -9.59358 60.6624
169 1 61.0829 69.0431 61.2039
180 1 60.2065 67.4068 58.5187
172 1 60.9994 68.686 60.1912
171 1 61.2937 69.3476 59.6944
450 1 44.6856 0.572947 69.2976
449 1 44.5255 -0.0933913 -9.57767
448 1 43.7033 -0.575406 -9.5332
453 1 42.924 -0.756079 69.0324
446 1 43.9863 -0.791578 68.6146
451 1 43.7702 0.588313 68.9731
454 1 41.9452 -0.371706 68.7504
447 1 44.3285 -1.31538 69.4911
457 1 43.4122 -1.76533 69.0283
445 1 44.373 0.0887108 68.2692
458 1 43.4515 -1.94312 67.9416
ITEM: TIMESTEP
10000
ITEM: NUMBER OF ATOMS
500
ITEM: BOX BOUNDS pp pp pp
-1.1074017723191666e+01 7.1074017723191417e+01
-1.1074017723191666e+01 7.1074017723191417e+01
-1.1074017723191666e+01 7.1074017723191417e+01
ITEM: ATOMS id type x y z
281 1 36.1262 -7.00119 -5.12219
300 1 37.3043 -6.83416 -4.73849
282 1 36.4188 -6.13425 -4.76195
283 1 37.142 -5.54004 -4.19681
287 1 34.9389 -7.62698 -3.49413
297 1 36.6751 -7.00596 -2.92329
288 1 35.7891 -7.68191 -3.02594
291 1 35.0668 -6.57877 -2.8668
286 1 34.9793 -6.76724 -3.95443
292 1 35.4625 -5.91394 -3.38045
284 1 36.5984 -6.0545 -3.64464
294 1 36.3423 -5.82095 -2.73626
285 1 35.886 -6.80451 -3.67702
298 1 37.358 -6.30174 -2.96219
299 1 37.354 -6.81032 -3.81966
293 1 35.5505 -5.25566 -2.65144
289 1 35.2222 -7.50034 -2.29703
296 1 37.1842 -7.17915 -2.08603
290 1 35.8991 -6.82227 -2.27286
295 1 36.9244 -6.2176 -1.98869
69 1 13.6416 59.1347 -2.46294
70 1 14.1396 58.9402 -1.65715
71 1 15.0249 59.5826 -1.99794
79 1 15.5207 58.9347 -1.25493
67 1 13.262 60.402 -1.20982
68 1 13.7983 59.8792 -1.97254
65 1 14.6777 60.2011 -1.19309
72 1 15.8138 60.0868 -1.60116
64 1 14.5612 60.5938 -2.18239
63 1 15.176 61.067 -1.51032
62 1 15.9239 61.6543 -1.22792
80 1 15.7639 57.8786 -1.01185
78 1 14.6578 59.1293 -0.797237
66 1 14.1758 60.9393 -0.844205
77 1 14.8573 59.752 -0.144205
76 1 15.0648 60.7553 -0.301882
73 1 15.8318 60.0798 -0.652006
61 1 16.632 61.3744 -0.489044
74 1 15.806 59.9224 0.361197
75 1 15.8631 60.8667 0.291987
158 1 34.5933 -1.40698 2.52594
155 1 32.7976 -0.85434 3.02701
159 1 33.9801 -0.494041 2.59531
142 1 32.9895 0.219037 3.03771
160 1 34.7487 -0.412837 2.1647
424 1 63.5165 -1.10052 2.75393
146 1 34.0387 -1.24082 4.33006
156 1 33.6794 -1.36215 3.1543
152 1 33.509 -2.38288 3.99676
153 1 32.9434 -1.36403 3.99162
150 1 35.1876 -1.51304 4.15634
151 1 34.4845 -2.24865 4.06819
304 1 60.7175 -1.17794 4.32468
425 1 63.0282 -1.44624 3.59134
141 1 32.0415 0.08458 3.11837
154 1 32.2175 -0.755257 3.86519
144 1 33.474 -0.293663 3.89192
145 1 34.3516 -0.386891 4.33064
157 1 34.601 -0.949529 3.39846
313 1 60.0017 -0.366877 4.06531
314 1 60.9871 0.0498146 3.99111
422 1 62.2404 -0.697092 3.19117
302 1 62.4645 -0.477803 4.24668
423 1 63.2094 -0.234677 3.13911
426 1 63.4751 -0.695165 4.14495
143 1 33.9506 0.349835 3.3196
421 1 62.1999 0.319445 3.49187
315 1 61.2804 0.951231 4.23506
316 1 62.1748 1.4049 3.73986
317 1 63.0533 0.982904 3.12745
319 1 64.1007 1.21537 3.45837
318 1 63.3717 1.72529 3.74365
320 1 64.182 1.93084 4.2751
147 1 34.6909 -1.34179 5.10633
148 1 35.5187 -0.986104 5.7007
149 1 35.4625 -0.782805 4.70878
312 1 59.48 -0.649625 4.82464
311 1 59.8101 -0.0368471 5.59444
305 1 60.6093 -0.485677 5.18586
301 1 62.4691 -0.625459 5.24719
303 1 61.5439 -0.650032 4.63631
427 1 63.3116 0.00191966 4.79922
310 1 60.4121 0.745903 5.81316
309 1 60.6359 0.615483 4.85768
428 1 62.3827 0.492527 4.70448
308 1 61.4932 0.273724 5.2329
437 1 62.1034 1.61396 5.22685
429 1 63.0597 0.640425 5.53555
430 1 63.211 1.14582 4.68468
431 1 63.0424 2.14199 4.68507
432 1 63.4646 1.93793 5.53724
306 1 61.018 -0.765456 6.00527
307 1 61.8455 -0.20331 5.99569
438 1 61.8694 1.08022 5.9319
439 1 62.1094 1.2814 6.81611
440 1 62.7886 0.681792 6.62271
433 1 64.06 1.34412 6.23365
436 1 62.0765 2.27273 6.00407
434 1 63.3998 1.7355 6.95618
435 1 62.645 2.1991 6.83804
3 1 4.75747 9.81381 15.4132
15 1 4.4451 11.5303 15.8011
2 1 5.09159 10.6697 15.3131
1 1 4.62768 11.1343 14.7043
19 1 5.8699 11.5543 15.2883
16 1 5.23797 12.2723 15.8062
14 1 4.03713 10.5388 15.9173
11 1 3.4225 11.0369 16.5013
13 1 4.47458 11.0359 16.7674
5 1 5.56384 10.7021 17.0558
4 1 5.17242 10.215 16.2564
17 1 5.32474 11.5546 16.5023
18 1 5.97342 10.9413 15.961
12 1 3.79238 11.8071 16.675
20 1 6.45881 12.0508 16.1183
10 1 3.26071 11.2325 17.4833
7 1 4.57808 10.4767 17.9461
6 1 5.38773 10.6883 18.0426
8 1 4.62188 11.4893 17.6709
9 1 3.70228 11.785 18.0405
113 1 30.6862 59.5682 22.6208
104 1 29.2574 60.0921 22.8302
105 1 28.7403 60.6655 22.1693
107 1 29.8714 60.0526 21.9319
106 1 29.6352 61.0386 21.9952
108 1 30.8018 60.2539 21.8051
110 1 30.3417 60.6489 22.747
109 1 31.2926 60.7388 22.4671
119 1 32.7466 61.1251 22.6044
102 1 30.0033 61.6617 22.7016
101 1 30.5641 61.429 21.9053
118 1 31.929 61.6262 22.3492
114 1 31.4197 59.7284 23.3798
103 1 29.402 61.0434 23.123
111 1 30.7234 60.7816 23.6016
112 1 30.2235 59.8053 23.6019
115 1 32.2158 60.3468 23.1323
117 1 31.087 61.7326 22.967
116 1 31.7706 61.2161 23.2848
120 1 33.0209 61.4616 23.5597
400 1 53.822 61.2318 23.6202
382 1 53.7784 62.2192 24.1346
399 1 54.8505 61.2454 23.6298
388 1 51.0691 63.7789 23.6041
387 1 51.6975 62.9007 23.9653
389 1 51.3711 64.6447 23.8248
390 1 52.2363 64.8621 24.2888
391 1 52.3736 64.0297 23.9869
398 1 55.2419 61.1153 24.5047
386 1 51.7417 62.1851 24.7294
384 1 52.7065 62.4646 25.2386
385 1 52.7007 62.1386 24.3705
383 1 53.6167 62.2858 25.1099
397 1 54.59 61.4824 25.1144
381 1 54.6239 62.4322 24.3995
392 1 52.4394 63.3648 24.6906
395 1 54.9027 62.5912 25.5123
394 1 54.1088 63.1616 24.8856
265 1 55.8382 63.5194 25.6322
393 1 53.3876 63.9997 24.7856
273 1 53.6391 61.0521 26.6246
278 1 52.216 61.3483 26.2015
279 1 51.6292 61.6494 26.8941
276 1 52.2748 62.3891 26.386
272 1 53.8793 62.014 27.1153
274 1 53.6024 61.5644 25.8452
275 1 53.2765 62.1921 26.2869
277 1 52.7019 61.6563 26.9365
261 1 55.1198 62.5355 26.7816
396 1 55.1804 61.7642 25.9992
280 1 51.3379 62.6714 26.9937
270 1 53.5739 63.6209 26.9231
269 1 54.0472 62.9809 26.0876
268 1 53.4098 63.5533 25.7977
262 1 54.5665 63.2459 27.1278
266 1 55.0026 63.5603 26.0451
264 1 55.8624 63.5424 26.7245
267 1 54.1769 64.1573 26.2126
271 1 53.2959 62.7661 27.2328
263 1 55.2184 64.0635 27.3436
370 1 70.0682 62.7995 38.3158
419 1 66.3284 66.4716 38.2412
369 1 69.3478 62.4582 39.1725
368 1 69.7273 61.5873 39.7262
132 1 69.168 63.7897 39.6292
372 1 70.9904 63.0555 39.893
371 1 70.8772 62.73 38.9327
133 1 70.0154 63.4071 39.7069
194 1 -10.5222 64.0461 39.8471
129 1 66.9388 64.7647 39.9115
196 1 69.9226 64.8913 39.0201
195 1 70.773 64.3265 39.215
197 1 69.6934 64.563 39.8769
420 1 66.4645 66.458 39.2116
128 1 67.6581 65.5699 39.8931
417 1 67.558 66.3495 39.2751
125 1 69.1081 66.5457 38.6237
126 1 68.8144 66.5869 39.6981
127 1 68.5114 65.6373 39.4309
199 1 70.2707 65.5334 39.7334
200 1 70.1533 66.2158 39.0491
190 1 71.0458 66.3409 39.6788
415 1 67.4938 67.8554 39.8097
418 1 67.276 67.0236 38.5046
124 1 69.2182 67.5009 39.144
482 1 70.3758 67.2248 39.2557
481 1 71.0716 67.8497 39.3418
123 1 69.2771 68.2896 39.0865
121 1 71.0078 69.015 39.1725
122 1 70.1725 68.3719 39.0497
365 1 70.0821 60.8172 40.7616
364 1 69.5113 61.6538 40.9445
363 1 68.7318 61.4296 40.4284
362 1 68.6955 62.3598 39.9942
366 1 70.4684 61.8655 40.6687
367 1 70.2293 62.366 39.9723
373 1 -10.8414 63.2246 40.6092
130 1 67.4869 63.9096 40.2082
181 1 69.3238 63.9009 40.6425
182 1 68.4272 63.6393 40.9513
361 1 69.1771 62.9223 40.6159
134 1 70.2213 63.2748 40.6424
192 1 -9.77757 64.9898 40.175
193 1 -9.91174 64.0627 40.6478
210 1 -10.854 63.9995 41.1579
207 1 -11.0224 65.157 41.0361
131 1 68.3512 64.1998 40.0048
183 1 68.599 64.6238 40.8349
198 1 70.6611 64.6017 40.1393
184 1 69.6898 64.9801 40.993
191 1 -10.373 65.7501 40.2948
206 1 -10.8484 66.3067 40.9797
416 1 67.3257 66.6775 40.1367
498 1 68.0766 66.2656 40.8577
500 1 69.2342 65.6693 40.1162
499 1 68.7371 65.6099 40.7674
187 1 69.1632 66.5379 40.7781
188 1 69.725 66.6285 40.1295
201 1 70.1573 66.1784 41.0387
496 1 66.8343 67.318 41.0301
497 1 67.7484 67.0507 41.2046
484 1 69.1123 67.6122 40.3327
483 1 70.0715 67.8601 40.1052
189 1 70.5562 66.9676 40.3467
202 1 70.0565 67.1647 41.2587
414 1 67.599 68.7551 40.0984
413 1 68.3866 68.3176 39.9792
412 1 68.4158 68.7556 41.0412
409 1 69.3461 68.3296 41.083
410 1 69.2963 69.1616 40.4846
411 1 68.5521 69.7043 40.7777
224 1 48.627 7.21502 42.3601
225 1 48.4843 6.41258 42.4722
375 1 -10.7973 62.5368 41.3648
377 1 -10.829 62.5263 42.3892
138 1 68.2001 62.1172 42.3624
137 1 68.602 62.0997 41.5183
219 1 69.6124 62.3143 42.5147
376 1 70.5351 62.5048 41.9454
379 1 70.0459 61.3681 42.2469
374 1 -10.187 63.0686 41.3653
211 1 -11.0588 63.5536 42.0792
212 1 -10.3207 63.5429 42.6356
136 1 69.4746 62.7183 41.5805
139 1 68.3982 63.0048 41.988
140 1 69.1866 63.3413 42.5921
135 1 69.867 63.436 41.6614
357 1 -10.5974 64.6583 42.2368
321 1 66.7758 64.1409 41.3388
323 1 67.6339 65.0454 41.394
322 1 67.7241 64.046 41.7526
324 1 67.3997 64.8217 42.432
98 1 68.1084 64.0155 42.698
185 1 69.1956 65.215 41.8515
99 1 68.5902 64.9927 42.5961
209 1 70.5087 64.3035 41.4804
208 1 70.6757 65.1737 41.8492
479 1 69.7212 64.2667 42.3074
359 1 -10.8577 65.9383 42.0257
358 1 -10.1187 65.4437 42.0044
494 1 67.1632 66.0516 41.7308
186 1 69.1997 66.2198 41.5906
100 1 68.3545 65.8776 42.0724
332 1 70.2151 66.1191 42.4936
205 1 -10.6522 67.1786 41.3341
401 1 68.1823 66.989 42.2874
489 1 67.247 67.734 42.6681
488 1 67.4033 68.1686 41.7879
495 1 67.0215 66.9862 41.992
485 1 68.9984 67.4239 41.3476
486 1 68.4714 68.1472 41.8981
402 1 68.8356 67.4751 42.7444
203 1 69.8446 67.6819 42.0348
204 1 70.7976 67.1668 42.0456
487 1 67.9342 68.462 42.6435
408 1 69.3503 69.0896 41.8296
231 1 50.8303 5.71395 44.0431
232 1 51.4449 5.13222 43.7217
221 1 47.7323 6.91155 43.3936
227 1 49.2964 6.56252 43.8171
226 1 49.3589 6.51875 42.774
238 1 50.4321 6.71005 44.1336
236 1 52.2154 6.79234 44.1462
223 1 47.9209 7.82167 42.7987
222 1 48.4411 7.45652 43.4092
215 1 -10.6874 62.4944 43.3984
220 1 69.3195 62.5441 43.5242
378 1 70.7863 61.9581 42.7723
380 1 69.879 61.7266 43.2139
216 1 70.7368 62.291 43.9756
213 1 -9.86313 63.5748 43.5397
325 1 67.0563 63.9529 42.7519
341 1 68.1024 63.1682 43.5287
218 1 70.1955 63.2561 42.7918
217 1 70.6902 63.2602 43.5868
349 1 69.7699 63.6963 44.0967
356 1 -10.6233 64.3838 43.2988
355 1 -9.65125 64.4273 43.0065
354 1 -8.91784 64.5849 43.5993
326 1 66.5583 64.3926 43.4776
327 1 66.3691 65.0849 42.8464
96 1 67.4513 64.2649 44.1629
97 1 67.9266 64.6312 43.4924
328 1 67.1441 65.4011 43.4002
344 1 68.8165 64.8234 43.9565
343 1 68.9471 64.0437 43.3997
477 1 70.7573 65.4032 43.075
478 1 69.7118 64.9888 42.9976
476 1 70.8331 65.356 44.0587
480 1 70.5424 64.303 42.8149
360 1 -10.6481 66.4432 42.8202
493 1 67.287 66.1588 42.7533
492 1 67.4617 66.5662 43.5904
329 1 67.8648 65.6842 43.9045
330 1 68.3237 65.7915 43.189
331 1 69.2721 66.1263 42.8575
339 1 68.9644 66.3293 44.0844
475 1 70.2825 66.2734 43.6186
474 1 69.9084 65.624 44.0892
468 1 -10.8739 67.6744 43.9789
469 1 -10.31 66.8849 43.8289
404 1 68.0474 67.6933 44.0197
403 1 68.0803 67.5478 43.2001
490 1 66.9383 67.508 43.6274
338 1 68.9315 67.1232 43.6757
333 1 69.9926 67.0358 42.8735
336 1 69.8106 68.1272 43.2899
335 1 70.2254 67.4178 43.8478
334 1 70.7483 67.7102 43.0781
406 1 68.7753 68.4061 43.1734
407 1 69.0845 69.4585 42.8089
405 1 68.4892 68.5516 43.9043
229 1 49.2421 5.51722 44.6394
230 1 50.0719 5.92167 44.6181
234 1 51.6067 5.53935 44.9393
233 1 51.3585 4.68237 44.5401
228 1 48.488 6.25741 44.3645
235 1 52.2932 6.34306 44.9012
237 1 51.3982 6.59691 44.3085
239 1 50.8919 7.66218 44.2798
240 1 51.121 7.76279 45.1107
214 1 -10.3047 62.8983 44.308
95 1 67.4374 63.5659 44.8767
342 1 68.7131 63.7107 44.1846
348 1 69.3222 62.7949 44.6712
347 1 69.3794 63.6381 45.1007
352 1 -10.1121 64.4205 45.2751
351 1 -10.6732 64.4723 44.3265
353 1 -9.51869 64.4714 44.5239
94 1 67.9438 64.3379 45.2559
93 1 67.8826 65.338 45.2056
345 1 68.9561 65.3894 44.5934
346 1 69.2896 64.5854 44.774
473 1 70.062 65.2125 44.8848
350 1 70.5769 64.0548 44.6979
461 1 -9.66856 66.559 44.6916
470 1 -10.5545 66.01 44.3203
462 1 -10.1227 66.0017 45.397
340 1 69.1849 66.6312 45.001
472 1 70.3384 66.2045 44.998
471 1 70.8954 66.6445 44.3458
467 1 -10.1667 67.7673 44.64
491 1 67.1633 67.0482 44.4384
337 1 69.2259 67.8452 44.2941
81 1 70.9662 63.4294 45.8349
85 1 69.1533 65.091 45.6043
86 1 68.4107 64.9741 46.0137
84 1 70.053 64.8076 46.0974
82 1 71.0603 64.3515 45.7634
83 1 70.8863 65.2206 45.6231
465 1 -10.3092 66.743 46.142
463 1 -10.261 65.6791 46.3032
464 1 -10.7083 66.3147 46.9219
92 1 68.3146 66.1134 45.7515
91 1 68.8222 66.5013 46.4313
90 1 69.6162 65.9954 46.0449
87 1 68.6478 65.4305 46.9028
89 1 70.5004 65.8163 46.4838
466 1 -10.2614 67.4939 45.5996
88 1 69.7407 65.3538 47.0199
31 1 61.2843 66.0703 51.1395
29 1 61.0006 67.218 51.2162
32 1 60.9752 65.1835 51.2975
40 1 60.8303 64.3194 51.872
25 1 59.9367 65.3124 52.1889
26 1 60.486 66.3076 52.3193
30 1 61.4004 66.6025 51.9078
33 1 61.6183 65.5626 51.9967
28 1 60.7509 67.3872 52.1564
39 1 60.5794 64.286 52.7742
38 1 61.0051 65.0426 52.7085
35 1 62.2311 65.2768 52.8658
37 1 61.5998 64.325 52.8602
36 1 61.5057 65.0121 53.6394
23 1 59.2794 66.0028 53.1036
22 1 59.7156 66.7762 53.215
24 1 60.2649 65.5978 53.1074
34 1 61.5605 65.9562 53.0148
21 1 58.7565 66.9902 52.8891
27 1 60.9944 66.9212 52.9554
50 1 8.70165 36.8513 57.6867
51 1 8.8908 35.8449 58.0669
52 1 9.64993 36.3293 58.2319
60 1 11.5424 36.2511 58.0409
53 1 10.2312 36.7397 57.475
48 1 7.48233 37.3243 57.8665
49 1 7.97466 37.164 57.1481
54 1 11.087 37.3231 57.6359
163 1 63.3647 66.7635 58.2221
172 1 60.6979 66.9 58.3243
171 1 61.6536 67.2336 58.2729
243 1 63.7784 68.1313 58.0357
170 1 62.6527 67.4468 57.8688
244 1 64.233 67.2848 57.6104
169 1 62.1677 68.2986 57.6994
47 1 7.98386 36.7082 58.5272
44 1 9.09465 37.0456 58.9555
42 1 10.0143 35.8661 59.3309
43 1 9.06576 36.0271 59.0754
41 1 10.8207 35.7067 58.7535
57 1 10.3406 36.8617 59.3923
59 1 11.6445 36.5058 59.0649
45 1 8.43779 37.6402 58.7285
46 1 7.43616 37.6994 58.8811
56 1 10.1638 37.2559 58.479
55 1 11.1639 37.4707 58.6521
180 1 60.934 66.2377 59.1676
179 1 61.6803 65.6043 59.4865
177 1 61.8498 66.6776 59.3725
260 1 63.9742 65.9339 58.5494
161 1 63.2359 65.5072 59.4512
162 1 62.7709 66.1449 58.7878
259 1 64.2893 65.8806 59.4666
173 1 61.057 67.5047 59.0866
176 1 62.0188 67.5706 59.6449
241 1 62.9494 67.2636 59.2801
242 1 63.0458 68.0353 58.7576
164 1 63.8827 67.2426 59.096
165 1 63.8361 68.1179 59.4662
245 1 64.826 66.9085 58.4256
246 1 65.4296 67.6332 58.9308
167 1 62.2247 68.6412 59.0726
168 1 61.4705 68.3353 58.477
166 1 63.0876 69.0186 59.1852
58 1 10.948 36.3052 59.7985
178 1 62.4323 66.087 59.8769
258 1 63.974 66.3401 60.2759
257 1 63.3004 65.8435 60.9661
174 1 60.824 67.2173 59.9891
175 1 61.7199 66.9788 60.3921
252 1 62.9761 67.4259 60.5152
251 1 63.8753 67.4812 60.2502
254 1 63.5265 68.1818 60.9216
247 1 65.1786 68.1765 59.8189
248 1 64.7992 67.3038 59.7873
250 1 64.7636 67.1601 60.9209
249 1 65.632 67.2899 60.3342
253 1 62.9103 68.2636 60.1794
256 1 63.8369 66.519 61.3399
255 1 63.7385 67.4454 61.6221
450 1 45.679 -1.77993 67.8723
449 1 45.8531 -0.93153 68.1472
453 1 44.6928 -1.37652 69.4616
452 1 44.4262 -1.36209 68.4827
451 1 45.1963 -1.87697 68.6848
444 1 46.6952 -1.50567 69.6507
445 1 46.1964 -1.90313 68.9388
447 1 46.9505 -1.22221 68.3135
446 1 47.1917 -2.03315 68.7915
448 1 46.5297 -0.409402 68.636
455 1 45.6745 -0.947201 69.2043
456 1 45.7838 -0.00645429 69.5236
454 1 45.5285 -1.64989 69.8704
442 1 46.4647 -1.65266 70.8083
443 1 47.1974 -1.16418 70.4525
441 1 47.0566 -2.25145 70.3167
458 1 45.9875 -0.693271 70.4676
459 1 46.4619 0.210848 70.4696
457 1 46.5748 -0.532817 69.6938
460 1 45.7179 0.981473 70.2463
ITEM: TIMESTEP
11000
ITEM: NUMBER OF ATOMS
500
ITEM: BOX BOUNDS pp pp pp
-1.2325474662353948e+01 7.2325474662353571e+01
-1.2325474662353948e+01 7.2325474662353571e+01
-1.2325474662353948e+01 7.2325474662353571e+01
ITEM: ATOMS id type x y z
281 1 35.9342 -6.94317 -3.43369
300 1 35.5465 -9.11654 -3.56213
282 1 34.9738 -6.72258 -3.71457
283 1 34.678 -7.61898 -3.60199
287 1 37.604 -6.8807 -4.48943
297 1 37.309 -8.1197 -4.47809
288 1 36.6504 -6.40459 -4.6677
291 1 35.7284 -6.81566 -5.31136
286 1 36.8218 -7.23637 -4.09359
292 1 35.887 -7.53439 -4.56251
284 1 35.6702 -7.95821 -3.54577
294 1 36.1976 -7.29891 -6.1965
285 1 36.6314 -7.78302 -3.34505
298 1 36.4178 -8.61043 -4.32021
299 1 36.4251 -8.95794 -3.31658
293 1 36.1641 -7.95335 -5.51002
289 1 36.4268 -5.73048 -5.37554
296 1 37.1735 -7.68921 -5.20472
290 1 35.5583 -6.01319 -5.84917
295 1 36.7864 -6.77815 -5.57591
69 1 14.1954 59.549 -4.23732
70 1 14.1644 59.8029 -5.14034
71 1 15.2354 59.7756 -4.81131
79 1 14.6985 60.6048 -2.50366
67 1 12.8844 60.4796 -3.75054
68 1 13.7603 59.9573 -3.43321
65 1 13.4912 61.7826 -3.27881
72 1 15.0413 60.5401 -5.36211
64 1 14.398 61.5297 -3.01742
63 1 14.2613 62.0237 -3.88582
62 1 13.4733 61.7402 -4.41313
80 1 14.7812 60.7152 -3.5026
78 1 15.4879 60.2159 -2.9727
66 1 12.4979 61.3851 -3.3586
77 1 15.5897 61.1814 -2.94946
76 1 15.6653 61.724 -3.78524
73 1 14.618 61.0905 -4.55989
61 1 13.5808 60.7207 -4.80436
74 1 15.5419 60.6964 -4.2334
75 1 16.3376 60.9978 -3.84126
158 1 34.8646 -1.5555 3.52167
155 1 35.999 -1.61529 4.91181
159 1 35.141 -0.906145 4.26903
142 1 35.9261 -2.21157 2.20026
160 1 34.666 -0.57136 3.39849
424 1 62.508 -1.12208 3.53314
146 1 34.8046 -2.32984 1.85263
156 1 35.8545 -1.79219 3.9085
152 1 36.1313 -2.92513 3.58145
153 1 36.741 -2.15516 3.48078
150 1 34.5549 -2.35079 4.49209
151 1 35.5399 -2.67218 4.403
304 1 62.8611 -1.67638 4.35138
425 1 62.9915 -0.278836 3.43329
141 1 36.8189 -1.72541 2.17247
154 1 36.9061 -1.99673 4.50558
144 1 34.8477 -1.2525 2.43344
145 1 34.1332 -1.88837 2.54679
157 1 35.8133 -1.45107 3.00061
313 1 60.6216 -0.193425 5.59127
314 1 61.1715 -0.747225 5.14451
422 1 61.2742 -1.16201 4.18794
302 1 62.1877 -0.49889 4.40289
423 1 61.7545 -1.70657 3.53215
426 1 63.5758 0.551343 3.6229
143 1 35.5462 -1.40918 1.75867
421 1 60.831 -1.65615 4.93417
315 1 61.7897 -0.155132 5.50508
316 1 61.2836 0.534885 5.11779
317 1 62.0348 0.550533 4.65867
319 1 61.5832 1.08181 3.3354
318 1 62.2624 1.2977 3.96805
320 1 62.4341 0.52757 3.33302
147 1 35.0493 -2.24764 2.82185
148 1 34.6834 -2.87426 3.49151
149 1 33.9956 -2.18289 3.67408
312 1 60.7795 -0.781842 6.30524
311 1 61.401 -0.0131594 6.61249
305 1 62.0498 -1.72534 4.84842
301 1 61.8098 -0.24946 3.50461
303 1 63.153 -0.846197 4.40544
427 1 63.0675 0.69376 4.25419
310 1 61.3547 0.899872 6.21792
309 1 62.1658 0.8384 5.64858
428 1 63.663 1.38763 4.47332
308 1 62.4925 0.21873 6.25713
437 1 62.6803 1.39236 5.01317
429 1 63.2387 1.92044 3.98611
430 1 62.3126 2.34335 4.56042
431 1 63.0147 2.71315 5.12903
432 1 62.1728 3.43342 5.35138
306 1 62.297 -1.00842 5.344
307 1 62.7875 -0.589731 6.10351
438 1 63.1902 1.32918 5.89598
439 1 63.3528 0.610349 5.36936
440 1 62.8011 -0.00593872 5.01909
433 1 61.3952 3.07069 4.74071
436 1 61.6268 1.50074 4.84254
434 1 60.6971 2.29239 4.46709
435 1 60.8165 1.22901 4.40259
3 1 0.128066 10.7489 18.6543
15 1 1.96542 10.1961 17.4266
2 1 -0.34447 10.9173 19.5126
1 1 -1.14823 10.985 19.9621
19 1 3.79659 11.4403 16.316
16 1 2.25534 10.8291 18.0805
14 1 0.960133 10.4285 17.4836
11 1 1.61999 10.9376 16.5847
13 1 0.439042 11.1718 16.9004
5 1 1.421 11.319 17.6638
4 1 0.400962 11.3973 17.9839
17 1 3.11149 11.2734 17.7867
18 1 3.71256 11.8691 17.4094
12 1 1.14553 11.7829 16.7505
20 1 3.36684 12.4153 16.4112
10 1 2.64589 10.7167 16.8802
7 1 2.18532 12.6011 16.781
6 1 2.10969 11.7586 17.189
8 1 2.08549 12.3308 15.8863
9 1 2.66572 11.6002 16.3942
113 1 30.5593 60.684 21.1185
104 1 30.9321 61.7854 22.3757
105 1 30.1287 61.5416 21.9656
107 1 28.7439 61.8256 21.2777
106 1 29.245 62.1245 22.1405
108 1 29.3045 62.4534 20.7025
110 1 30.4382 62.4519 20.7887
109 1 29.8558 61.7067 20.9957
119 1 29.9492 60.8358 19.6731
102 1 30.2076 62.6112 21.8433
101 1 30.3449 62.6508 22.7522
118 1 29.3425 61.3244 20.1578
114 1 30.9649 60.4893 20.1182
103 1 31.1837 62.5766 21.7564
111 1 31.4394 62.2794 20.7179
112 1 30.9509 61.6649 21.2645
115 1 30.7114 61.4572 20.2287
117 1 29.9534 62.078 19.7351
116 1 30.838 62.3861 19.8152
120 1 29.5401 60.2497 20.5015
400 1 57.1807 64.0455 27.4767
382 1 56.5761 62.2577 25.959
399 1 56.5932 63.8443 26.6766
388 1 54.5805 63.3901 24.4584
387 1 54.6668 62.7367 23.6706
389 1 55.5706 63.7773 24.2736
390 1 55.4599 63.2854 25.2001
391 1 54.6651 62.6878 25.3505
398 1 56.0302 64.2302 27.2313
386 1 55.5553 62.7634 24.1406
384 1 55.8936 61.5933 25.0302
385 1 55.1807 61.8651 24.4415
383 1 56.2963 62.5326 24.9837
397 1 56.2704 63.6007 27.6482
381 1 56.593 63.2154 25.6491
392 1 54.8731 61.8319 25.7016
395 1 55.5545 63.4092 26.8677
394 1 55.9023 62.6051 26.8839
265 1 55.8654 65.1118 25.5253
393 1 55.595 62.5109 25.9067
273 1 54.2001 62.6528 27.1248
278 1 52.299 61.6552 27.5291
279 1 52.8464 61.0992 26.6866
276 1 53.4973 62.1149 26.2944
272 1 53.4922 63.3594 27.1732
274 1 53.7644 61.6074 27.2097
275 1 54.1163 61.3009 26.3092
277 1 52.9704 62.3476 27.0205
261 1 56.6228 64.4469 25.9476
396 1 55.3446 63.2248 27.8024
280 1 53.3518 60.6501 25.8768
270 1 55.0894 64.5413 26.9962
269 1 54.8454 64.7506 26.0896
268 1 54.7505 63.7954 26.0086
262 1 57.2928 64.7896 26.5884
266 1 55.3059 64.3898 25.1351
264 1 55.6059 65.2134 26.4477
267 1 55.6306 64.1244 26.1651
271 1 54.3939 63.9044 27.2497
263 1 56.4209 65.2469 26.9362
370 1 71.6623 65.6235 39.5477
419 1 68.7213 66.6063 38.5296
369 1 -12.2757 65.6616 40.0853
368 1 -12.2816 64.7344 40.1121
132 1 70.6346 64.3172 41.3394
372 1 71.0794 65.2755 41.2647
371 1 71.4472 65.4144 40.3922
133 1 71.1022 63.5006 41.5305
194 1 -12.0621 66.7287 39.0566
129 1 69.4819 65.1556 40.4345
196 1 71.3384 66.6198 40.1437
195 1 71.677 66.6048 39.1509
197 1 70.3592 66.518 40.5404
420 1 69.4686 67.2074 38.9258
128 1 69.551 64.4916 40.0071
417 1 68.6682 67.3935 39.8317
125 1 69.3655 66.7666 40.4216
126 1 68.9619 65.8887 39.9391
127 1 68.6354 65.0911 39.5004
199 1 70.5805 67.2239 39.6464
200 1 71.0389 67.3048 38.6384
190 1 71.7272 68.1365 40.3536
415 1 68.1081 68.2445 40.8299
418 1 68.5328 66.675 39.3672
124 1 69.6841 67.6402 40.0173
482 1 68.9593 70.2523 41.3122
481 1 69.2784 70.981 40.8414
123 1 69.9124 68.3 39.2824
121 1 68.9109 68.9396 40.6388
122 1 69.4576 68.6734 39.9664
365 1 70.8866 63.0281 39.5567
364 1 69.9354 63.502 39.6451
363 1 70.6439 64.0658 39.361
362 1 70.6836 64.529 40.2481
366 1 71.6698 63.4539 39.3341
367 1 71.824 64.4473 39.32
373 1 71.5809 64.5926 41.0636
130 1 68.7493 64.865 41.0855
181 1 70.921 64.9233 42.2812
182 1 70.2053 65.2467 41.7836
361 1 70.1256 63.633 40.6129
134 1 70.9736 63.0093 40.7949
192 1 71.4236 68.3286 39.0771
193 1 72.1171 67.5434 38.7301
210 1 71.9578 66.1989 40.8892
207 1 -12.0077 67.8442 41.6769
131 1 69.6165 64.4376 41.3236
183 1 69.9695 66.3068 41.5614
198 1 70.6542 67.484 40.4686
184 1 70.2235 67.3642 41.4945
191 1 71.5963 67.6343 39.5804
206 1 -12.1619 67.1622 42.4169
416 1 68.7765 67.4758 40.9252
498 1 68.7172 67.0329 42.8119
500 1 68.7663 65.8928 41.61
499 1 68.4485 66.1831 42.577
187 1 70.7004 68.2671 39.8371
188 1 70.2836 69.0687 40.3533
201 1 -12.0536 68.8655 42.3021
496 1 68.0418 67.1826 41.9604
497 1 69.0354 66.9698 41.8186
484 1 69.7508 68.6725 42.0574
483 1 69.2164 69.4547 41.7342
189 1 71.2631 69.009 40.2244
202 1 71.9079 68.6889 41.6784
414 1 68.3306 68.899 41.5546
413 1 67.5263 69.4772 41.7865
412 1 68.3184 69.8518 42.2239
409 1 70.8857 69.7444 43.4771
410 1 70.0445 70.3032 43.1495
411 1 69.1224 70.296 42.6581
224 1 51.1965 6.73254 43.5471
225 1 51.3184 6.06767 44.2876
375 1 72.3115 63.2357 40.3042
377 1 71.8603 64.0928 42.0006
138 1 69.3357 63.6864 41.9165
137 1 69.2582 63.3274 41.0717
219 1 70.8468 64.8508 43.4514
376 1 72.1009 63.4402 41.3661
379 1 70.7989 63.591 42.8666
374 1 71.6224 63.8839 40.3965
211 1 -12.1483 65.3022 41.0485
212 1 -12.0685 64.3613 41.1346
136 1 69.0655 62.4848 40.3879
139 1 68.9465 63.7474 42.6798
140 1 69.732 63.4638 43.3261
135 1 70.073 62.4739 40.9456
357 1 -11.4121 65.4934 43.1266
321 1 69.9754 64.5944 42.6106
323 1 68.3833 64.512 43.1017
322 1 69.2301 64.6858 43.2954
324 1 67.9733 65.3783 43.2514
98 1 70.4679 66.9241 43.6684
185 1 70.087 68.1629 41.0487
99 1 70.9768 67.6184 43.1582
209 1 71.1789 66.7023 41.2974
208 1 71.8794 67.3836 41.2534
479 1 70.8441 66.0431 42.2963
359 1 -12.1611 66.5168 43.8895
358 1 -11.3882 66.3992 43.5628
494 1 67.7552 67.7424 42.9465
186 1 70.9217 68.3633 40.9236
100 1 70.7435 67.7972 42.341
332 1 71.8322 67.4221 44.2892
205 1 -11.9724 67.6751 43.2825
401 1 69.3711 67.3651 43.5494
489 1 68.5345 69.3089 43.682
488 1 67.7313 69.1647 42.9663
495 1 67.1396 67.1554 42.6575
485 1 69.3895 69.2701 42.9083
486 1 68.687 68.8694 42.467
402 1 69.7104 68.0696 43.0432
203 1 71.7786 68.0919 42.5564
204 1 72.3212 68.4927 43.2716
487 1 67.694 68.3061 42.1703
408 1 70.6823 69.5091 42.5489
231 1 51.2918 5.16989 45.1207
232 1 50.5534 4.74617 45.263
221 1 50.0095 5.96102 44.0273
227 1 52.3565 6.47343 44.7323
226 1 51.5958 7.15286 44.5786
238 1 51.9734 6.14352 46.8282
236 1 51.6915 5.04251 46.0776
223 1 50.1934 6.5327 43.1653
222 1 50.1709 6.81023 44.0957
215 1 -12.2814 62.8999 42.5997
220 1 71.4119 65.6084 43.1472
378 1 71.5571 64.4785 42.8562
380 1 70.8612 62.6859 42.2439
216 1 71.8047 63.2836 43.4097
213 1 -11.401 64.4065 41.9534
325 1 67.2942 65.8074 43.9769
341 1 70.0553 65.5544 42.9577
218 1 70.3927 64.2717 43.6282
217 1 70.9013 63.3184 43.9318
349 1 71.1921 64.1596 44.555
356 1 -12.2921 65.7768 43.0763
355 1 -12.1245 64.9209 42.5303
354 1 -11.8597 64.2054 42.9996
326 1 67.6597 66.6642 43.7366
327 1 67.5347 66.6931 44.7084
96 1 69.473 66.3322 42.5894
97 1 70.0692 67.12 42.7626
328 1 68.456 67.0386 44.3213
344 1 70.2579 66.4771 44.6462
343 1 69.6903 66.2877 43.9268
477 1 71.4279 66.6885 43.2777
478 1 71.2123 66.9022 42.3493
476 1 71.2552 66.5023 44.4009
480 1 71.8852 66.2608 42.1373
360 1 -11.8552 65.5902 44.0656
493 1 67.5602 67.7967 43.8036
492 1 68.1822 68.3588 44.1776
329 1 68.9984 67.7806 44.6494
330 1 69.9149 67.4774 44.5532
331 1 70.9104 67.6104 44.452
339 1 70.2665 67.0082 46.3177
475 1 71.0393 65.8866 45.2179
474 1 72.0502 65.9025 44.8867
468 1 -11.55 67.539 45.3175
469 1 -11.0716 66.9027 45.2766
404 1 71.0438 68.8299 44.2427
403 1 70.058 68.4544 43.7995
490 1 69.1913 68.7499 44.171
338 1 69.694 67.0962 45.6024
333 1 71.6801 67.9915 45.1681
336 1 70.4575 68.3344 45.4922
335 1 70.8738 67.5394 45.5872
334 1 71.6006 66.9832 45.2924
406 1 71.8531 69.3537 43.0056
407 1 70.9966 68.8441 42.8937
405 1 71.938 69.3012 43.9684
229 1 51.4187 6.07697 45.7738
230 1 50.7365 6.02306 45.173
234 1 50.6846 4.32469 46.3274
233 1 50.1586 5.16187 46.1377
228 1 52.3214 5.90953 45.6972
235 1 51.0084 5.12484 46.8994
237 1 52.3041 5.14512 46.6463
239 1 51.456 6.97892 46.5771
240 1 50.8476 7.53871 47.1521
214 1 -11.8461 63.5982 41.9895
95 1 69.0243 65.6738 43.2841
342 1 70.5253 65.8698 43.6501
348 1 70.3425 64.5059 44.7163
347 1 70.0058 65.0449 44.0391
352 1 -11.8677 64.5768 44.1379
351 1 72.0012 64.9443 43.8267
353 1 -11.0147 64.6297 43.6505
94 1 68.4181 65.9716 43.9057
93 1 68.2688 65.6016 44.6948
345 1 69.9781 65.7098 44.7535
346 1 69.2285 65.1572 44.7792
473 1 72.1126 65.7945 45.8531
350 1 71.2321 65.1341 44.3336
461 1 -11.291 66.1883 47.2041
470 1 -11.4978 66.1698 45.6347
462 1 -12.1628 66.5773 47.5315
340 1 71.1203 66.5031 46.1074
472 1 -11.9704 65.1524 45.3616
471 1 -10.9157 65.3688 45.1291
467 1 -12.0374 68.2059 45.8045
491 1 68.62 68.3251 43.3157
337 1 69.5179 68.0656 45.4732
81 1 71.7487 64.7659 45.1797
85 1 70.2758 65.7642 46.0847
86 1 69.5404 65.1482 46.1297
84 1 70.551 64.9746 45.6306
82 1 71.5196 64.3359 45.9093
83 1 71.1742 65.3212 46.2433
465 1 -12.2881 67.2267 46.2945
463 1 71.902 66.2309 46.7652
464 1 71.6113 67.2947 46.8802
92 1 68.2127 64.6038 44.7951
91 1 68.785 64.2583 45.4431
90 1 68.6217 63.5341 44.7226
87 1 69.8491 64.1559 45.6845
89 1 69.0756 64.0492 44.1013
466 1 -11.5451 67.7972 46.3884
88 1 69.6503 63.6512 44.8698
31 1 61.6332 68.1699 52.851
29 1 60.9402 67.2588 52.5368
32 1 61.8718 68.1327 53.9814
40 1 63.8769 67.6542 54.6965
25 1 62.5546 66.1512 53.4934
26 1 62.1508 66.9935 53.7832
30 1 60.796 67.7638 53.3681
33 1 61.2107 67.6807 54.5393
28 1 61.2638 66.7683 53.3243
39 1 62.9576 67.4269 54.5423
38 1 62.3586 67.0208 55.2065
35 1 61.5606 65.9291 54.0361
37 1 61.8284 66.1623 55.2786
36 1 62.4136 65.9457 54.5113
23 1 61.8963 65.0866 53.141
22 1 62.4289 64.9564 53.9502
24 1 61.8551 66.0217 52.8062
34 1 61.3199 66.8037 54.456
21 1 62.3155 63.8912 54.037
27 1 62.0058 67.121 52.8005
50 1 12.2766 37.7472 58.7989
51 1 11.5949 38.6288 59.0025
52 1 10.6137 38.1911 59.1689
60 1 8.39001 37.7502 60.4776
53 1 10.1235 37.4163 58.8138
48 1 11.0599 37.0187 59.3928
49 1 11.5643 37.098 58.5172
54 1 9.26598 37.2806 59.3275
163 1 64.4667 67.3595 58.5525
172 1 64.0514 66.1815 58.3617
171 1 63.5116 67.008 58.1195
243 1 65.1403 68.9689 56.7353
170 1 63.8907 67.5663 57.531
244 1 65.5692 69.3746 57.5927
169 1 63.6165 68.6497 57.5029
47 1 11.9727 36.9832 59.8725
44 1 10.1339 37.1146 59.9737
42 1 10.2037 36.9784 61.4451
43 1 9.56742 37.1925 60.771
41 1 10.4875 36.3538 60.6978
57 1 9.41931 36.2495 60.0729
59 1 8.38426 36.995 59.8271
45 1 11.0099 37.3101 60.3372
46 1 11.5092 37.8491 59.6885
56 1 10.1102 36.417 59.2289
55 1 9.46625 36.525 58.6047
180 1 64.6265 65.0372 60.5919
179 1 64.6657 65.1497 61.4928
177 1 65.2896 65.8934 60.0202
260 1 64.1954 67.798 61.0404
161 1 64.4931 65.8953 57.379
162 1 64.8327 66.8194 57.7645
259 1 63.4863 68.411 60.5164
173 1 63.463 66.1045 59.1906
176 1 64.8013 66.3029 59.294
241 1 64.3582 67.9742 56.7451
242 1 64.7354 68.3377 57.6108
164 1 65.3331 67.8609 58.2526
165 1 64.6704 68.5428 58.6348
245 1 65.5881 68.8685 58.4134
246 1 65.6573 68.6234 59.3231
167 1 64.3635 69.4787 57.7112
168 1 64.1311 69.1849 56.8621
166 1 64.5892 69.5508 58.7342
58 1 8.77155 36.2328 59.4367
178 1 65.2172 65.7939 61.0021
258 1 63.6042 67.4613 60.2398
257 1 63.0287 67.9525 59.6975
174 1 63.181 66.5254 60.0455
175 1 64.1486 66.3483 60.1525
252 1 62.5381 67.8708 58.5992
251 1 62.7247 66.9396 59.1477
254 1 63.6769 68.9783 58.5114
247 1 65.2616 67.7864 59.9245
248 1 64.7285 68.564 59.8854
250 1 63.6891 67.1184 59.2957
249 1 64.2736 67.864 59.459
253 1 63.5847 67.9847 58.6307
256 1 62.8424 68.8203 59.2578
255 1 63.6989 69.2989 59.4064
450 1 48.79 -0.825939 71.9755
449 1 49.4271 -1.16994 71.387
453 1 50.1483 -0.939401 70.3086
452 1 49.2934 -0.399144 70.5927
451 1 48.851 -0.00351593 71.4347
444 1 48.7527 -1.59457 69.065
445 1 49.618 -2.10213 69.2608
447 1 49.2165 -2.03927 70.8716
446 1 49.9072 -2.20852 70.1636
448 1 48.5392 -1.46006 70.8925
455 1 49.1811 -1.3197 69.9782
456 1 48.6437 -2.18288 69.9882
454 1 49.8479 -0.947012 69.3584
442 1 48.1148 -0.859621 67.3207
443 1 48.3552 -1.39357 68.1657
441 1 47.2004 -1.20478 67.2754
458 1 47.7652 -2.68013 69.7439
459 1 48.0093 -2.58924 70.6774
457 1 48.6729 -2.99037 69.8293
460 1 48.6871 -2.85235 71.3062
ITEM: TIMESTEP
12000
ITEM: NUMBER OF ATOMS
500
ITEM: BOX BOUNDS pp pp pp
-1.3694136661099371e+01 7.3694136661098995e+01
-1.3694136661099371e+01 7.3694136661098995e+01
-1.3694136661099371e+01 7.3694136661098995e+01
ITEM: ATOMS id type x y z
291 1 36.0167 -8.11916 -4.57706
294 1 36.411 -9.18378 -5.03636
293 1 36.8918 -8.4637 -5.27512
295 1 36.5353 -9.23859 -6.09208
290 1 35.1955 -8.46273 -4.40464
289 1 35.3753 -9.3935 -4.85151
72 1 13.4701 61.6601 -7.23789
298 1 37.591 -7.64512 -5.53181
297 1 37.5586 -8.35883 -6.30712
286 1 35.0348 -9.10519 -7.01124
292 1 35.8993 -8.45761 -5.5603
287 1 35.302 -9.31095 -6.07223
296 1 37.0218 -8.9605 -6.9672
288 1 34.7981 -8.82272 -5.42054
69 1 13.9923 60.6389 -6.74495
70 1 13.0291 60.3843 -6.62948
61 1 12.97 61.2704 -5.96535
71 1 12.9714 60.7804 -7.5508
74 1 14.5516 61.3207 -8.58809
75 1 14.1661 60.7476 -7.82327
63 1 12.7859 62.4451 -6.77326
62 1 12.5203 62.196 -5.79742
73 1 14.2699 61.8001 -7.82805
300 1 37.067 -7.78399 -4.36919
299 1 36.9107 -7.02939 -4.98764
282 1 36.9938 -6.97983 -6.29961
283 1 36.2492 -7.56133 -6.15694
284 1 35.4711 -8.11743 -6.4112
281 1 37.0666 -6.80216 -7.30275
285 1 35.8972 -8.7468 -6.98982
67 1 13.6099 61.7455 -5.10466
68 1 14.0412 61.2658 -5.98503
79 1 15.2622 62.2165 -6.24847
80 1 14.7404 62.9453 -6.37757
78 1 15.1705 62.3468 -7.37173
66 1 13.7088 62.4773 -5.78238
65 1 14.0088 62.1617 -6.6399
64 1 13.3386 63.046 -6.73359
77 1 14.7084 61.4366 -7.00496
76 1 15.0382 60.669 -7.5656
143 1 36.4171 -2.43323 3.0656
145 1 37.2967 -2.46064 3.86696
146 1 36.4057 -2.47525 4.35322
144 1 37.2634 -1.96442 3.06872
147 1 37.0622 -3.19997 4.67641
142 1 36.4426 -1.54876 2.6387
141 1 35.703 -2.02809 2.19439
157 1 36.8846 -2.56163 2.13679
151 1 37.4474 -4.24383 2.9163
148 1 37.4415 -3.58096 3.9104
152 1 36.8069 -3.52971 2.71708
149 1 37.5573 -2.97127 3.12767
158 1 37.8724 -2.76557 2.02459
150 1 38.1022 -3.57377 2.6575
156 1 36.5769 -3.02476 1.38017
153 1 36.2546 -3.67062 3.68412
154 1 35.6473 -3.11074 3.04039
422 1 62.2264 -0.885991 2.58325
423 1 61.4103 -0.995076 3.18939
424 1 62.177 -0.403196 3.51359
304 1 62.587 -0.724667 5.62932
159 1 37.4749 -3.59855 1.59317
160 1 36.5726 -4.00153 1.72853
302 1 63.0305 -0.974212 3.68299
301 1 62.0792 -1.45889 3.73662
425 1 61.7875 0.0240763 2.9198
303 1 62.5819 -0.933196 4.63469
435 1 60.9618 1.73312 4.5334
319 1 61.2048 -0.420372 4.10515
318 1 61.4144 -1.15294 4.77148
320 1 60.412 -0.342274 4.709
426 1 61.6678 0.54303 3.76659
427 1 61.8579 1.3119 4.16462
428 1 62.4083 1.84621 3.59672
434 1 60.6904 0.862002 4.15936
430 1 63.4088 2.46835 3.40521
429 1 63.2132 1.6725 4.10964
155 1 35.8795 -3.12932 2.114
421 1 62.0012 -0.330874 1.79762
305 1 63.0789 -0.412769 6.49095
313 1 61.5841 0.36647 7.19649
314 1 62.0284 -0.477097 7.11596
315 1 61.7228 -1.0871 6.37994
306 1 64.0009 -0.74245 6.09024
440 1 63.1666 -0.109478 4.34546
316 1 61.6367 -0.0414123 6.2065
317 1 61.087 -0.552126 5.5122
309 1 63.5326 0.137263 5.36096
436 1 61.2328 1.57361 5.55446
437 1 61.1287 0.737162 5.14252
438 1 61.8206 0.193898 4.78659
439 1 62.7899 0.713193 4.68184
433 1 61.0678 1.64482 3.47331
431 1 62.4908 2.84183 3.76801
432 1 61.6234 2.59538 3.20501
312 1 61.788 0.960839 6.4059
311 1 62.2405 1.1955 5.53374
308 1 63.6065 -0.798413 5.01594
307 1 64.3159 -1.35008 5.46521
310 1 62.5629 0.36693 5.82579
11 1 -2.19168 10.1524 19.5404
13 1 -0.668386 9.8532 18.812
10 1 -2.73994 10.5455 18.6642
9 1 -1.93957 10.5814 18.1707
19 1 -0.0377541 11.0381 18.981
12 1 -1.62692 9.91371 18.7818
7 1 -1.81175 11.6684 16.76
6 1 -2.48005 12.0316 17.4004
8 1 -1.55638 11.355 17.6306
20 1 -0.713912 11.0236 18.2899
15 1 -1.22958 10.7653 19.2895
3 1 -1.33238 13.5179 17.7072
14 1 -1.04108 9.80902 19.8352
5 1 -1.65934 12.5352 17.501
4 1 -1.27822 12.8289 18.4714
16 1 -1.68152 11.5189 18.7431
17 1 -0.827317 11.83 19.4838
18 1 -0.236235 12.0318 18.8342
1 1 -1.33853 13.2468 16.3281
2 1 -1.99337 13.6502 16.964
119 1 29.624 61.9682 20.1223
114 1 28.8572 61.4536 19.5255
117 1 29.1739 63.3227 20.0433
116 1 28.1534 63.0481 19.7945
120 1 30.6578 61.9316 20.0185
113 1 29.386 61.7855 18.7493
107 1 31.1883 63.6166 19.6181
108 1 30.6806 64.2399 19.1656
109 1 29.8016 63.9586 19.3859
118 1 29.0566 62.567 20.7257
111 1 28.6363 63.0608 18.528
112 1 28.7461 62.2623 18.0002
115 1 28.8509 62.4681 19.5065
110 1 28.905 63.8797 19.08
106 1 30.4524 62.9814 19.5848
104 1 29.6517 62.8804 18.878
105 1 30.3278 62.1827 18.9215
102 1 30.8539 63.2943 18.6268
101 1 30.5743 62.5833 17.9067
103 1 29.9533 63.6124 18.3593
387 1 57.9148 62.7563 26.6062
389 1 56.6137 62.056 27.0853
386 1 58.5761 61.9482 26.8215
385 1 59.086 62.4606 26.2259
392 1 56.7397 62.9944 28.4459
384 1 58.9778 63.2835 26.9044
388 1 57.1532 62.2336 26.2212
391 1 56.1699 62.9269 27.4839
390 1 57.0986 62.998 27.2958
383 1 58.8951 63.8819 27.6698
381 1 58.2165 62.9955 27.7166
266 1 56.883 64.8903 26.512
265 1 57.5483 65.2301 25.9766
280 1 55.2195 62.652 25.3088
279 1 55.3035 61.8612 24.6832
276 1 56.6093 62.3005 25.1755
277 1 56.0739 61.7603 25.8569
275 1 56.1354 62.8233 26.0382
382 1 58.0282 63.9411 28.0417
272 1 55.5947 63.801 25.6099
273 1 54.8687 63.5085 25.8372
268 1 55.9331 64.4268 27.3165
399 1 56.573 66.0782 26.2799
395 1 56.702 64.9423 28.355
394 1 57.0737 64.2115 28.806
393 1 56.8262 63.8664 27.8407
270 1 55.874 65.4003 26.7732
269 1 55.6413 65.2535 27.7906
261 1 57.0842 63.4317 25.9771
264 1 58.0996 64.9243 26.8615
267 1 56.3165 63.8358 26.7448
263 1 58.2793 64.0754 26.3649
262 1 57.4344 63.9793 26.8205
278 1 56.2757 61.3499 24.8927
274 1 55.4461 63.3021 26.5713
396 1 57.4896 64.7879 27.6773
397 1 57.3283 65.6582 27.9685
271 1 55.5116 64.5487 26.2597
398 1 57.195 65.9423 27.063
400 1 56.4271 65.3643 25.4787
365 1 71.0037 68.5133 39.0399
364 1 70.4717 67.818 39.5365
366 1 71.8198 68.2147 39.4616
127 1 70.5747 67.1964 40.6693
363 1 71.1328 67.2841 39.375
367 1 72.7153 67.721 39.4463
419 1 70.1962 68.4003 40.7028
418 1 70.0236 69.3998 41.1388
370 1 71.903 67.4226 41.3587
195 1 -13.401 69.8089 40.1603
194 1 -12.9 70.6527 40.5468
417 1 69.6312 69.6713 42.0547
420 1 71.1879 68.2446 40.277
199 1 72.6493 69.1603 41.4631
200 1 71.948 69.6823 41.8088
193 1 -12.7366 70.0784 41.305
191 1 73.3177 69.7474 42.1074
123 1 70.3165 68.7461 41.8185
187 1 71.9323 68.9922 43.4073
192 1 73.5904 70.4629 41.3596
137 1 70.0288 64.1709 40.6749
136 1 69.7125 65.1079 40.5416
361 1 70.2221 66.4457 38.7911
135 1 69.1428 64.7332 39.7067
134 1 70.0897 64.7951 39.5665
375 1 71.3695 66.2858 40.0335
212 1 -13.0778 65.8137 41.5705
128 1 69.611 67.2974 40.2931
130 1 68.9723 65.8877 39.8091
129 1 69.356 66.7251 39.4457
362 1 70.3208 66.7874 39.7356
368 1 73.1336 67.3567 40.2615
373 1 71.8784 66.5144 40.8983
374 1 72.3791 66.4894 40.1473
369 1 72.7983 67.2624 41.065
211 1 73.3131 66.2626 41.7558
126 1 70.0784 66.583 41.3209
197 1 73.1231 68.462 40.3765
372 1 71.043 66.7051 41.4401
371 1 71.5077 66.968 42.1257
196 1 -13.2993 68.9147 40.2552
210 1 73.4024 66.4671 40.7261
125 1 69.7652 67.5934 41.3852
416 1 69.2009 70.0067 42.6195
124 1 70.7643 67.8744 41.4932
198 1 72.3637 68.3303 41.143
209 1 -13.3288 67.1593 40.808
208 1 -13.6292 67.951 41.2621
415 1 68.8717 70.999 42.5629
121 1 71.7582 69.5067 40.7557
122 1 71.3407 68.8877 41.4434
188 1 72.233 68.9255 44.2171
185 1 71.8282 68.0123 42.2511
186 1 71.7054 68.8191 42.4968
190 1 72.557 69.2883 42.6717
189 1 72.9996 69.3164 43.5656
481 1 69.7168 71.1283 41.2966
215 1 72.5808 64.6436 41.3571
214 1 72.7399 65.2467 42.0805
138 1 69.9478 64.4416 41.6601
139 1 70.4536 64.84 42.4472
380 1 70.9254 64.9416 41.4277
133 1 70.6597 65.1778 40.244
376 1 72.1514 65.6041 39.3703
213 1 73.5274 65.2538 41.3763
355 1 73.1634 64.9406 45.8036
132 1 70.7635 65.954 40.8378
182 1 70.5133 66.262 42.2874
131 1 69.806 66.1375 40.2776
321 1 69.978 65.4513 41.63
181 1 71.438 65.9466 42.4091
377 1 72.0334 65.2172 40.4365
500 1 69.0601 66.1903 43.3513
499 1 69.7815 66.7174 42.8267
96 1 71.2894 67.04 43.2822
183 1 70.3211 67.2567 42.2341
479 1 72.3101 66.1772 43.0833
480 1 72.2882 66.3487 41.9965
207 1 73.0603 68.016 41.7439
206 1 -13.6664 67.174 42.0177
496 1 69.7558 68.8121 43.0874
495 1 68.8641 68.4909 43.4805
497 1 69.7091 67.9501 42.7602
184 1 70.8101 68.0694 42.695
100 1 -13.3013 69.2335 42.791
203 1 -13.2363 67.976 43.0446
478 1 73.0417 66.7303 42.6174
201 1 -12.5699 67.6506 41.6837
413 1 69.7419 70.3431 43.5037
487 1 69.8159 69.0022 44.1262
483 1 70.8582 69.9002 42.0458
414 1 68.8143 70.6031 43.41
486 1 70.6557 69.723 43.8301
484 1 70.3538 69.7604 42.7135
202 1 -12.5509 68.438 42.2539
482 1 70.3646 70.4613 41.6158
412 1 69.9537 70.7816 42.6207
411 1 70.6167 71.3024 42.229
408 1 70.9892 70.5185 43.3043
221 1 53.0245 6.91645 44.9647
223 1 53.6671 5.88446 45.4452
222 1 52.7699 6.10588 45.0986
224 1 52.9917 5.46892 46.0954
379 1 71.5882 65.5239 41.3392
140 1 71.1998 65.0175 43.0794
216 1 71.8547 64.5736 42.2106
217 1 72.1147 64.3072 43.0519
354 1 72.6163 64.0819 45.9707
353 1 72.5223 64.8329 46.6208
323 1 68.9872 64.6716 42.5231
322 1 69.0972 65.3291 41.9036
89 1 70.5765 64.1557 44.539
219 1 72.918 65.3636 43.6901
218 1 73.0421 64.484 43.3566
347 1 72.2814 66.2661 44.1884
378 1 72.5811 65.7387 41.0192
351 1 73.6354 65.8957 45.7422
357 1 -12.8385 65.3881 45.4935
359 1 -12.3793 66.2851 45.0575
358 1 -12.0945 66.1315 45.9308
356 1 -13.6668 65.0424 44.942
360 1 -12.5426 66.9305 44.3288
324 1 69.616 65.2514 43.105
325 1 69.1394 65.1041 43.9537
326 1 68.8983 65.8032 44.5326
95 1 70.7616 66.3265 43.3289
94 1 70.0931 66.5798 44.0477
341 1 71.9936 67.8574 43.939
343 1 70.9361 67.623 44.7224
342 1 71.8603 67.2896 44.8208
220 1 73.5969 65.7995 43.1284
205 1 -13.0808 66.8466 42.6988
494 1 68.9804 67.4171 43.2665
493 1 68.5604 67.6239 44.1216
498 1 70.0784 67.5265 43.4261
401 1 71.1137 68.3749 43.7087
98 1 73.0117 68.1455 42.914
402 1 70.9462 68.7717 44.4506
97 1 72.1869 67.4305 42.9569
99 1 73.6955 68.648 43.5107
477 1 72.9827 67.0268 43.6104
204 1 -12.4498 67.5197 42.9295
488 1 69.1358 69.7709 44.0726
489 1 68.6452 69.8411 44.887
485 1 70.8097 69.1498 43.0633
491 1 68.6006 68.6241 44.576
403 1 71.3971 69.6229 44.7441
406 1 69.7888 70.9239 44.5592
407 1 70.7748 70.9529 44.2032
405 1 70.4913 71.1115 45.1617
410 1 71.119 71.8619 43.0067
409 1 71.5401 70.9028 42.7621
232 1 51.7164 5.58865 46.0968
230 1 52.5239 6.02256 46.9844
231 1 51.5759 5.73962 47.1487
225 1 53.5279 4.80596 45.604
227 1 52.4006 4.33378 46.1487
226 1 52.6668 4.91493 45.3384
90 1 69.7551 64.6932 44.9164
88 1 71.3963 64.5787 44.4907
352 1 73.0459 65.5634 46.5962
472 1 73.1594 67.2378 45.376
346 1 71.5521 65.8242 43.655
92 1 70.0792 65.7851 44.7413
91 1 70.4937 65.18 45.2789
348 1 72.6045 65.5199 44.8478
349 1 73.2292 66.105 44.4952
350 1 -13.5168 66.7269 44.9793
81 1 72.2117 66.9747 46.0969
471 1 -13.5249 67.8774 45.1848
93 1 70.1972 65.6042 43.8882
344 1 70.841 66.5501 44.7922
345 1 71.2999 65.5969 44.5243
476 1 -13.4163 66.7868 43.7686
475 1 73.6557 67.618 44.1594
474 1 73.0883 68.3712 44.4579
468 1 -13.5718 69.3652 44.7336
469 1 -13.472 68.9304 45.3949
327 1 69.1765 66.6651 44.9498
328 1 69.4775 66.5716 45.977
329 1 69.7355 67.3289 46.3193
337 1 72.3441 67.6092 46.9239
330 1 69.9003 67.3086 45.3396
331 1 69.8224 68.3229 45.6968
335 1 71.9373 68.8593 46.1868
332 1 70.1063 69.1022 46.3244
333 1 70.936 69.1645 45.9083
334 1 71.4131 68.3264 45.3712
492 1 69.428 68.2288 44.6708
490 1 69.132 69.1909 45.2656
336 1 72.1806 68.046 46.0754
404 1 70.5911 70.0295 44.9798
234 1 51.7288 4.31557 47.51
233 1 51.4511 4.7999 46.5836
235 1 51.0739 4.97983 47.8571
236 1 51.1175 5.89636 48.3014
228 1 52.5271 4.69145 46.9368
237 1 51.8301 6.07251 49.1026
238 1 52.569 5.99129 48.2007
229 1 53.0507 5.31055 47.2571
239 1 52.0533 5.11537 48.3805
86 1 71.4275 64.6187 45.4875
84 1 71.7125 66.3704 45.1872
87 1 72.109 64.2574 44.8173
82 1 72.9848 66.6154 46.3916
470 1 -13.132 68.4347 44.4268
85 1 71.7973 65.6102 45.9798
473 1 72.6662 67.9308 45.0785
340 1 70.7308 66.4416 45.8976
83 1 72.6103 66.0684 45.7497
463 1 73.3106 68.1625 46.7399
466 1 72.8297 69.9985 45.0486
339 1 71.0702 67.3647 45.8561
338 1 71.3407 67.8165 46.8423
465 1 72.7233 69.0045 45.2244
464 1 73.0477 68.6017 46.0622
467 1 -13.7042 70.174 45.2669
240 1 52.238 4.42205 49.2707
461 1 -13.1033 66.9695 45.9067
462 1 -13.4889 67.451 46.644
29 1 63.7992 67.4866 54.5173
23 1 63.4657 69.4931 55.7556
22 1 63.4664 68.6143 56.3416
24 1 62.4751 69.0182 55.5539
25 1 63.3651 68.7536 54.9667
30 1 62.8506 67.6364 54.4608
26 1 63.5563 68.0188 55.4919
28 1 64.483 67.3815 55.1303
27 1 64.4017 68.3478 55.064
31 1 62.5726 66.7874 54.2025
21 1 64.3242 68.7893 55.9348
35 1 63.9022 66.382 55.8074
37 1 64.1961 66.9748 56.6343
36 1 63.6058 66.244 56.6767
33 1 63.0461 65.9403 55.4203
38 1 63.5822 67.6274 56.8653
34 1 63.291 66.9743 55.3347
39 1 62.9576 67.4935 56.1872
40 1 62.6589 66.6515 56.5823
32 1 62.9768 65.8279 54.4602
241 1 67.6063 68.6585 59.144
243 1 65.9568 69.9431 58.8201
161 1 66.9857 68.3084 58.3185
171 1 65.5199 66.518 57.6065
170 1 65.3329 67.0188 56.9113
162 1 67.2613 68.9317 57.6582
169 1 64.686 67.7062 57.0579
242 1 66.8444 69.3174 58.5539
168 1 64.1654 68.5464 57.2331
244 1 65.4395 69.1723 58.6017
167 1 64.8983 68.8993 56.9548
58 1 13.1476 39.2226 61.2517
56 1 11.6253 39.3619 61.3287
55 1 11.1405 38.9245 60.4766
48 1 9.00727 36.3797 60.21
53 1 11.0538 37.722 60.403
54 1 11.8381 38.2367 60.6604
52 1 10.9834 36.7053 60.6654
49 1 8.48753 36.0394 61.0039
50 1 9.49217 35.963 61.341
51 1 10.2252 36.0348 60.7902
173 1 65.6692 67.0037 59.5476
172 1 65.6375 66.7195 58.6692
176 1 66.2047 67.6295 58.6317
252 1 64.3941 65.8112 59.0769
251 1 63.7664 66.5904 58.8729
250 1 64.568 67.2872 58.9289
253 1 64.6543 66.5284 58.3088
163 1 66.4668 68.7491 57.25
249 1 65.1885 67.4914 58.1525
164 1 66.063 68.5475 58.0808
254 1 63.6959 66.5505 57.7978
256 1 64.0796 68.2121 58.3936
255 1 63.866 67.6007 57.89
165 1 66.0217 67.7391 57.4981
245 1 65.9084 69.5681 57.8133
246 1 65.1264 70.0684 57.5313
166 1 65.6311 68.1684 56.7544
59 1 12.6657 38.3897 61.3457
57 1 12.3816 39.4051 60.6573
41 1 11.6176 38.3157 61.7906
47 1 9.66073 36.6142 59.6153
60 1 12.436 37.7367 62.1391
44 1 10.4185 36.689 61.5403
43 1 11.0627 37.4045 61.5339
45 1 10.0035 37.1559 60.804
46 1 10.1158 37.4969 59.8501
180 1 65.8412 69.3655 59.8306
174 1 65.8551 67.7782 59.7931
178 1 66.4079 68.5524 59.1798
175 1 65.4022 68.1721 58.9255
177 1 66.7971 67.7611 59.3375
258 1 64.4224 69.8888 58.9096
257 1 64.3345 68.936 59.1747
247 1 64.6226 69.2642 57.9971
259 1 63.4676 70.199 59.2413
248 1 65.072 68.458 57.7877
42 1 10.7564 38.3485 61.3646
179 1 66.7835 68.8521 60.1809
260 1 63.5075 69.3959 59.6472
441 1 52.8957 -0.147906 72.2668
442 1 52.6802 -1.20883 71.9664
444 1 52.605 -2.37078 71.2026
445 1 52.1926 -2.47657 70.2792
443 1 52.3035 -2.08708 72.1321
454 1 51.6312 -2.6799 71.209
458 1 51.3569 -1.25435 70.0441
459 1 50.5342 -0.616122 70.0015
457 1 52.2213 -1.24314 70.4166
447 1 50.9806 -2.53106 69.9363
448 1 50.5889 -3.33252 69.6123
455 1 50.9913 -1.90185 71.3612
456 1 51.8777 -1.4749 71.2187
446 1 51.7251 -2.1245 69.499
452 1 51.6615 -3.84868 71.0829
453 1 50.7929 -3.26144 71.2384
460 1 50.7598 -0.788479 70.9224
449 1 51.5526 -3.10542 69.1335
450 1 52.365 -3.32466 69.6651
451 1 51.5729 -3.37661 70.168
ITEM: TIMESTEP
13000
ITEM: NUMBER OF ATOMS
500
ITEM: BOX BOUNDS pp pp pp
-1.5138372022432989e+01 7.5138372022432577e+01
-1.5138372022432989e+01 7.5138372022432577e+01
-1.5138372022432989e+01 7.5138372022432577e+01
ITEM: ATOMS id type x y z
74 1 12.7133 61.7482 -11.01
286 1 36.9635 -9.19496 -6.5126
296 1 36.6248 -10.1689 -6.85571
285 1 36.4904 -8.6647 -7.26583
281 1 35.6183 -10.1813 -6.30936
71 1 12.2885 61.1452 -9.19818
69 1 13.0889 61.9626 -9.91898
75 1 13.5815 61.4727 -10.766
76 1 13.7107 62.4569 -10.7847
72 1 13.0287 60.9121 -9.81916
73 1 12.2301 61.2755 -10.2734
78 1 12.8932 63.9289 -10.2567
77 1 12.9886 63.0058 -10.3751
63 1 13.3581 62.9314 -8.34828
64 1 13.2281 63.0541 -9.36011
287 1 37.7933 -8.60097 -6.35221
288 1 37.0803 -7.96992 -6.52773
284 1 35.5103 -8.64841 -7.30317
293 1 37.621 -8.62738 -7.48645
295 1 37.3857 -10.6803 -7.32234
292 1 37.1493 -8.77491 -8.20742
297 1 36.2589 -10.8459 -7.48265
282 1 34.8873 -9.62096 -6.50362
283 1 35.3891 -8.869 -6.2555
298 1 35.7151 -9.95047 -7.32423
70 1 12.2346 62.1537 -9.34919
61 1 14.0352 62.8555 -7.65232
62 1 13.3334 63.2863 -7.46362
68 1 14.1135 61.8536 -9.91725
65 1 14.1236 63.2985 -9.93744
79 1 13.5543 64.4968 -10.6519
66 1 14.2178 63.3245 -8.98217
80 1 13.8036 64.3361 -9.73429
290 1 36.2939 -8.07844 -8.14372
289 1 36.4499 -7.60255 -7.24847
291 1 36.105 -9.04438 -8.26052
294 1 37.3087 -9.6087 -7.38034
299 1 35.1397 -10.7173 -7.11058
300 1 34.6141 -10.734 -6.29705
67 1 13.9983 62.3606 -9.05468
160 1 37.1609 -4.5548 3.69696
156 1 40.152 -3.73541 2.824
159 1 37.5021 -3.83154 3.08054
421 1 60.3046 -0.510378 2.64596
151 1 37.7742 -4.93662 2.93465
157 1 39.1419 -3.56012 2.91215
152 1 38.2392 -4.23467 2.47817
154 1 39.1723 -4.7011 2.47785
155 1 39.72 -4.08302 2.00189
149 1 37.038 -4.10991 1.95027
158 1 38.239 -3.21314 3.05473
150 1 36.8466 -4.69497 2.65696
143 1 38.0472 -3.5091 1.71171
142 1 38.9235 -3.19142 1.81454
141 1 38.6827 -2.39576 2.38591
144 1 38.7935 -3.97976 1.14048
422 1 61.0179 -1.33461 2.58935
423 1 61.8423 -1.06041 2.99795
425 1 60.7036 -0.0297474 3.84744
432 1 61.5686 1.86522 3.097
146 1 37.6941 -5.36637 1.9405
153 1 38.738 -4.54525 3.29446
145 1 38.3312 -4.72239 1.58179
148 1 37.2176 -4.19461 1.00336
301 1 62.6032 -1.57594 4.24899
424 1 61.0095 -0.894525 3.64785
319 1 62.0807 -1.3848 5.13418
302 1 63.1381 -0.96966 4.87969
440 1 63.7116 -1.47108 4.12566
435 1 60.196 1.12916 4.06497
434 1 60.4526 1.66708 3.33937
426 1 61.1365 0.757874 3.65833
427 1 61.7465 0.708037 2.96251
433 1 60.9525 2.55984 2.98837
429 1 62.5994 0.291291 3.22594
428 1 62.1933 -0.129212 2.44531
430 1 62.3522 1.04697 3.81968
431 1 61.7173 1.84798 4.07748
147 1 37.5424 -5.1483 1.03751
318 1 62.3714 -2.10204 5.77064
307 1 63.6384 -0.109964 4.24935
320 1 61.5293 -0.741668 5.70033
317 1 63.2997 -1.94385 5.75079
438 1 62.2442 -0.423023 3.93887
304 1 64.2949 0.0368406 5.61987
303 1 63.9283 -0.779173 5.59703
309 1 61.9916 0.832652 4.79295
308 1 62.6784 0.296359 4.43437
310 1 62.0863 0.180672 5.54331
436 1 60.9306 0.695507 4.64716
437 1 61.5065 -0.158587 4.57643
311 1 63.0482 -0.00621129 5.34741
439 1 63.0819 -0.806229 3.64314
315 1 63.4979 -0.223306 6.49744
313 1 63.1586 0.669504 6.90103
314 1 62.5591 -0.0677126 6.51678
316 1 62.8946 -1.00757 5.9762
305 1 63.8463 0.654342 5.08213
306 1 63.5323 0.900641 4.13935
312 1 62.9443 0.876383 5.84622
7 1 -5.79467 10.7826 18.9181
1 1 -3.04705 10.4242 20.1951
2 1 -2.84864 10.9809 19.3034
10 1 -4.90925 12.7161 17.9811
9 1 -5.4518 11.9814 18.5128
8 1 -5.24716 11.0512 18.1957
20 1 -3.94383 12.4082 20.0923
6 1 -5.88386 10.0241 19.497
5 1 -4.88603 10.2151 19.7412
4 1 -4.47108 10.3606 18.7578
3 1 -3.41387 10.3016 18.9416
112 1 29.2659 64.2281 18.2555
111 1 29.9623 64.69 17.9693
103 1 27.9554 65.1263 17.3234
102 1 27.4887 64.5918 17.928
101 1 28.2038 64.1851 18.4498
11 1 -4.9415 13.6386 18.279
12 1 -5.28092 13.166 19.0691
14 1 -4.69928 12.2459 19.1876
13 1 -5.27032 12.6149 19.8731
15 1 -4.56359 11.3905 18.9734
16 1 -3.97371 11.8538 18.449
19 1 -4.3477 11.4886 20.0138
17 1 -3.20868 12.2704 18.9496
18 1 -3.6121 11.6377 19.4647
119 1 29.8037 62.4345 18.2397
114 1 29.3288 63.6814 17.2027
113 1 28.8679 63.3274 18.1458
120 1 30.4506 62.89 18.7546
105 1 27.9864 63.5537 17.5328
116 1 30.9074 63.937 17.7526
117 1 30.6729 63.1518 17.2149
115 1 30.1868 64.1165 17.0522
104 1 28.5391 64.3158 17.351
107 1 27.7119 64.2314 16.728
106 1 28.349 63.5304 16.6015
109 1 29.3028 64.5392 16.5142
110 1 29.5643 65.2031 17.2327
108 1 28.4795 64.9027 16.3324
118 1 30.0417 63.4385 17.9092
279 1 59.2966 63.5222 25.2837
276 1 59.159 62.6569 26.445
278 1 59.4911 62.5109 25.185
280 1 58.619 63.9977 24.8685
272 1 58.6751 63.646 26.7585
400 1 58.5962 65.0844 25.1426
389 1 57.9394 63.713 27.6933
277 1 60.0296 62.8854 25.947
388 1 58.7716 64.3142 28.0879
386 1 59.4012 63.7301 28.965
273 1 58.1869 62.8488 26.874
275 1 58.5211 62.9974 25.7697
274 1 57.9215 62.2453 26.1758
387 1 59.1543 63.3983 27.9446
261 1 59.9857 63.4492 26.8632
385 1 58.5761 64.1601 29.1364
384 1 58.8223 65.1019 28.9586
267 1 57.7425 65.0833 27.8121
271 1 58.2736 63.9778 25.8718
266 1 58.3012 64.6444 26.9542
265 1 58.7078 65.3245 26.389
264 1 59.754 65.2536 26.7654
262 1 59.4354 64.3279 26.9835
263 1 59.9107 64.858 27.6533
399 1 57.8044 65.575 25.5513
270 1 57.651 64.6478 26.103
398 1 57.5518 65.5644 26.6925
392 1 57.6988 64.8049 29.7067
391 1 57.5942 64.3116 28.9786
390 1 57.1604 63.9155 28.1254
381 1 58.7395 64.8925 30.0346
268 1 57.1007 64.6534 27.0531
395 1 59.0233 65.4296 27.4628
382 1 59.7771 64.6109 29.9208
393 1 57.975 65.5444 28.9479
396 1 58.7287 66.3325 27.0316
383 1 59.7633 64.6085 28.8259
269 1 57.6071 63.8293 26.6644
397 1 57.6272 66.1308 27.4301
394 1 58.3973 65.8044 28.1082
135 1 70.554 67.03 41.2433
134 1 70.3489 67.5336 40.3524
130 1 69.834 69.1163 40.7042
361 1 71.6914 69.0079 39.1381
376 1 73.6901 67.6132 39.2627
129 1 70.3388 69.4434 39.9958
364 1 73.2626 69.0831 39.0792
362 1 71.9699 68.1941 39.7189
363 1 72.7392 68.2156 39.1149
367 1 73.6518 70.3613 40.5948
365 1 72.4803 69.682 39.4473
366 1 73.4077 69.8769 39.876
137 1 70.9835 66.1826 41.7647
136 1 70.0111 66.0906 41.2419
133 1 70.8049 68.3623 40.0498
377 1 72.8948 67.228 39.596
132 1 71.5251 67.9217 40.6395
131 1 70.646 68.5739 41.0424
375 1 73.5735 68.3049 39.8685
373 1 73.2961 69.0093 40.9241
374 1 72.7643 68.8453 40.03
210 1 74.6205 67.8958 40.4321
378 1 72.6358 67.8783 40.4761
209 1 74.5192 68.798 40.1448
208 1 74.3116 69.2959 41.0871
127 1 71.8458 68.9058 40.8737
128 1 71.2358 69.2632 40.2109
368 1 73.2027 70.4619 41.5218
369 1 72.7559 69.7291 41.518
196 1 74.4857 72.2728 42.836
419 1 71.4133 70.4143 41.3117
418 1 71.5042 71.411 41.4959
420 1 72.3582 70.7285 40.7778
197 1 73.6554 71.911 42.5682
198 1 74.1857 71.3163 42.2512
195 1 75.1151 73.1287 43.1375
194 1 -14.9669 72.2683 43.889
121 1 73.0873 71.9524 43.438
323 1 69.9948 66.9952 43.4712
138 1 70.3815 66.68 42.3927
139 1 71.3907 67.0291 42.3444
380 1 71.5459 66.8266 40.8655
216 1 73.1832 65.2306 42.8073
215 1 73.0361 66.0203 42.3455
212 1 74.2172 67.0706 41.1705
322 1 69.4247 67.2342 42.7431
126 1 71.6486 69.3554 41.6607
182 1 71.9428 67.9166 42.8852
321 1 69.3597 66.495 42.0682
181 1 72.4446 67.5281 42.2351
480 1 72.9713 67.4864 43.2947
379 1 72.4837 67.1947 41.2155
211 1 73.7025 67.3859 40.4451
214 1 73.0509 65.6868 41.3811
213 1 73.2353 66.4699 40.7717
206 1 74.3884 68.3239 41.4485
201 1 -14.316 67.0564 42.303
125 1 71.3416 69.9494 42.3392
124 1 72.0982 70.5995 42.4687
183 1 71.7822 68.9161 42.6583
370 1 72.5653 68.8176 41.7436
372 1 73.4567 68.0237 41.2172
371 1 73.325 68.423 42.0883
185 1 73.0685 70.1798 42.5981
207 1 74.8146 69.1056 42.0858
478 1 74.255 67.7591 43.104
202 1 74.8971 66.941 42.631
123 1 72.5836 71.4349 42.1462
122 1 72.9029 71.2218 42.9859
186 1 72.6023 70.1859 43.4286
199 1 74.2376 70.6171 42.7196
190 1 -14.648 69.8895 44.8334
193 1 74.9223 71.4106 43.4395
416 1 69.7321 70.5467 42.085
417 1 70.6613 70.8071 42.1134
483 1 70.9292 71.4513 43.6797
484 1 71.5091 71.2774 42.8195
482 1 70.6488 72.3591 43.3195
412 1 71.581 71.5309 44.7597
200 1 74.8602 70.2934 43.3552
191 1 -14.4912 70.7905 44.648
192 1 74.8131 70.8263 44.3086
415 1 70.2196 70.1518 42.8453
481 1 70.7386 72.1479 44.4452
411 1 72.2824 71.4193 44.0117
325 1 69.6764 66.3648 44.331
324 1 69.7895 66.0776 43.4127
140 1 71.249 67.8974 42.0034
217 1 73.0176 65.5894 43.7687
218 1 73.7705 65.9872 43.5208
500 1 70.0182 68.0639 42.4187
95 1 72.2131 68.0232 43.8625
94 1 71.6862 67.7544 44.6493
93 1 71.6478 67.0456 44.0567
346 1 72.7738 67.3469 44.4108
479 1 73.6273 68.2438 43.7096
219 1 74.0633 65.7805 42.4906
220 1 74.1006 66.1228 41.5213
203 1 74.4113 66.8652 43.4675
205 1 73.9305 67.5396 42.019
204 1 73.768 66.9208 42.7458
476 1 74.7515 68.8301 43.7285
494 1 69.8358 68.913 45.0209
499 1 70.0184 68.1846 43.3695
497 1 71.0296 68.5011 43.8945
184 1 72.4647 69.645 42.4009
498 1 70.8558 67.7506 43.2297
96 1 72.7841 68.4975 43.1575
341 1 73.4001 68.3478 44.7291
97 1 73.6742 68.9297 42.9468
477 1 74.7775 68.4738 42.957
100 1 75.0093 70.282 41.9089
99 1 74.1568 70.0453 41.8122
495 1 69.7878 69.4047 44.4496
496 1 70.4981 69.2437 43.8134
485 1 71.6198 70.4417 43.5385
187 1 73.6063 70.2952 43.5124
401 1 72.3942 68.566 44.7629
189 1 74.7098 69.6575 44.4017
98 1 73.6511 69.4168 42.1283
414 1 70.508 70.2677 43.7706
488 1 70.1853 69.9734 45.2051
413 1 70.8944 70.7571 44.497
486 1 71.6301 69.6733 44.2263
408 1 73.9494 71.4576 44.1349
410 1 72.6271 71.8017 44.7688
409 1 73.6006 72.1986 44.7371
223 1 54.2272 4.64569 47.6211
226 1 55.052 4.09759 47.1166
221 1 54.9218 5.34142 48.4549
222 1 55.1721 5.04221 47.5528
356 1 74.999 68.8406 46.3253
89 1 72.0356 66.2642 42.7865
90 1 71.8556 65.3024 43.1284
91 1 71.6604 65.9946 43.7546
88 1 72.569 66.5288 43.5924
87 1 72.7749 66.3006 44.3849
359 1 -13.6885 67.2509 46.7325
326 1 70.0289 66.7267 45.088
92 1 70.7894 66.3947 43.7322
344 1 72.5086 66.0931 45.3965
345 1 72.0821 66.8497 45.091
84 1 73.1894 65.9574 46.1931
347 1 73.564 66.9097 44.0411
348 1 74.1422 67.507 44.5943
349 1 74.5979 66.6848 44.7505
360 1 -13.2836 67.4054 45.9213
350 1 74.4113 66.8716 45.7502
471 1 74.1218 68.5243 45.4851
493 1 70.9207 68.3738 44.9913
327 1 70.7445 67.1892 44.5948
330 1 72.0052 66.8039 46.4233
343 1 72.9774 67.0512 45.7636
342 1 73.6421 67.5867 45.4402
472 1 74.5818 68.5245 44.6936
475 1 -14.6575 68.9127 43.228
473 1 -14.7374 68.6195 45.0598
468 1 72.2719 70.8076 45.7646
469 1 72.9886 70.2352 45.5586
470 1 73.5369 69.4165 45.3807
491 1 71.4619 69.2009 45.63
492 1 70.5856 68.8452 45.8307
490 1 70.9819 69.9566 46.1106
487 1 70.9208 69.4405 44.7246
188 1 73.8393 69.3878 43.9803
402 1 72.7246 69.1676 44.1541
334 1 72.428 68.016 45.7236
474 1 -14.552 68.5587 44.0997
465 1 73.2688 68.4916 45.9356
489 1 70.0431 70.4964 46.0037
404 1 72.399 69.4927 45.1083
403 1 73.2583 70.0075 44.5881
466 1 72.624 69.3626 46.2766
467 1 72.161 70.0356 46.2149
406 1 72.2737 70.6689 44.6135
407 1 73.3012 71.0623 44.8327
405 1 71.608 70.1164 45.2954
227 1 55.0692 4.12575 48.2265
232 1 53.4749 4.37907 49.4927
233 1 53.5882 5.0006 48.7586
224 1 54.306 4.99422 46.6329
225 1 54.2429 3.86192 46.6606
86 1 73.0924 65.3268 44.7131
355 1 74.8939 67.876 45.8655
354 1 -14.486 67.8998 46.1978
353 1 -14.1273 67.597 45.2554
357 1 -14.3325 69.0023 46.4058
358 1 -14.1059 68.3151 46.9772
328 1 71.0959 66.4062 44.9142
340 1 72.2382 67.6771 47.6698
85 1 73.6272 66.0307 45.3332
351 1 74.9527 66.938 46.6223
352 1 -14.6754 66.8556 45.7266
82 1 74.0509 67.3801 47.0747
83 1 73.1978 66.699 46.7956
461 1 -14.8525 67.442 47.3528
462 1 74.975 68.2587 47.1992
329 1 71.4657 66.26 45.8617
81 1 74.3539 67.5916 47.9808
336 1 72.9187 68.2497 46.8811
339 1 72.9704 68.0173 48.0617
338 1 73.3432 68.7386 48.0566
337 1 72.8768 69.1393 47.4182
331 1 71.185 67.2288 45.7871
332 1 70.9629 68.068 46.3103
335 1 72.5288 67.5731 46.6509
333 1 71.7874 68.5768 46.3636
463 1 74.0106 68.5211 47.351
464 1 73.7938 69.0806 46.5535
234 1 53.5608 5.94433 48.7572
235 1 53.5601 5.64488 49.6319
236 1 52.6486 5.48236 49.4346
230 1 52.8025 4.34057 48.603
231 1 52.6281 3.9698 49.5567
228 1 54.3354 3.57512 47.9784
238 1 51.5723 4.8405 48.1168
229 1 53.4948 3.65413 48.3409
240 1 51.8658 4.79065 49.4029
239 1 51.1616 5.42946 49.0049
237 1 52.2579 5.40317 48.6122
32 1 67.0485 68.187 56.5438
29 1 65.4409 67.0862 55.0218
30 1 65.9883 67.4777 55.7418
31 1 66.3793 67.2993 56.6261
34 1 67.2493 67.4096 57.3233
28 1 64.9017 67.7353 55.4952
25 1 65.4026 67.8907 56.6953
27 1 65.6576 68.2254 55.0459
36 1 66.0178 66.2098 58.188
33 1 66.5073 68.1311 57.3019
40 1 64.0981 66.7784 55.9766
35 1 66.4947 67.108 57.8708
26 1 65.8183 68.566 55.9462
39 1 65.0356 66.4925 55.9014
37 1 65.315 66.4334 57.5427
22 1 64.7362 68.6588 56.4306
24 1 64.7166 67.441 56.4639
21 1 64.1196 68.9409 57.2293
166 1 66.6977 69.4483 56.5616
23 1 64.027 68.1084 56.4175
254 1 64.4432 68.2765 58.2759
171 1 67.5503 67.3147 58.3319
38 1 65.6457 66.2476 56.6831
169 1 67.1117 68.9199 57.4516
249 1 65.6769 69.4102 58.4297
255 1 64.6475 69.26 58.18
170 1 67.6691 68.2412 57.9761
165 1 67.7528 69.6792 56.5781
168 1 66.3499 69.4102 57.679
167 1 65.9103 68.9734 57.0779
247 1 64.5096 70.2017 57.6071
248 1 65.4085 69.8499 57.5928
163 1 66.4246 70.4332 57.2563
164 1 67.2908 70.0558 57.3477
162 1 65.8348 70.5793 56.5681
246 1 65.0207 70.9137 57.9764
245 1 64.5773 70.9807 58.7957
251 1 65.9109 68.08 59.1989
252 1 65.6865 67.3225 58.545
253 1 64.7054 67.4433 58.6945
250 1 65.6073 68.4166 58.3826
173 1 67.424 68.1037 59.3875
172 1 66.7733 67.9239 58.5553
176 1 66.9984 69.2729 58.4358
177 1 67.8104 68.8208 58.7479
256 1 64.6771 69.5851 59.2165
257 1 65.0252 68.6861 59.4026
244 1 65.564 70.6168 59.0032
178 1 67.9655 69.8893 58.659
175 1 66.4257 68.948 59.1989
241 1 67.8305 71.6992 58.8679
161 1 65.9427 70.1204 55.523
242 1 67.4687 70.7888 58.513
259 1 65.7408 69.6848 59.5236
258 1 65.6542 69.0112 60.0416
243 1 66.4869 70.1991 58.4259
48 1 11.047 39.5593 61.6536
51 1 11.28 38.5656 62.6408
47 1 10.9268 40.2099 61.0273
52 1 10.3371 38.632 62.2596
45 1 12.1282 39.1368 61.2272
46 1 11.9665 40.0881 61.3602
53 1 10.8875 38.3932 61.5112
54 1 10.5524 37.4539 61.7363
55 1 10.6451 36.474 61.6723
57 1 11.6129 36.3223 62.9198
174 1 67.3343 69.0026 59.7313
260 1 65.7589 70.6027 60.078
180 1 66.8172 70.6554 59.9617
179 1 67.2804 70.0188 59.2716
49 1 11.8325 39.4026 62.2182
50 1 12.1528 38.8528 63.0033
44 1 12.7915 38.8714 61.976
41 1 11.8992 37.7458 62.913
43 1 11.938 38.3406 61.962
42 1 12.3998 37.5486 62.0993
59 1 10.6929 36.5475 63.832
60 1 11.009 35.7555 63.8567
56 1 11.4793 36.8418 62.0923
58 1 10.6316 36.2399 62.8433
449 1 54.2677 -1.46467 70.0225
447 1 55.8028 -1.76921 71.0403
448 1 55.4058 -1.65207 70.0894
445 1 55.3311 -2.62387 70.5545
450 1 53.7283 -0.786535 70.499
451 1 53.5813 -1.56207 71.2486
458 1 53.1282 -4.13555 72.677
457 1 53.2584 -3.51671 71.892
446 1 56.3336 -2.50783 70.8828
459 1 53.9696 -4.31594 72.9744
452 1 54.3717 -1.96678 71.0194
453 1 54.8887 -2.04455 71.8034
454 1 54.7942 -3.02448 71.544
455 1 54.1158 -2.57747 72.2241
443 1 53.7761 -2.95081 71.0996
456 1 53.6846 -3.27227 72.7714
442 1 53.9641 -3.95181 71.0715
444 1 54.589 -3.12874 70.5356
460 1 54.4595 -5.13407 73.2446
441 1 54.3061 -3.79735 72.029
ITEM: TIMESTEP
14000
ITEM: NUMBER OF ATOMS
500
ITEM: BOX BOUNDS pp pp pp
-1.6442407707031187e+01 7.6442407707030583e+01
-1.6442407707031187e+01 7.6442407707030583e+01
-1.6442407707031187e+01 7.6442407707030583e+01
ITEM: ATOMS id type x y z
74 1 11.9795 62.559 -12.2843
72 1 12.7486 61.5281 -12.1311
73 1 11.7451 61.6302 -11.8194
69 1 14.4642 62.5252 -13.1226
75 1 12.6575 62.8744 -12.9091
68 1 13.6513 63.1664 -13.1871
77 1 11.5151 64.1142 -11.8795
76 1 12.2611 63.5291 -12.2818
65 1 12.5586 64.8795 -12.0562
78 1 11.4465 64.8225 -12.6844
79 1 11.8745 64.0944 -13.0599
80 1 11.8808 63.1359 -13.6648
291 1 35.3943 -10.4047 -7.31828
292 1 35.9115 -10.8731 -7.95461
290 1 34.7984 -10.6879 -8.04765
71 1 13.1707 62.2741 -12.021
70 1 13.9478 62.6655 -12.285
67 1 13.1491 63.9311 -12.9501
63 1 12.8937 64.1754 -11.4448
64 1 13.6281 64.5986 -12.1102
66 1 12.7383 64.8625 -13.0374
299 1 36.3321 -9.42116 -7.1074
296 1 37.058 -10.2671 -8.5439
297 1 37.473 -10.1565 -7.69371
298 1 36.5603 -10.4181 -7.23858
295 1 37.3745 -10.7896 -9.30769
294 1 36.4789 -10.9967 -9.29434
284 1 36.2539 -8.86032 -8.08831
285 1 36.1606 -9.85866 -8.15146
293 1 36.6766 -11.241 -8.45436
289 1 35.1164 -11.5432 -8.06677
61 1 14.1897 63.382 -11.4826
62 1 13.2033 63.3328 -11.8058
281 1 37.4333 -9.53734 -9.85604
282 1 36.9154 -9.16034 -9.12821
300 1 37.189 -9.27535 -6.65881
283 1 37.1654 -9.12429 -8.16412
286 1 35.525 -9.9794 -8.80491
287 1 35.7544 -10.3783 -9.65531
288 1 35.4794 -11.0902 -8.89859
145 1 39.8548 -3.91559 2.19648
148 1 40.6468 -4.61772 2.30408
147 1 40.6643 -5.12056 3.26629
144 1 39.0043 -4.38642 1.89102
143 1 39.1805 -3.9408 1.13353
146 1 39.8055 -4.63225 3.03777
149 1 40.1393 -5.49036 2.10726
150 1 39.6652 -5.85308 2.92718
151 1 38.6755 -5.95129 2.96418
152 1 39.0159 -5.19889 2.5351
154 1 38.3902 -5.2469 1.62706
155 1 38.2958 -4.61391 0.828443
159 1 40.5467 -6.52309 1.61851
158 1 39.9398 -6.03472 0.927097
157 1 39.1278 -5.49103 0.980472
142 1 39.8591 -4.69069 1.18566
156 1 39.1299 -4.69956 0.387479
141 1 40.7156 -5.20725 1.19498
422 1 62.453 -1.67138 3.32461
423 1 61.7116 -2.32763 3.20117
421 1 61.7642 -1.28955 2.77365
428 1 61.7452 -0.417321 3.28333
427 1 60.9259 -0.468712 3.22919
433 1 60.3068 0.440334 3.08201
432 1 61.2448 0.742913 3.29342
160 1 41.1248 -5.83146 1.90722
153 1 39.0256 -6.00049 1.91872
301 1 64.4508 -1.0138 4.52705
440 1 62.0588 -1.02891 4.06503
425 1 60.4266 -1.23702 4.1628
424 1 61.3075 -1.65313 3.79395
438 1 61.76 -0.342773 5.40041
437 1 61.4092 0.389847 5.90083
429 1 62.1569 0.265606 3.80011
307 1 62.314 1.7541 4.81706
308 1 61.5008 1.41795 5.30496
439 1 62.0192 -1.10053 5.09679
435 1 60.7557 1.17818 4.44065
434 1 60.2454 0.287774 4.01951
426 1 61.1441 -0.516116 4.14882
430 1 62.6979 0.0837024 2.95622
306 1 62.8126 1.21839 4.28843
431 1 61.7605 0.588819 2.55503
319 1 63.2933 -1.45657 5.07061
318 1 63.7092 -0.803148 5.70807
317 1 62.8604 -0.12898 5.53297
320 1 62.9049 -1.59814 5.89994
310 1 62.2435 0.698451 5.11375
302 1 64.1432 -1.84148 4.21942
311 1 62.8494 0.978163 5.77416
316 1 62.5324 -0.269739 4.63732
304 1 63.094 -0.616752 3.73448
303 1 63.6509 -1.34704 3.69699
436 1 60.5791 0.728812 5.27607
309 1 61.6025 0.642228 4.58817
305 1 63.2745 0.347423 3.97001
312 1 63.4426 1.61102 5.09806
315 1 63.5989 -0.419792 4.76881
314 1 63.6099 0.411377 4.98386
313 1 63.9498 1.11282 4.36306
106 1 28.6521 65.6602 16.6487
114 1 29.0916 64.8958 15.8203
117 1 29.0373 63.5245 15.3239
107 1 27.7951 66.019 16.4616
108 1 27.1736 65.9852 15.6581
109 1 27.0535 65.0944 16.2675
110 1 27.0764 64.8884 15.242
115 1 29.7949 64.1945 15.9204
8 1 -8.14912 11.7276 19.0031
9 1 -7.83062 10.9715 19.4246
10 1 -7.18445 10.2495 19.2099
16 1 -8.1509 11.3025 20.4741
11 1 -6.62707 10.4943 18.595
119 1 29.4523 64.4293 14.8448
105 1 28.1273 64.8246 16.7168
113 1 28.8568 65.3826 15.0533
118 1 28.5276 64.2232 14.9387
103 1 29.416 65.5444 17.4637
102 1 29.6582 65.4729 16.4582
101 1 29.3721 66.041 15.6253
104 1 29.0223 64.7331 16.8871
112 1 28.3188 66.1351 15.4081
111 1 27.9636 65.1486 15.532
116 1 28.8703 63.8849 16.264
6 1 -8.04892 13.2016 19.9081
5 1 -8.22348 12.3261 19.9689
7 1 -7.55117 12.6091 19.1744
4 1 -8.91202 12.6336 20.561
15 1 -7.31334 11.6583 19.9956
19 1 -7.01093 12.5893 20.4279
2 1 -8.30541 11.9576 22.2306
3 1 -8.12367 12.2432 21.2119
18 1 -7.03944 11.7808 20.9944
13 1 -7.18147 11.5548 18.5263
20 1 -6.36994 12.4982 19.6739
14 1 -6.64256 11.4441 19.34
17 1 -7.39234 11.0012 20.9816
12 1 -6.28598 11.2805 18.0606
120 1 29.1728 64.8858 14.0848
1 1 -7.6195 11.1357 22.0452
279 1 61.5841 64.184 26.2191
278 1 61.0406 63.3507 26.2022
280 1 62.4559 64.5339 26.5234
400 1 61.8927 64.5808 27.3961
399 1 61.2247 65.1927 27.1151
274 1 59.4073 63.2216 27.6278
273 1 58.8908 64.0756 28.0756
269 1 59.5889 64.265 27.0499
276 1 61.2409 63.0261 27.849
272 1 59.8291 64.1352 28.3309
275 1 60.3681 63.4056 27.5409
277 1 61.531 63.4385 27.0634
261 1 61.8859 64.209 28.6929
270 1 60.5533 64.4223 26.7016
268 1 59.4615 64.8859 27.6358
271 1 60.6433 64.4074 27.763
266 1 59.956 65.8327 27.6157
262 1 61.3063 64.9602 28.2101
398 1 61.2042 65.4269 26.0494
265 1 60.448 66.483 27.5432
396 1 59.978 65.1358 26.3
264 1 60.7468 66.8188 28.2851
389 1 59.899 65.0621 30.0885
387 1 60.7834 63.8409 29.1701
267 1 58.9279 65.8241 27.2618
390 1 59.4338 64.7123 29.3136
388 1 60.2318 64.3346 29.8647
263 1 60.6909 65.7681 28.3094
397 1 60.6618 65.9321 26.449
395 1 58.8677 65.1814 26.4041
394 1 58.6107 64.2908 26.5732
386 1 61.3075 64.6191 29.6669
392 1 58.5247 65.2921 28.2892
391 1 59.4214 65.2898 28.6019
385 1 60.6114 65.255 29.3815
384 1 60.1466 66.1396 29.2697
382 1 58.7995 66.2093 28.2553
383 1 59.0332 66.0395 29.196
393 1 58.3428 64.7477 27.4026
381 1 59.367 66.8752 28.5993
377 1 73.783 68.7635 40.4699
376 1 73.0722 69.4333 40.0231
361 1 74.6188 71.1356 40.1485
362 1 74.8432 71.5093 40.99
364 1 74.4124 70.4567 40.9301
363 1 74.1859 71.1409 41.6118
375 1 73.4324 69.7211 40.8194
365 1 75.2694 70.0795 40.8004
366 1 75.2276 70.4906 41.6314
136 1 71.8401 69.2625 41.4654
213 1 73.8799 66.1897 41.5832
135 1 72.3797 69.663 40.7677
134 1 72.6088 70.6165 40.9798
132 1 70.9835 71.3899 41.1716
380 1 72.8519 67.3973 42.3631
378 1 73.0942 68.761 41.3499
379 1 73.4841 68.0326 41.8117
211 1 75.2216 66.9511 41.8134
372 1 74.5777 68.9934 41.6944
210 1 75.4141 67.818 41.5316
212 1 74.5378 66.6943 41.0492
130 1 71.205 72.2221 42.4498
129 1 72.0922 72.4448 42.2443
133 1 71.9988 71.5141 40.8578
131 1 70.5975 72.2235 41.5671
127 1 72.9927 70.8692 42.1301
128 1 72.1316 71.5393 42.2969
373 1 74.0768 69.7218 41.5677
374 1 73.1227 69.9088 41.8305
209 1 75.9906 67.9171 40.854
208 1 75.6182 68.6604 40.5659
367 1 74.9034 71.201 42.2646
420 1 71.4558 73.7029 43.3508
321 1 70.6281 71.6847 43.5882
137 1 71.1123 69.176 42.1089
215 1 74.4965 66.3211 43.173
214 1 74.5065 66.2663 42.2103
219 1 75.1436 67.2934 42.7472
220 1 74.3343 67.399 42.3567
201 1 -14.5209 69.0496 43.9567
138 1 70.4179 69.9605 42.3515
500 1 71.837 71.4873 43.9181
139 1 71.1662 70.3998 41.6811
140 1 71.9749 70.1244 42.1058
181 1 73.0261 69.057 42.4148
202 1 -15.431 68.7722 43.7323
205 1 76.2327 68.2595 42.0378
126 1 72.7714 70.7995 42.9133
183 1 72.6174 69.6343 43.0244
370 1 74.0226 69.472 42.5503
371 1 74.0903 68.463 42.4244
98 1 74.9659 69.95 43.3915
206 1 -16.12 69.021 41.7145
207 1 75.8526 69.3901 41.3421
416 1 71.761 72.5088 45.4529
417 1 71.7234 72.6863 44.4429
419 1 71.2827 72.6554 43.4769
125 1 73.1512 70.9343 43.8729
124 1 73.1707 71.7385 43.5008
368 1 74.1689 70.8218 42.5912
369 1 73.505 70.1779 42.849
185 1 73.973 69.958 43.7632
184 1 73.3922 69.2575 43.5867
100 1 75.9758 70.5083 42.3623
99 1 74.9753 70.1257 42.5753
418 1 70.9635 72.3517 44.3264
197 1 73.5342 72.1642 42.132
123 1 72.3895 72.5332 43.4318
198 1 74.2059 71.9522 42.5128
216 1 75.3796 66.0372 43.0733
324 1 71.5299 69.7865 42.8882
92 1 72.5102 67.9438 44.7335
89 1 73.7735 66.9779 44.7162
90 1 73.6605 67.4927 43.6237
91 1 72.6591 67.787 43.7063
217 1 76.1705 66.2751 43.5625
88 1 74.3029 66.6339 44.0755
218 1 75.3311 66.9199 43.5203
322 1 70.6464 70.825 42.7458
323 1 71.6494 70.709 42.8892
498 1 72.1729 70.3841 43.7384
182 1 72.1101 68.9271 42.4796
95 1 73.3372 68.9008 44.5404
93 1 72.0511 68.9317 44.9545
480 1 74.6289 68.0255 43.2372
347 1 75.0468 67.2829 44.6438
478 1 75.3244 68.9828 42.3999
203 1 -16.2614 68.4143 43.4127
204 1 -16.2696 68.8148 42.6428
475 1 -16.1756 70.6603 44.0906
499 1 71.3742 70.6993 44.0409
496 1 71.4892 69.5139 44.1494
497 1 72.4518 69.5916 44.2564
479 1 75.566 68.2779 43.1116
96 1 74.1288 68.7261 44.0645
97 1 74.6716 69.0719 43.3504
476 1 -16.1442 70.0247 43.2253
477 1 75.8159 69.4631 42.9777
188 1 75.8107 70.6947 43.5273
415 1 71.5827 71.5761 44.8979
414 1 70.764 71.3488 44.7982
485 1 72.9068 70.6036 44.9764
186 1 74.4497 70.8627 43.8563
187 1 75.137 71.2798 43.2795
199 1 74.2723 72.1038 43.4583
200 1 73.8732 72.0285 44.2497
194 1 73.3339 73.8692 44.2059
483 1 72.6858 72.5042 44.8643
484 1 72.6761 71.5465 44.7223
411 1 72.2143 71.0667 46.5248
121 1 74.0501 72.9826 43.8648
122 1 73.0795 72.7041 43.9533
196 1 73.4226 72.9067 42.7073
193 1 74.1231 73.9254 44.7048
482 1 73.6336 72.5183 45.1575
195 1 73.046 73.6356 43.1435
325 1 71.1985 68.8788 43.2882
328 1 71.0005 68.0721 43.7693
87 1 75.1754 66.1931 44.5165
344 1 74.9128 67.4226 45.6608
86 1 74.6322 66.4808 45.3923
85 1 73.8553 66.0655 46.0304
353 1 -16.3747 68.7395 45.1279
326 1 71.6748 68.0697 43.0118
327 1 71.95 68.4874 43.8634
94 1 72.8631 68.7025 45.4381
345 1 74.1918 67.9088 45.0138
346 1 74.789 68.0934 44.4069
342 1 75.9593 67.4903 45.3887
348 1 75.7739 67.9362 44.3165
349 1 76.2129 67.3341 43.599
473 1 -16.0331 69.3957 44.3783
474 1 -15.3347 70.0609 43.9186
494 1 70.1249 69.7692 44.6937
495 1 70.8171 69.0446 44.6387
493 1 70.9552 70.1908 44.9551
487 1 72.4969 69.7295 45.5097
341 1 75.4544 68.3584 45.323
401 1 73.5929 69.8565 44.6102
470 1 75.6201 69.3335 45.0276
402 1 74.4703 69.5938 44.9289
471 1 75.4813 68.9504 44.2346
472 1 76.0367 69.671 43.9626
190 1 74.9994 71.9646 44.3615
191 1 74.981 72.798 44.0966
488 1 72.9587 69.4281 46.313
413 1 71.0448 70.9855 45.7167
486 1 72.9059 70.4876 45.8616
406 1 74.4643 71.6621 45.5132
405 1 73.6949 71.1788 44.8514
404 1 74.6441 70.8219 44.8854
403 1 75.1025 70.1442 44.3134
192 1 74.5881 73.107 45.2176
189 1 75.6956 71.2391 44.4641
481 1 73.4584 71.8535 45.7284
412 1 72.0632 71.362 45.7779
410 1 73.1984 71.2244 46.4132
409 1 74.067 70.8086 46.8694
407 1 74.5113 72.2723 46.2089
408 1 74.2655 71.5316 46.5745
225 1 54.1259 3.03421 49.106
224 1 54.7417 2.75602 49.852
329 1 71.6156 67.3595 43.6705
84 1 73.9452 67.0192 46.1146
354 1 -16.3877 69.5879 45.4747
352 1 -16.1285 68.2572 44.5063
359 1 75.6133 69.4394 46.1885
360 1 75.0145 69.3105 47.0682
330 1 72.3976 66.9567 44.2145
331 1 72.2137 66.985 45.1238
332 1 72.3607 66.9105 46.1104
343 1 75.9292 67.1581 46.1078
334 1 73.0715 67.7289 45.876
83 1 74.2622 66.7713 46.9751
335 1 73.481 67.9377 46.6449
350 1 76.1686 67.0301 44.331
355 1 -16.0468 70.3984 45.1818
351 1 -15.961 67.4928 44.6806
357 1 75.5513 71.1362 45.9166
492 1 71.8415 70.539 45.3322
491 1 71.5031 69.6455 45.5986
333 1 72.2478 67.9096 46.0467
465 1 73.7945 69.2409 45.6019
466 1 73.8251 70.323 45.5405
336 1 72.6438 68.3746 46.8911
356 1 76.3808 71.1564 45.4902
464 1 74.4687 68.6843 45.9994
489 1 72.095 68.9912 46.193
468 1 74.9815 70.3875 45.729
490 1 71.8188 69.929 46.4557
467 1 74.5845 69.8375 46.1647
469 1 75.7995 70.2873 45.193
229 1 55.7968 3.77328 48.6539
226 1 54.4396 2.59224 48.1766
227 1 55.0201 2.20828 48.7302
228 1 55.7672 2.85273 49.0756
238 1 54.8721 5.69743 49.3078
223 1 54.8935 3.55552 50.4927
222 1 55.6176 4.08344 50.0224
461 1 73.118 69.1105 47.5313
340 1 72.8616 67.3124 48.0495
339 1 71.9986 67.387 47.6578
82 1 74.7216 67.6342 46.7132
81 1 75.4608 68.2041 46.5145
358 1 75.8195 70.3063 46.5066
338 1 72.3413 68.2069 47.8527
337 1 71.7821 68.597 47.2405
462 1 73.6756 69.6994 47.1007
463 1 74.0925 68.7586 46.8703
232 1 54.0715 3.92512 50.234
230 1 55.0035 3.72665 49.4183
231 1 54.2698 4.30757 49.3107
240 1 53.7873 5.30042 50.199
239 1 53.9466 6.01041 49.538
237 1 54.7662 5.75752 50.3186
233 1 53.6045 3.99278 51.0366
234 1 54.3802 4.42009 51.1287
235 1 53.5819 5.00212 51.1734
236 1 54.3872 5.58734 51.1622
221 1 55.0397 4.81422 49.9159
29 1 68.9229 66.2577 56.3578
27 1 68.6631 67.4631 56.0814
39 1 66.1081 67.4527 57.1222
38 1 66.9106 67.6593 57.7135
28 1 68.0943 66.8596 56.6458
40 1 65.309 67.5063 57.78
24 1 67.348 67.8816 56.7676
30 1 69.5658 66.6645 57.0795
31 1 69.7039 67.2945 56.3708
25 1 67.9755 68.3682 56.3508
22 1 66.0723 68.9627 57.3623
23 1 66.6529 68.3604 56.7104
26 1 67.8185 67.7005 55.6468
166 1 67.5583 70.8761 57.026
32 1 69.9172 68.0715 55.7646
162 1 66.2584 71.1913 56.323
161 1 66.4201 71.0059 57.2824
165 1 67.2872 71.7957 57.2381
36 1 67.8727 66.7952 57.7435
37 1 67.9022 67.7873 57.9702
35 1 68.7977 67.1005 57.8472
34 1 68.9103 67.5675 57.078
21 1 66.8693 68.6973 57.7621
255 1 67.736 69.0636 59.6722
33 1 69.1195 68.3507 56.5109
168 1 67.2413 69.9871 57.8607
167 1 66.957 70.0949 56.9606
169 1 68.1871 69.9313 57.6912
170 1 67.9952 69.6039 56.7954
247 1 64.8116 70.4375 58.8455
246 1 65.3004 70.4283 59.7386
248 1 65.4163 70.6737 58.259
163 1 65.4463 71.4778 57.0521
164 1 66.2731 72.117 57.1587
253 1 66.9619 67.6043 58.7969
251 1 66.4382 68.5095 59.1526
252 1 66.1121 68.1093 58.3451
171 1 68.2341 68.7247 57.2801
172 1 68.0225 68.943 58.3419
254 1 67.5365 68.0791 59.2205
257 1 66.93 69.9572 60.1154
249 1 66.018 69.902 57.9801
250 1 66.6868 69.3306 58.6865
175 1 67.6581 70.2079 58.9256
173 1 68.9871 69.1232 58.0455
176 1 67.2088 70.7671 59.4996
177 1 66.7486 70.6635 58.4632
256 1 68.0171 69.9772 59.9445
244 1 65.9143 71.1846 59.1753
259 1 66.3416 71.1696 60.9701
243 1 65.813 71.8271 58.2704
178 1 67.7558 71.0373 58.2946
242 1 65.0839 72.2922 57.6538
179 1 67.25 71.6712 59.0708
245 1 66.1976 70.3014 59.2594
241 1 64.7924 71.4758 57.8984
47 1 12.2128 36.4292 63.2558
258 1 67.0795 70.6077 60.7917
174 1 68.5605 69.9322 58.6174
260 1 66.4495 71.8267 60.0417
180 1 66.8548 71.6158 58.1537
55 1 12.2214 39.0245 64.5303
56 1 11.9261 38.595 63.6086
53 1 12.8408 39.4911 63.697
54 1 12.1556 39.9569 64.3033
43 1 11.2159 38.2886 62.8715
42 1 10.3454 38.3432 63.3555
48 1 13.0372 37.044 63.4632
52 1 13.4363 39.0303 64.3553
45 1 12.0245 37.6395 63.2908
49 1 13.1658 37.8158 62.8826
44 1 11.9033 38.0268 62.3143
46 1 11.6255 36.9381 63.8594
57 1 11.859 39.3718 62.9554
59 1 10.312 39.3012 62.8626
60 1 11.1202 39.1899 62.2919
58 1 11.0346 39.336 63.3739
41 1 10.6743 38.6771 64.2671
51 1 13.8593 38.6126 63.6141
50 1 12.9883 38.2898 63.8045
445 1 57.9072 -2.12366 72.2421
444 1 57.873 -3.03041 72.1089
446 1 58.0759 -2.31167 73.163
449 1 57.3194 -4.38257 74.0948
448 1 57.7798 -3.77846 73.442
450 1 57.8566 -5.09549 73.6691
442 1 56.7893 -2.83551 70.6293
457 1 55.7339 -3.23375 71.0964
443 1 57.4939 -2.63848 71.1968
454 1 57.5177 -4.67734 71.5425
455 1 57.3916 -3.9217 71.0231
441 1 55.9853 -2.55834 70.0318
451 1 57.0198 -4.73684 73.1951
452 1 56.8243 -3.8737 72.6823
453 1 57.6659 -4.22771 72.4042
447 1 57.3228 -2.92216 73.1647
458 1 55.4364 -2.23435 71.0302
459 1 56.1371 -2.13731 71.7654
460 1 56.8755 -2.63179 72.2499
456 1 56.5911 -3.63944 71.5393
ITEM: TIMESTEP
15000
ITEM: NUMBER OF ATOMS
500
ITEM: BOX BOUNDS pp pp pp
-1.7958597913780210e+01 7.7958597913779528e+01
-1.7958597913780210e+01 7.7958597913779528e+01
-1.7958597913780210e+01 7.7958597913779528e+01
ITEM: ATOMS id type x y z
80 1 10.5511 63.871 -15.0137
74 1 12.2044 65.3319 -14.5524
75 1 11.3564 65.6 -15.0062
76 1 11.2939 64.9704 -14.1899
69 1 11.9133 63.0046 -16.5109
68 1 11.6025 64.0428 -16.6438
70 1 12.6525 63.1918 -15.849
78 1 11.8615 63.4957 -14.4938
79 1 11.1064 63.101 -14.9628
66 1 13.1179 64.3023 -16.319
67 1 12.3459 64.3823 -15.937
72 1 11.2872 64.5155 -15.5796
73 1 11.9812 64.4983 -14.8328
71 1 11.7095 63.58 -15.607
61 1 14.3031 64.1027 -15.8278
62 1 13.9757 65.0654 -15.4947
77 1 11.8554 64.3153 -13.8234
65 1 13.0385 65.3009 -16.2943
63 1 12.936 65.0301 -15.3447
64 1 12.1927 65.5974 -15.8565
287 1 35.7251 -10.4588 -9.62166
281 1 36.0026 -12.6903 -8.36977
289 1 37.0051 -9.71073 -9.74663
288 1 36.5878 -10.249 -9.17687
294 1 37.0534 -11.8062 -9.19807
293 1 37.3514 -11.0326 -9.78476
290 1 37.7419 -10.0462 -9.35626
286 1 36.3971 -10.4733 -10.2548
285 1 36.1967 -11.3524 -9.77128
296 1 36.6555 -13.066 -9.56632
295 1 37.0162 -12.1741 -10.0642
284 1 36.1141 -11.1338 -8.83262
282 1 35.9216 -12.1188 -9.18328
283 1 35.4959 -11.7635 -8.31765
292 1 37.5536 -10.3575 -10.3802
291 1 37.8792 -9.45558 -10.2521
299 1 35.5674 -11.1061 -10.9181
298 1 35.3182 -11.7879 -10.1419
297 1 35.8715 -12.5729 -10.1971
300 1 34.7656 -11.7496 -11.1441
156 1 40.5423 -5.46744 2.75326
154 1 41.0353 -6.06849 1.92112
157 1 39.8596 -5.88371 2.27248
159 1 40.4125 -5.27896 1.49499
158 1 39.4868 -5.14122 1.67998
141 1 40.9557 -6.10602 0.831173
155 1 41.2464 -5.25044 2.13389
143 1 42.1306 -6.07531 1.46585
142 1 41.4215 -5.44191 1.17208
150 1 41.8462 -7.82247 1.30452
151 1 42.3976 -7.05294 1.49127
153 1 40.7306 -6.98587 2.00495
149 1 41.0959 -7.34398 0.899034
160 1 40.087 -6.20137 1.34704
144 1 42.0269 -6.3977 0.609477
146 1 41.5272 -7.14014 -0.541353
152 1 41.7645 -6.90823 2.15327
145 1 42.0335 -7.39595 0.350814
148 1 40.3858 -7.08212 0.284755
423 1 62.7062 -2.31903 3.9806
421 1 61.6735 -1.69314 2.51327
427 1 61.2459 -1.37146 3.64909
430 1 61.1593 -0.221475 3.47599
433 1 59.9735 -1.34306 4.9492
431 1 60.2543 -0.232404 3.86555
147 1 41.0402 -6.37442 -0.155328
425 1 61.5664 -2.03489 4.39445
440 1 62.3774 -1.01251 4.42812
424 1 62.0463 -2.90724 4.32739
422 1 62.0407 -2.1058 3.21548
303 1 63.2011 -0.355066 3.35243
301 1 62.8949 -1.55786 2.9189
302 1 63.2914 -1.36244 3.67083
434 1 60.8332 -1.89786 5.24301
428 1 62.0357 -1.02617 3.21569
429 1 62.1599 -0.0978783 3.75632
426 1 61.2046 -1.142 4.55876
316 1 63.0917 0.115278 4.34628
304 1 63.1719 -0.297247 2.43828
305 1 62.5784 0.259706 2.59404
435 1 61.2028 -1.45433 5.91815
432 1 60.003 -1.18292 3.94344
309 1 62.7183 1.28458 3.92744
306 1 61.7289 0.061041 2.18256
313 1 64.1834 0.106825 3.38696
439 1 62.5595 -0.318344 5.09361
319 1 63.5769 1.12056 5.92536
320 1 64.5622 0.99873 5.95569
438 1 62.2288 0.566188 4.71505
437 1 61.5343 0.0509818 4.65573
318 1 62.7456 0.937608 5.6666
317 1 63.4012 0.254804 5.28335
315 1 63.5221 -0.75796 4.66598
314 1 64.2843 -0.256652 4.38503
436 1 61.3441 -0.422796 5.5044
307 1 61.5653 0.735205 2.78977
308 1 61.7679 0.872022 3.78374
310 1 63.6859 0.956996 4.04588
311 1 64.3237 0.818481 4.7528
312 1 64.8924 0.73749 3.80015
120 1 27.6257 65.4839 15.3758
117 1 27.816 65.0707 14.3757
110 1 28.0529 66.7529 15.292
118 1 28.4241 65.8775 14.5362
111 1 27.9758 67.2171 14.4841
114 1 27.4412 66.5852 13.5845
115 1 27.0827 65.7128 13.7772
119 1 27.4486 66.0764 14.6603
108 1 29.6399 66.2079 14.3952
112 1 27.0409 67.2944 15.101
113 1 26.7763 66.7858 14.3228
101 1 28.542 66.8394 12.7905
109 1 28.929 66.7346 14.9235
105 1 29.0938 65.998 13.2085
104 1 28.1659 65.7977 13.5101
116 1 27.2572 64.7548 13.6562
107 1 29.6921 67.1755 14.2093
106 1 28.8479 66.7133 13.8533
102 1 28.0151 66.2974 12.0649
11 1 -11.017 11.3306 21.6463
13 1 -10.0999 11.2003 22.7144
12 1 -10.5359 10.6344 22.1122
103 1 27.5895 65.7137 12.7707
10 1 -11.9328 10.8356 21.6333
9 1 -11.8643 11.4221 20.8867
15 1 -10.0487 11.2611 21.0397
14 1 -10.0764 11.7416 21.9056
8 1 -11.429 11.1792 19.9306
5 1 -10.2177 12.2241 19.8308
7 1 -11.2467 10.7254 19.1384
20 1 -12.3884 11.9102 21.5942
6 1 -10.5812 11.3528 19.4017
16 1 -10.7747 11.7973 20.6037
17 1 -11.4466 12.5246 20.5946
4 1 -10.0092 12.418 20.7597
3 1 -9.04997 12.2943 20.4159
19 1 -11.889 12.4907 22.1595
18 1 -11.1199 12.4802 21.543
1 1 -9.29141 13.3933 18.9168
2 1 -9.38499 13.1714 19.9767
278 1 63.2622 64.0387 29.6203
277 1 63.6883 64.8608 29.9987
395 1 61.5978 65.4416 25.9417
394 1 61.0612 65.1604 26.7066
269 1 62.6812 64.0361 27.9087
270 1 63.42 64.4509 28.4086
396 1 62.2573 65.7289 26.8137
279 1 62.6394 64.2564 30.4273
280 1 63.1294 63.2815 30.4346
397 1 63.2545 65.5705 26.6547
399 1 64.7075 66.2216 27.6276
398 1 63.8329 66.1508 27.1895
274 1 62.419 65.0916 28.602
275 1 62.5187 64.9429 29.5705
276 1 63.3212 65.4598 29.3029
273 1 62.1572 66.0146 28.5701
268 1 62.3932 64.8882 27.3665
393 1 60.5879 64.6076 27.4526
272 1 63.1381 65.8256 28.243
271 1 63.4651 65.0516 27.629
400 1 64.2423 65.4281 28.2129
262 1 61.6125 66.9369 28.2779
267 1 61.6179 65.2159 27.6831
392 1 60.9776 64.6891 28.3621
391 1 61.3479 65.1808 29.1322
382 1 60.1929 65.7466 27.5885
266 1 61.1496 66.0014 28.2481
265 1 61.4212 66.2838 27.3246
263 1 60.5612 66.7432 27.8866
264 1 61.2847 67.2964 27.3244
390 1 61.6794 65.3289 30.1985
387 1 62.4981 66.6149 29.4953
388 1 61.9416 66.6477 30.1551
261 1 61.3346 67.5176 29.0888
386 1 61.4966 66.4065 29.2349
383 1 59.4902 65.4513 28.2451
385 1 60.4847 66.5749 29.3376
384 1 60.0469 65.9101 28.7359
381 1 59.3984 65.386 26.9791
389 1 62.2196 65.9645 30.7817
212 1 75.0412 69.7367 41.0607
209 1 75.4891 71.6858 42.8558
377 1 72.3516 69.4089 41.7313
208 1 75.9887 71.0294 43.5279
376 1 71.7998 69.9794 41.1739
375 1 72.2109 70.3463 42.0672
135 1 73.3511 73.1177 41.6148
134 1 73.0775 73.8175 42.3585
364 1 74.7752 72.5715 41.7048
365 1 75.6842 72.9108 41.7151
132 1 71.9911 74.033 41.7299
133 1 72.4491 74.5018 42.3452
361 1 73.7873 72.1923 40.1406
362 1 74.1069 72.8583 40.7108
213 1 75.439 69.7829 42.0997
214 1 75.4588 68.8215 41.9824
380 1 73.7202 69.5622 40.8862
379 1 74.2642 69.7102 41.7755
220 1 76.3146 68.7262 43.8282
211 1 75.0043 70.6069 41.6577
210 1 75.458 70.8034 42.6188
206 1 77.031 71.6175 42.1124
204 1 77.7667 70.7157 41.8315
136 1 72.4419 72.831 41.8103
137 1 72.8441 72.2011 42.4418
182 1 74.9647 69.8771 43.1135
378 1 73.3829 69.2318 41.8744
181 1 76.0113 69.805 43.0046
372 1 73.7349 71.0633 41.6741
371 1 74.4962 71.5886 42.1616
205 1 -17.9249 71.6242 41.7768
478 1 77.7319 70.8617 43.1019
138 1 73.5893 71.7395 42.8226
139 1 73.6953 72.1343 41.8749
140 1 73.1625 71.9067 41.0721
374 1 72.6835 71.0695 42.1302
373 1 73.2659 70.2657 42.0501
370 1 74.5214 71.947 43.3393
99 1 77.056 72.1865 43.4177
366 1 75.8707 71.8857 41.8582
207 1 76.6486 71.3673 42.831
100 1 77.7597 72.8933 43.5462
128 1 72.6081 73.4269 44.0883
127 1 73.3072 72.7756 43.8529
197 1 76.358 73.7506 42.8684
363 1 74.6407 71.9863 40.8613
367 1 76.4737 72.4869 42.3923
368 1 75.6147 72.7651 42.7866
198 1 76.1398 73.3222 43.7135
131 1 71.3497 74.4527 42.3505
130 1 71.939 73.9135 43.0123
129 1 72.1367 72.9991 43.4296
215 1 76.4826 69.0262 42.2535
216 1 76.9771 68.853 43.171
217 1 77.3896 69.2032 43.9683
329 1 73.0522 68.8036 42.9401
91 1 74.0361 68.7156 44.2977
90 1 74.8848 68.9569 43.8603
219 1 76.5794 67.8793 43.5339
218 1 77.2799 68.2383 43.9958
349 1 -17.472 68.8048 44.984
202 1 -17.839 69.1768 43.0432
203 1 -17.8236 69.8444 42.3642
201 1 -17.3283 69.6173 43.7789
325 1 72.1174 70.5406 43.8817
328 1 73.7856 69.4511 43.0511
326 1 72.5954 69.6886 43.2857
327 1 73.3793 70.1033 43.163
184 1 74.4697 70.5612 43.7083
480 1 77.8047 70.1855 44.3245
96 1 76.5817 69.9201 44.144
97 1 76.7405 70.8038 44.2578
479 1 77.3694 70.1583 43.4798
476 1 -16.8122 72.0798 43.1461
474 1 -17.4689 72.7358 44.2891
322 1 72.6138 71.8442 43.4527
324 1 71.4714 71.2296 43.8053
323 1 71.7239 71.7717 42.8518
498 1 74.3762 71.2093 44.6175
499 1 73.7754 72.0744 44.7392
183 1 74.4169 70.4874 42.7582
369 1 75.1035 72.662 43.5469
98 1 77.2783 71.4298 43.7622
185 1 75.3407 70.6164 44.3123
477 1 -17.6057 71.5126 42.9849
188 1 76.9932 72.3487 44.481
472 1 77.8129 71.1767 45.0058
321 1 72.3917 71.4284 44.5095
500 1 73.5003 71.5226 43.9299
126 1 73.7807 72.9297 42.8538
125 1 74.4015 73.401 42.3185
124 1 75.0416 73.9645 42.6948
186 1 75.3582 71.6036 44.2643
199 1 75.6582 73.0119 44.5474
187 1 76.1409 72.2192 43.9981
419 1 72.9515 72.0475 45.386
123 1 74.8959 73.6533 43.5588
122 1 75.7331 74.1318 44.076
196 1 76.5064 74.7561 43.4049
195 1 75.9844 75.2886 43.8972
121 1 76.3294 74.5418 44.7181
420 1 72.6434 72.9285 45.9031
86 1 74.9352 67.1316 45.5224
87 1 75.2677 67.2562 44.6217
351 1 77.8117 69.067 46.7294
330 1 73.2788 68.0784 43.6796
331 1 72.6678 68.8494 44.0799
89 1 75.2433 68.1115 44.0983
88 1 74.5509 67.5086 43.9941
345 1 75.9194 68.7449 45.4874
347 1 76.9012 69.6149 45.9958
342 1 77.3361 67.9438 45.3397
348 1 77.401 69.1611 45.2267
350 1 -17.6784 69.5456 45.7461
353 1 -17.3082 70.3828 46.6623
352 1 77.7397 70.0468 46.7064
495 1 72.8736 70.0754 44.7152
93 1 74.0108 70.0942 44.9871
92 1 73.6836 69.683 44.1041
95 1 75.726 69.6097 44.5674
94 1 74.6461 69.3598 44.7776
346 1 75.9111 69.5774 46.0145
341 1 -17.7306 68.165 46.0197
470 1 76.8377 71.0797 45.609
471 1 77.2651 70.35 45.1976
475 1 -16.9247 72.0138 44.104
473 1 -17.5894 72.0185 44.9893
355 1 77.7808 71.028 47.3932
494 1 72.3304 70.588 45.3338
496 1 73.2148 70.6259 44.2938
493 1 71.5593 71.1768 45.3491
492 1 71.5562 70.6431 46.1893
497 1 73.4311 71.041 45.1734
485 1 73.7416 72.1652 46.1982
401 1 75.2407 71.0773 45.6176
402 1 76.0542 70.4716 45.1734
404 1 76.1631 72.3475 45.3279
403 1 76.0138 71.486 45.0173
469 1 77.1152 71.0332 46.5347
414 1 73.2187 69.4313 48.2693
415 1 72.9406 69.9556 47.4778
484 1 74.0565 72.7977 45.5671
200 1 74.9651 72.2594 44.8807
190 1 76.1777 73.6161 45.5012
405 1 77.0063 72.4781 45.6019
189 1 76.5592 73.2568 44.8406
356 1 77.3039 70.2751 47.8769
416 1 72.7527 70.804 46.831
417 1 72.8815 71.2039 46.0498
418 1 72.4281 72.0562 46.2945
483 1 74.5928 73.4136 44.8754
482 1 75.0813 72.9709 45.5936
191 1 75.8803 73.9474 46.341
192 1 75.2956 74.1488 45.475
194 1 75.3135 75.4099 44.5511
193 1 74.6171 74.7491 45.0787
85 1 73.9808 66.7634 45.9157
332 1 72.1512 68.9414 45.0015
334 1 73.8261 68.6358 45.3993
335 1 73.8684 69.0171 46.2038
333 1 72.968 69.2359 45.3912
344 1 76.4835 68.8937 44.7798
84 1 73.7048 67.1524 46.8006
82 1 73.5799 68.4499 47.2144
343 1 76.5248 67.8738 44.6197
489 1 73.8284 69.8555 46.8176
465 1 74.7769 70.1753 46.0808
464 1 74.8858 69.2626 46.4958
463 1 75.4583 68.93 47.1811
81 1 74.337 68.844 47.4082
354 1 -17.4524 71.4297 46.7086
491 1 72.3365 70.0736 46.2796
490 1 73.2163 70.2568 45.9773
487 1 74.1026 70.9702 45.9666
488 1 74.12 70.869 46.9118
486 1 74.5085 71.8247 45.7938
466 1 75.1584 70.9445 46.7607
468 1 76.3942 70.51 46.3592
467 1 76.041 71.2257 46.8945
359 1 76.9731 68.2504 47.0791
358 1 76.4611 69.1823 46.8015
413 1 73.9696 69.9286 47.9304
412 1 74.7095 69.9937 47.3313
411 1 74.829 70.763 47.7243
481 1 74.87 73.6608 46.4362
410 1 74.6975 71.7411 47.3431
406 1 76.6299 71.9729 46.2051
408 1 75.4501 72.189 46.4127
357 1 76.4749 69.9537 47.516
407 1 76.2115 72.8555 46.3592
226 1 56.9523 2.56799 50.9649
339 1 72.74 67.8851 44.749
340 1 72.3869 67.1078 44.3071
83 1 74.1166 67.9645 46.3828
337 1 73.2218 68.326 46.1457
336 1 72.7635 69.0931 46.5321
461 1 74.7211 69.3989 48.4076
338 1 73.4284 67.7001 45.5279
360 1 76.9133 68.5988 47.8514
409 1 74.9078 72.6673 47.0483
462 1 75.6139 69.5078 47.9616
225 1 56.0152 2.78225 51.3354
227 1 57.6695 3.28645 50.9076
228 1 57.2359 3.27895 51.8137
230 1 55.5018 2.88961 52.4116
231 1 55.0544 3.41361 51.7581
229 1 56.5143 2.81059 52.3739
238 1 56.2571 3.83599 49.6875
239 1 56.7056 4.62601 49.9388
224 1 55.117 2.28236 51.5999
233 1 55.4752 4.48907 51.1943
223 1 54.1482 2.8402 51.2565
232 1 55.0624 3.73805 50.9352
222 1 53.9631 2.7503 52.2165
240 1 57.6019 5.06143 50.0526
237 1 56.1485 3.59379 50.7138
221 1 54.5329 3.37329 52.6377
234 1 54.9526 4.5343 52.0334
235 1 55.6787 4.0356 52.4533
236 1 56.126 3.75398 51.6619
29 1 71.2933 68.7928 57.7908
26 1 70.029 69.508 56.659
27 1 71.0071 69.6388 57.1009
28 1 70.6887 69.6462 57.9964
31 1 71.3336 68.2465 59.5753
25 1 70.5657 68.7166 56.7994
23 1 69.0488 69.2114 57.4354
33 1 70.311 69.5137 58.9491
32 1 70.4514 68.5677 59.2876
162 1 65.725 72.0344 57.8554
39 1 70.5709 67.8315 58.0947
40 1 70.2361 66.938 57.5104
38 1 70.9136 67.2475 58.7729
24 1 69.6723 68.464 57.4078
36 1 69.6606 67.4035 58.2859
37 1 69.969 67.5225 59.3098
35 1 69.4311 68.4074 58.4448
34 1 70.2117 68.8026 58.241
30 1 71.4331 68.132 58.5882
22 1 69.0603 69.7849 56.6923
21 1 68.8079 70.6824 56.8482
171 1 69.9384 71.7106 57.3442
173 1 69.7999 70.0123 57.6207
249 1 66.393 69.2933 58.6672
168 1 67.3933 71.5051 57.3514
167 1 67.8002 70.62 57.4323
170 1 69.2064 71.7555 56.7144
169 1 68.3743 71.5718 57.1089
241 1 67.0208 71.5797 60.7142
161 1 65.4048 71.4131 57.0563
163 1 66.2874 71.1878 57.5899
164 1 66.6539 71.3556 56.569
166 1 67.4896 69.7362 57.0101
165 1 66.7325 70.2424 56.7332
242 1 66.1094 72.0226 60.2828
253 1 68.1733 69.8958 58.219
251 1 67.2581 70.4772 58.3697
252 1 67.3824 69.78 59.006
254 1 68.6535 69.1542 58.6761
250 1 67.0858 69.5886 58.0389
172 1 70.0827 70.8037 57.096
247 1 65.9664 70.6548 59.8189
248 1 66.3322 70.4214 58.9301
245 1 67.0284 70.6512 59.8203
175 1 69.0107 71.5409 58.1525
176 1 68.0163 71.2689 58.203
177 1 67.9706 72.286 58.1342
174 1 68.8924 70.5316 57.8709
244 1 66.6401 71.3986 59.3917
243 1 66.1169 72.29 59.4256
178 1 66.9258 71.8774 58.3876
179 1 67.1528 72.7137 59.0669
180 1 67.9988 73.0787 59.6499
255 1 69.1865 70.1971 58.8608
246 1 66.4102 69.8848 59.9461
257 1 68.4344 71.4391 59.5061
258 1 68.7388 72.2317 58.9588
256 1 68.2968 70.5794 59.0002
259 1 69.8074 72.2127 58.7554
260 1 69.5675 71.5436 59.4101
44 1 12.647 40.924 64.704
60 1 14.6179 39.3009 64.5805
47 1 11.5431 39.6756 64.6663
43 1 13.2941 40.5306 63.9452
42 1 13.1732 39.7019 64.5505
48 1 11.4454 38.8281 64.3584
45 1 12.6017 40.3345 65.4282
49 1 11.1596 38.5928 65.1527
59 1 14.6656 38.3153 64.5376
58 1 13.788 37.8059 64.674
56 1 12.5888 38.9339 64.2872
53 1 12.081 37.7404 64.5608
57 1 13.1397 38.4307 64.8584
51 1 11.2009 37.0521 64.8388
46 1 11.8414 39.7708 65.6006
50 1 11.3911 37.7565 65.4783
41 1 13.5296 40.4744 65.0231
55 1 12.2284 38.8299 65.2818
52 1 11.1307 37.7989 64.2593
54 1 12.4682 37.8771 65.4965
441 1 60.6463 -4.71791 75.4694
442 1 61.1728 -4.55401 74.5246
454 1 60.4302 -3.16446 72.3957
455 1 60.5632 -3.76331 73.2098
457 1 59.1592 -3.35788 73.2616
456 1 59.9251 -3.55379 73.8751
444 1 60.3095 -5.52043 73.6113
443 1 60.6268 -4.64869 73.6743
458 1 59.5543 -4.15743 72.8585
459 1 59.5561 -4.56589 73.853
448 1 59.9647 -3.86413 71.7266
451 1 59.2038 -3.08579 71.0271
452 1 59.0746 -2.18128 71.3021
453 1 59.7294 -2.57613 71.9633
447 1 60.5084 -4.50338 72.3035
460 1 60.0182 -5.07867 74.6528
445 1 60.9096 -5.38708 72.8807
446 1 59.9391 -5.30339 72.5765
449 1 58.9531 -3.72539 72.0703
450 1 58.504 -2.96465 71.7006
ITEM: TIMESTEP
16000
ITEM: NUMBER OF ATOMS
500
ITEM: BOX BOUNDS pp pp pp
-1.9307594665899131e+01 7.9307594665898478e+01
-1.9307594665899131e+01 7.9307594665898478e+01
-1.9307594665899131e+01 7.9307594665898478e+01
ITEM: ATOMS id type x y z
69 1 10.1353 64.0877 -18.7109
68 1 10.7102 63.4397 -19.0691
70 1 10.2741 64.5677 -17.769
71 1 11.2464 64.796 -17.9236
72 1 11.0251 65.5715 -17.4125
67 1 11.6232 64.0184 -19.0112
63 1 11.4562 66.3956 -18.7292
66 1 11.5524 65.0739 -19.0764
61 1 11.7057 65.9854 78.815
62 1 12.2727 66.1432 -19.1004
65 1 10.6556 65.0772 79.2987
64 1 10.857 65.6865 -18.5764
79 1 12.4212 64.3325 -17.4108
78 1 12.6955 64.6992 -18.3256
80 1 12.653 64.0137 -16.6956
76 1 12.7784 66.1252 -17.4797
73 1 11.8376 65.8303 -17.9396
77 1 12.7653 65.5291 -18.3873
75 1 11.9776 66.1062 -16.9267
74 1 11.4558 66.617 -17.5594
299 1 37.3339 -10.1074 -11.8049
300 1 36.632 -10.4387 -11.104
296 1 37.4236 -11.703 -10.3218
297 1 38.2071 -11.4577 -10.9429
298 1 37.8284 -10.6587 -11.1478
285 1 36.177 -11.2184 -10.2056
295 1 37.5933 -12.6698 -10.5439
293 1 36.788 -13.5037 -10.7821
287 1 35.3297 -12.2269 -10.6047
289 1 34.8581 -13.6596 -10.7497
286 1 36.0812 -12.1863 -10.0552
292 1 35.9089 -13.8749 -11.0215
291 1 35.3715 -13.3112 -11.7054
281 1 36.362 -12.4271 -11.0484
283 1 37.1167 -11.1847 -11.8696
284 1 36.238 -11.4137 -11.1959
282 1 37.1155 -11.875 -11.3071
294 1 37.2268 -12.9642 -11.4789
288 1 35.009 -13.003 -9.99387
290 1 34.3115 -13.3349 -11.4983
148 1 41.6882 -6.46321 0.890419
146 1 40.8861 -6.93238 0.324095
145 1 41.2444 -6.20095 -0.215374
147 1 40.8084 -6.57749 1.28373
149 1 41.5736 -7.48066 1.00583
150 1 41.0482 -8.21701 0.542964
151 1 41.6868 -8.54914 1.0998
159 1 44.4502 -7.74834 1.66222
141 1 42.8557 -7.48961 1.87959
160 1 43.7508 -8.31004 1.27471
143 1 42.6844 -6.48976 0.273138
142 1 42.5879 -7.07826 0.948681
144 1 41.8943 -7.0319 -0.0684194
158 1 43.8388 -6.95127 1.5062
153 1 42.6835 -8.1302 0.78467
152 1 42.4171 -8.43778 1.69305
156 1 44.411 -7.93422 0.549089
154 1 42.8704 -7.47289 -0.064731
157 1 43.6862 -7.27296 0.644618
155 1 43.6349 -8.09741 0.0662903
421 1 61.905 -3.55941 4.56798
301 1 64.3572 -0.204169 3.98236
306 1 61.5893 -0.455379 3.06775
304 1 62.6612 -1.00688 3.21266
305 1 62.357 -0.357398 2.47199
307 1 61.8275 0.0856669 3.95937
424 1 63.0026 -2.44756 3.39446
432 1 60.3303 -1.13192 3.83886
427 1 60.9311 -2.24119 3.77207
425 1 62.8162 -1.69224 4.04357
422 1 61.7117 -3.25947 3.68856
426 1 61.8175 -2.08006 4.33351
423 1 62.0425 -2.37599 3.28742
302 1 63.7173 -0.979878 3.7123
431 1 61.1153 -0.984432 4.27138
430 1 62.1189 -0.985246 4.22531
440 1 62.1675 -2.06321 5.59618
428 1 60.7374 -1.5881 2.98374
429 1 61.5303 -1.40266 3.46056
303 1 63.5055 -0.869625 2.90052
316 1 64.2241 0.907906 4.00887
313 1 63.2899 0.309299 3.31996
314 1 64.1593 -0.0335453 2.97717
308 1 62.7846 -0.285969 4.0194
309 1 62.5835 -0.253546 4.86255
310 1 63.5495 0.119532 4.63518
312 1 62.4808 0.759093 4.01347
433 1 59.8801 -0.911286 4.74392
434 1 59.5803 -1.34139 5.56427
435 1 59.9412 -1.927 4.86747
437 1 60.7421 -1.6956 6.03333
436 1 60.8802 -1.91766 5.05996
439 1 61.6124 -1.15891 5.21825
317 1 64.1918 1.93747 3.571
315 1 64.367 0.92341 3.09756
438 1 60.9177 -0.759262 5.6612
319 1 64.7577 3.52931 2.75591
318 1 64.6139 2.75128 3.31244
320 1 65.4946 3.8385 3.36591
311 1 63.1833 1.00181 4.64913
102 1 27.2081 68.4488 12.6461
103 1 27.0857 67.6577 13.2051
101 1 26.9225 68.7294 13.5867
117 1 26.8665 66.5873 13.1789
116 1 27.3257 67.1592 13.9941
115 1 28.0036 67.1197 13.1657
114 1 28.1659 68.0658 12.8335
104 1 27.3339 67.3066 12.3443
108 1 27.0204 67.2624 10.6236
105 1 26.3731 67.5648 12.4199
113 1 28.5568 67.3378 12.2314
111 1 27.8188 67.9901 11.6348
107 1 26.5181 66.6704 11.1168
106 1 26.1634 67.5737 11.3552
120 1 28.8928 66.3716 12.6481
118 1 27.6297 65.9135 13.0162
119 1 27.9464 66.3193 12.181
112 1 28.7453 68.1022 11.8138
110 1 28.2177 67.6431 10.76
109 1 27.7191 66.8717 11.2557
8 1 -15.3875 12.0507 22.0192
7 1 -15.0435 11.1453 21.7021
6 1 -14.8651 11.1582 22.7063
5 1 -14.6471 12.1732 22.9008
1 1 -12.5174 10.8128 22.8622
2 1 -12.4614 11.4233 21.993
9 1 -14.7341 12.5416 21.3869
15 1 -13.0322 11.9611 21.3597
17 1 -14.1943 11.6054 21.6592
16 1 -13.4069 11.0703 21.159
4 1 -13.7193 12.1543 22.9146
3 1 -13.375 11.3925 22.438
11 1 -13.5642 12.9417 21.2967
10 1 -14.0177 12.7051 22.047
13 1 -12.2297 13.1797 21.4499
12 1 -12.8773 12.7552 22.0958
20 1 -15.245 12.4257 19.7509
19 1 -15.0126 11.8849 20.6994
18 1 -14.0187 11.9388 20.7785
14 1 -12.0589 12.2004 21.457
394 1 64.4876 64.6568 27.6923
381 1 62.1245 65.9542 27.7032
395 1 64.8364 65.1439 28.6607
396 1 65.1209 66.1422 28.4979
397 1 64.9179 65.8402 27.5529
393 1 63.676 64.4011 27.4146
268 1 63.2519 65.0165 29.6108
267 1 63.7597 65.1537 28.9786
392 1 63.3979 64.6592 28.0803
269 1 64.2141 65.2432 30.1723
270 1 64.8307 65.9772 29.7474
274 1 64.6175 67.0425 31.9072
271 1 63.84 66.0591 29.6419
383 1 62.8643 65.5619 28.596
382 1 62.9697 66.4416 28.2884
273 1 64.8566 66.4757 31.1887
266 1 63.9502 65.8798 28.4187
265 1 63.4706 65.6648 27.5669
398 1 64.9921 66.868 27.5483
272 1 64.1603 66.3301 30.5158
399 1 65.3584 67.464 26.9976
400 1 64.4506 67.3791 26.7567
263 1 64.0956 67.4451 27.7515
262 1 63.8206 67.7638 28.6307
264 1 63.5966 66.5604 27.3744
391 1 62.8349 63.8275 27.9893
278 1 64.8147 67.2527 30.3991
275 1 63.6305 66.5327 31.6989
385 1 61.9349 66.6205 28.4756
384 1 61.8974 65.8219 29.0473
386 1 62.6775 66.6192 29.2269
276 1 63.0285 66.9127 31.0162
387 1 62.7608 66.0673 29.9777
261 1 64.5523 67.046 28.6707
280 1 63.0582 67.5498 29.5054
277 1 63.926 67.3825 30.915
279 1 64.0468 67.1236 29.7787
390 1 62.9201 64.2763 28.9821
388 1 62.103 65.3189 29.9504
389 1 62.1752 64.7824 29.1868
376 1 74.0979 73.2311 40.5243
380 1 75.2248 72.1615 40.3615
212 1 76.1288 70.3351 43.3103
140 1 73.445 73.622 44.0005
361 1 75.8347 73.0577 41.7925
363 1 76.9 72.6181 42.8412
362 1 76.5962 72.3931 42.0108
377 1 73.4114 72.5309 40.2562
378 1 73.8654 72.2217 40.9633
214 1 76.2851 69.4603 43.9622
215 1 77.2295 70.074 44.0508
203 1 77.3143 70.5473 41.7661
375 1 75.0505 73.4968 40.5688
373 1 74.0159 73.9499 41.6424
379 1 74.911 72.2218 41.2034
211 1 76.0164 70.3571 42.2963
213 1 75.9108 69.3221 43.1045
210 1 76.5072 71.2572 41.9197
204 1 77.4675 70.1909 40.8753
137 1 74.2935 75.3744 45.502
372 1 73.9835 73.234 42.3572
139 1 73.6466 73.6562 44.8771
374 1 74.6141 73.1773 41.4052
371 1 74.8321 73.4464 42.7498
366 1 76.2331 74.1725 43.0741
206 1 78.2959 71.882 41.2776
205 1 78.1213 71.0021 40.8206
135 1 74.2901 75.5796 47.2902
136 1 73.8795 75.1899 46.3763
364 1 77.1149 73.5492 42.8942
125 1 75.3129 75.0213 44.0497
365 1 76.0937 73.2397 43.0295
367 1 76.3362 74.4601 43.9969
132 1 73.23 74.0836 46.2498
131 1 72.6359 73.8759 45.5214
134 1 73.6225 75.212 47.6806
133 1 73.1185 74.3764 47.2664
124 1 75.9663 75.8592 44.058
88 1 76.4294 69.2862 45.3566
219 1 78.545 69.0497 44.9165
202 1 78.0608 70.0314 42.5067
329 1 75.468 70.9831 41.594
330 1 74.6198 71.3215 41.8653
331 1 74.7288 70.8512 42.6472
90 1 75.479 70.136 45.23
328 1 75.6577 71.8315 41.9341
220 1 79.2719 68.4209 45.1263
216 1 78.1482 69.8897 44.1359
217 1 77.8697 69.035 43.7652
218 1 78.0061 68.4028 44.5199
201 1 77.4182 70.5618 43.0254
325 1 73.7966 71.5251 42.6425
326 1 74.1289 72.2414 41.9487
327 1 74.9332 72.4908 42.4527
92 1 74.791 70.6815 44.365
182 1 76.3339 71.3524 42.8656
184 1 75.458 72.6129 43.7532
183 1 75.8343 72.2007 42.885
181 1 76.2886 71.7206 43.7084
478 1 78.618 72.0367 43.8251
479 1 78.978 71.094 43.8838
476 1 79.0204 73.1939 44.1245
477 1 -19.0455 72.3489 43.8357
324 1 74.3717 72.0038 43.3223
323 1 73.9725 71.2232 43.7515
138 1 73.8008 74.6909 44.8944
322 1 73.2354 71.8538 44.0219
500 1 74.5442 73.0144 43.8999
370 1 74.7335 74.2639 43.1058
209 1 77.2349 71.6955 41.1566
208 1 77.5232 71.7523 42.2106
187 1 76.1625 72.4951 45.536
99 1 77.9106 73.0968 43.7324
207 1 78.1985 71.2483 42.1399
98 1 78.0045 72.5799 43.0746
129 1 74.1426 73.2549 45.8698
127 1 75.3082 74.9253 45.8395
369 1 75.3567 73.771 43.5708
126 1 75.3212 74.735 44.9056
123 1 76.8439 75.4587 44.4511
368 1 76.164 73.6321 44.0432
198 1 77.6429 73.7092 44.7487
100 1 77.8319 72.5591 44.5613
130 1 73.0756 73.0548 45.9701
197 1 77.5634 74.3213 43.9799
196 1 77.4331 75.1905 43.5393
195 1 76.7734 75.7344 43.3674
339 1 72.9619 69.5875 47.1397
340 1 72.8304 70.4982 46.9114
338 1 73.2349 69.2986 46.3684
86 1 76.5045 68.4991 44.6359
87 1 75.7998 69.0254 44.7133
343 1 77.5382 69.9309 45.2005
342 1 77.8492 70.8052 44.8752
349 1 78.9502 72.1815 45.7417
332 1 75.1944 70.143 42.927
333 1 74.1649 69.8427 43.3956
91 1 75.2418 69.8391 44.3614
94 1 75.8681 71.1196 44.4825
334 1 73.6201 70.1784 44.116
89 1 76.4207 70.1011 44.9335
345 1 76.7901 70.4555 45.9463
344 1 77.2216 69.5427 46.0426
348 1 78.4829 71.8725 45.0116
495 1 74.278 71.4944 44.6472
494 1 73.4994 70.8722 44.9795
496 1 74.2199 72.035 45.4467
93 1 75.3494 71.078 43.5417
96 1 77.1261 71.8843 44.3754
185 1 75.2677 71.8789 44.0909
95 1 76.7726 71.0192 44.6834
402 1 77.5009 72.4976 46.2832
480 1 -19.2496 71.5796 44.5347
97 1 77.7046 71.9679 43.6115
471 1 77.8406 72.6671 47.9853
475 1 78.7441 73.0321 45.0853
473 1 78.7873 73.041 46.7268
493 1 73.5026 71.3838 45.895
321 1 73.3087 72.1462 44.9796
419 1 74.8588 73.0368 47.2828
497 1 74.9282 72.6013 45.1846
498 1 75.4609 73.43 44.8149
499 1 74.4795 73.9618 44.3545
200 1 76.6713 73.899 44.8595
186 1 76.0295 72.1818 44.6496
403 1 76.8981 72.3377 47.0545
472 1 77.8148 73.0915 47.0951
474 1 78.6673 73.5238 45.8136
128 1 74.5029 74.2252 45.5528
483 1 75.4652 75.1472 46.8972
199 1 76.9459 73.0986 44.3984
404 1 76.8139 72.4477 48.0051
188 1 76.7328 73.3999 45.7854
189 1 77.2108 74.1546 46.1021
193 1 76.5194 76.5596 44.6332
122 1 77.7496 75.3798 44.9832
121 1 77.0505 75.856 45.7016
192 1 76.0042 75.896 45.2462
194 1 77.3248 76.2764 43.9679
84 1 77.061 68.4663 45.6972
85 1 77.241 68.911 44.9306
83 1 76.1494 68.0463 45.4623
341 1 77.8801 71.0036 43.9444
337 1 74.1789 69.1981 46.4602
336 1 74.3692 69.9562 45.7837
335 1 74.1696 70.0388 44.8889
464 1 75.7892 69.9281 46.2817
358 1 78.2146 69.3214 46.3061
351 1 -18.9281 70.4987 46.2795
350 1 79.2119 71.3835 46.0761
353 1 78.776 70.2364 45.8446
492 1 74.0661 70.7317 46.4303
416 1 73.9198 71.1828 47.3932
491 1 74.7083 71.0589 45.5918
490 1 75.2118 71.7107 45.576
489 1 76.0953 71.4894 45.5805
465 1 76.5327 69.4958 46.8277
488 1 75.5304 70.8755 46.1066
346 1 77.7014 70.7302 45.9102
468 1 76.7224 71.3075 47.2301
347 1 78.1609 71.5015 45.7106
352 1 79.1233 69.7975 46.6399
354 1 78.3841 70.7778 46.7109
417 1 74.571 71.6426 46.6354
418 1 74.1517 72.6057 46.6021
485 1 74.8322 73.5625 46.3942
487 1 75.7941 71.728 46.5963
486 1 75.3548 72.6065 46.3728
401 1 77.0599 71.7817 45.7085
466 1 76.2564 70.3979 47.1994
467 1 76.3823 71.0779 48.0976
408 1 76.2902 73.2929 46.8201
470 1 77.8759 71.7442 47.6496
469 1 77.547 71.3334 46.7568
406 1 76.3847 73.6594 48.0161
420 1 74.8671 72.2172 47.4693
484 1 75.3158 74.3258 46.7099
482 1 75.6856 76.0312 46.4055
481 1 75.9268 76.952 45.7143
190 1 76.3252 74.6767 46.2683
407 1 76.1671 74.0689 47.3912
405 1 76.6275 73.0443 48.6734
191 1 76.3308 74.8594 45.3811
414 1 74.0817 69.9923 47.6552
82 1 75.223 68.215 46.1134
81 1 74.795 68.8501 45.4645
463 1 75.1335 69.4436 46.2763
359 1 78.366 68.5085 45.824
360 1 77.8295 68.0887 46.6432
415 1 74.4637 70.7486 47.9882
413 1 74.7886 70.2632 46.9206
412 1 75.1956 70.0438 47.7162
411 1 75.4462 71.0939 47.5309
357 1 77.4351 69.0685 46.911
462 1 75.55 68.9719 47.1535
356 1 77.81 70.0052 46.9969
410 1 75.9417 72.0279 47.6469
355 1 78.7062 70.3939 47.4697
409 1 75.8329 72.8454 47.5788
238 1 58.4251 3.12001 52.2254
461 1 76.2592 68.49 46.5475
226 1 56.7162 1.32185 52.5804
232 1 57.1437 2.09108 53.5712
237 1 58.5372 3.97533 52.6351
227 1 56.0441 1.81727 52.8255
239 1 57.669 2.81513 52.7447
240 1 57.4316 3.44418 51.8425
222 1 55.9243 2.23009 51.7972
224 1 56.7392 3.04333 52.5126
223 1 55.7346 3.31276 52.1718
225 1 56.9883 2.21161 52.1292
230 1 56.296 3.69769 53.3729
229 1 55.7161 2.83798 53.1441
231 1 56.8942 2.99702 53.4504
234 1 58.1309 3.40191 54.6223
233 1 57.7779 2.85559 54.004
235 1 57.5013 4.20739 54.2
236 1 58.2422 3.98387 53.4319
228 1 55.0239 2.08614 53.0319
221 1 56.6609 2.92231 51.438
26 1 71.778 70.8405 57.1743
165 1 67.5329 70.6278 56.1981
22 1 70.5092 69.5065 58.1675
164 1 67.9531 70.7391 56.971
170 1 68.9623 70.7716 57.0637
39 1 71.5689 69.3278 59.9349
40 1 71.1223 68.9268 59.2185
23 1 71.3245 69.8343 57.6299
25 1 71.377 71.4301 57.7769
24 1 70.827 70.5498 57.9976
29 1 73.0791 71.6461 58.4511
167 1 68.2567 71.8013 56.4019
166 1 68.6161 70.9237 56.1077
250 1 69.1335 69.4414 58.097
21 1 70.2344 69.3058 58.992
253 1 70.2362 70.1824 60.0873
174 1 70.0939 71.1174 58.6154
28 1 73.3484 71.3144 57.3478
173 1 69.8886 70.2339 58.399
172 1 70.1673 70.0789 57.2918
27 1 72.3114 71.6738 56.9603
162 1 66.8614 71.822 58.0521
161 1 66.7163 72.4416 58.758
163 1 67.2027 70.8986 57.6556
168 1 69.216 71.7009 56.502
177 1 68.1771 72.0111 58.4886
169 1 69.2298 71.6195 57.3728
175 1 69.136 70.9699 58.1123
171 1 69.9651 70.853 56.7109
38 1 72.4755 69.5812 59.7154
36 1 71.9514 70.4788 59.9793
37 1 72.4183 69.9008 60.6819
249 1 68.3954 70.1477 57.8826
35 1 71.1475 70.2244 59.2307
254 1 70.3923 71.1484 59.5452
33 1 71.9236 70.4486 58.594
32 1 72.8484 70.1299 58.8655
34 1 71.3635 71.2456 58.9159
31 1 73.0385 70.5499 58.0103
30 1 72.2757 71.3326 58.1358
248 1 68.221 69.9866 58.8515
251 1 69.2132 69.7144 58.971
252 1 69.5654 69.564 59.8402
255 1 69.4482 70.7299 59.4351
256 1 69.4325 71.8274 59.4181
244 1 68.6438 71.0063 60.2126
243 1 68.3034 71.9977 60.1356
176 1 68.633 71.3396 59.0162
178 1 67.9334 71.5893 57.6217
257 1 68.8517 72.5199 59.0576
258 1 69.3844 72.0911 58.3211
259 1 70.1508 72.7376 58.6687
260 1 69.8371 73.1314 59.5731
179 1 67.7478 72.6672 57.4848
247 1 68.3294 69.6705 59.8947
246 1 67.9173 70.4513 59.7393
245 1 67.66 71.0766 60.2766
242 1 67.3914 71.9349 59.6446
241 1 67.0009 71.344 59.0418
180 1 68.5329 73.0125 57.9342
51 1 13.3992 40.8124 65.6099
52 1 12.5099 40.5952 65.5877
53 1 12.2472 39.9014 66.3462
58 1 13.7597 37.9947 65.5775
57 1 12.9756 38.2591 64.9979
59 1 13.3717 37.1053 65.3347
47 1 12.7868 40.6703 66.7196
48 1 13.5566 41.2841 66.7857
49 1 14.2558 40.5879 66.8399
56 1 13.8546 38.9244 65.0163
55 1 13.4986 39.7934 64.92
42 1 12.9995 37.9028 66.3955
60 1 12.3636 37.2464 65.3607
44 1 12.6809 39.0217 66.9637
43 1 12.3933 38.1542 67.0874
41 1 12.3357 38.5453 66.0781
50 1 14.2811 41.0709 65.9806
54 1 12.7735 39.5815 65.527
46 1 13.0942 40.254 67.4834
45 1 13.4182 39.6569 66.6233
448 1 62.8588 -3.63903 74.3795
447 1 63.2734 -4.04364 73.4623
451 1 63.5382 -4.81375 75.3227
449 1 63.7193 -3.96453 74.7041
450 1 62.9127 -4.14187 75.3399
453 1 62.8453 -4.75984 74.3598
452 1 63.0682 -5.61315 74.9751
444 1 62.538 -4.16673 72.2598
445 1 63.3857 -4.63051 72.4955
446 1 63.6088 -3.73629 72.5977
458 1 61.934 -4.16506 74.65
443 1 61.8808 -4.22566 71.5407
457 1 61.7456 -5.05666 74.1561
454 1 63.3797 -5.21231 73.7987
455 1 62.5037 -5.2137 73.4095
459 1 62.1978 -4.22402 73.6303
460 1 62.342 -3.51512 73.1054
442 1 62.1256 -5.26282 71.5897
456 1 62.3227 -5.84563 74.3156
441 1 62.0297 -5.67199 72.4063
ITEM: TIMESTEP
17000
ITEM: NUMBER OF ATOMS
500
ITEM: BOX BOUNDS pp pp pp
-2.0782349871220688e+01 8.0782349871220305e+01
-2.0782349871220688e+01 8.0782349871220305e+01
-2.0782349871220688e+01 8.0782349871220305e+01
ITEM: ATOMS id type x y z
68 1 11.001 64.7041 -20.6761
69 1 10.9643 65.7009 -20.3564
67 1 10.104 65.1831 -20.6616
66 1 9.19961 65.5393 -20.5855
65 1 9.15016 65.5145 80.0604
78 1 11.0887 65.214 79.2307
63 1 10.2542 66.5989 80.7566
64 1 9.68448 66.4089 80.0342
62 1 10.737 67.0712 79.9271
73 1 11.1977 67.0843 -20.7592
77 1 10.7188 66.2193 79.4049
70 1 11.9791 65.6561 -20.4715
71 1 11.8488 66.5017 -20.2455
79 1 11.5942 65.1138 80.0385
80 1 12.3105 65.2018 79.3036
72 1 11.4575 66.26 80.3636
74 1 11.7697 67.3543 80.0934
76 1 11.751 66.6977 79.2108
75 1 12.5051 66.7627 79.7309
292 1 36.9802 -12.9735 -11.9671
291 1 37.382 -12.2744 -11.7086
290 1 37.5721 -11.951 -12.6599
281 1 36.6472 -13.2736 -10.8457
294 1 37.5727 -14.0579 -12.1743
284 1 35.3406 -12.8797 -11.235
297 1 36.0928 -15.0484 -12.9326
283 1 36.2756 -12.467 -11.3953
282 1 36.7279 -12.4302 -10.4149
300 1 34.8757 -13.0001 -13.2783
299 1 34.8819 -13.6858 -12.5547
298 1 35.714 -14.0435 -12.9583
289 1 37.6798 -12.5197 -13.455
288 1 36.8362 -13.0136 -13.0857
293 1 37.8304 -13.0997 -12.4325
295 1 36.7362 -14.0667 -12.5621
287 1 36.3673 -12.1321 -12.9137
285 1 35.9076 -13.314 -11.9926
286 1 35.6841 -12.6956 -12.5941
296 1 36.7634 -14.4422 -13.4772
155 1 43.1016 -8.40947 1.43235
146 1 45.3943 -7.99107 0.771877
144 1 43.5609 -7.43751 0.273259
154 1 43.9607 -8.91712 1.39273
145 1 44.466 -7.57334 0.647057
143 1 43.7287 -8.38897 0.483113
150 1 44.5981 -8.96719 0.621971
151 1 44.6364 -9.72111 1.259
152 1 44.1033 -9.84696 0.4334
160 1 43.4058 -7.88758 -0.698891
153 1 43.1544 -9.27318 0.681498
149 1 45.4443 -9.10642 0.74334
142 1 44.4446 -8.31289 -0.316343
158 1 42.8094 -9.47314 -0.962251
157 1 42.7156 -8.71066 -0.328848
159 1 43.4653 -8.7478 -1.19975
156 1 42.6481 -8.14973 0.570184
147 1 45.4297 -7.56843 -0.0690014
148 1 45.5286 -8.62738 -0.186389
141 1 43.9225 -9.13445 -0.197977
428 1 61.7927 -1.83687 3.11383
304 1 62.2301 -0.198218 3.78859
306 1 61.9169 0.916586 3.69128
305 1 61.7337 0.183791 2.97115
303 1 62.4648 -0.690549 2.84035
314 1 63.5527 0.958423 2.982
315 1 62.4667 1.04569 2.87941
319 1 62.6756 0.224069 2.26485
421 1 61.3494 -3.30881 3.88848
422 1 61.8649 -3.60497 4.68175
424 1 62.292 -1.83532 4.72293
432 1 60.4954 -1.42777 4.08982
427 1 62.4815 -2.26424 3.39439
426 1 62.4721 -1.24268 3.77641
423 1 62.1673 -2.66868 4.39639
430 1 60.9238 -0.598351 3.37544
429 1 61.4824 -0.898218 2.66193
425 1 63.0837 -1.85522 4.24487
307 1 61.9386 0.729716 4.70085
431 1 60.7868 -1.62726 3.17287
302 1 63.2624 -1.28082 3.09396
313 1 63.9709 0.347333 3.65948
308 1 62.7652 0.447312 4.88229
301 1 63.8596 -0.891997 3.59398
312 1 62.9231 0.650867 3.82474
316 1 62.1634 1.68352 2.32265
317 1 63.1522 1.55692 2.05299
318 1 62.63 0.88541 1.63484
320 1 63.5462 -0.237123 2.78678
434 1 61.114 -2.35463 4.47721
435 1 61.7166 -2.5454 5.3991
437 1 62.498 -2.65575 6.05417
436 1 62.2156 -1.83625 5.82275
440 1 64.0195 -3.3108 4.82309
439 1 63.341 -2.90762 4.18845
433 1 61.5143 -1.6221 4.09267
438 1 63.1245 -2.45942 5.24859
309 1 62.8285 1.57998 4.75381
310 1 63.6382 1.07837 5.08554
311 1 63.6496 1.25878 4.19951
108 1 26.7651 68.8527 11.75
107 1 27.2791 68.0981 12.2533
106 1 27.836 69.0102 12.1267
111 1 26.8839 69.6074 10.6214
110 1 26.0715 69.6015 11.1174
109 1 26.2191 68.6394 10.9627
118 1 26.6968 67.7404 11.252
119 1 26.3036 67.7553 10.306
120 1 26.4108 67.2442 9.49808
105 1 27.9989 68.6905 11.2164
104 1 27.2365 68.5399 10.6166
113 1 26.0745 68.2584 9.40468
102 1 27.1315 69.9929 9.45103
114 1 26.9501 68.0061 9.07137
112 1 26.2727 69.147 9.93806
117 1 27.6077 67.5341 11.0259
103 1 27.2618 69.0607 9.80767
116 1 27.0756 66.9281 10.4228
115 1 27.3594 67.7141 9.92991
101 1 27.7884 69.8116 8.87409
20 1 -18.7788 10.4976 22.7259
16 1 -17.1967 12.7826 22.889
9 1 -16.8901 11.3228 22.5948
19 1 -18.1562 11.3792 22.3707
18 1 -17.7902 11.8686 21.5598
15 1 -17.6257 11.8493 23.29
11 1 -16.0898 11.0382 23.1874
14 1 -18.2404 11.0564 23.6368
13 1 -17.428 11.2425 24.2025
7 1 -16.1357 12.1193 21.6151
6 1 -17.0987 12.6409 21.4756
17 1 -17.9685 12.6709 22.2564
1 1 -16.5765 13.7877 22.9862
2 1 -16.1489 12.9647 23.214
3 1 -16.0119 13.1963 22.1749
8 1 -16.4306 12.1891 22.5225
5 1 -17.1224 13.5087 21.4797
10 1 -16.9565 10.7538 23.4456
12 1 -16.6844 11.7653 23.7554
4 1 -16.1942 13.3995 21.261
400 1 67.87 66.0582 29.6013
399 1 67.5984 66.6119 28.7737
393 1 66.5777 65.2075 30.3882
392 1 66.2056 64.3929 30.1624
391 1 65.423 64.3332 30.9529
394 1 66.7004 65.5056 29.4315
381 1 65.6734 66.0261 28.4725
385 1 63.8356 66.2351 29.037
382 1 65.3063 65.2479 28.129
265 1 65.7606 67.492 28.5418
264 1 65.5484 68.5471 28.664
396 1 66.8073 67.3115 29.2354
397 1 66.9744 67.4654 28.4177
266 1 65.7983 67.6801 29.6579
398 1 66.7446 66.5752 28.3243
263 1 66.6315 68.3566 28.5752
389 1 65.4003 66.3765 30.7728
268 1 65.6064 65.8178 29.8716
267 1 65.3616 66.8123 29.6763
390 1 65.4158 65.4199 31.1512
395 1 66.3949 66.4913 29.3393
384 1 64.7456 66.0435 28.8753
388 1 64.6511 65.8297 30.2773
383 1 65.1022 65.2086 29.016
387 1 63.9388 66.0404 30.8293
270 1 66.0409 67.2688 30.9788
271 1 65.5915 67.977 31.4582
386 1 63.8679 66.5357 29.996
280 1 64.8971 66.8379 28.0372
262 1 66.7023 68.3785 29.5173
261 1 66.4592 68.1322 30.4073
279 1 64.2822 67.6908 28.0214
269 1 66.5359 66.4108 30.3053
273 1 64.1025 67.1305 30.9312
272 1 65.0189 67.7403 30.7701
276 1 63.4411 67.2971 29.1369
278 1 64.632 68.01 28.8686
277 1 64.4806 67.1759 29.2408
275 1 63.5019 68.1789 29.7826
274 1 64.0302 67.5374 30.3031
204 1 80.5828 71.2623 42.5603
380 1 77.6076 75.3154 41.5877
209 1 79.0092 71.6931 43.1007
205 1 80.2534 70.7881 41.7553
377 1 76.1861 74.921 41.3336
376 1 75.5101 74.362 41.7543
378 1 76.3721 75.1305 40.4408
375 1 76.1419 73.6799 41.8018
379 1 77.3895 75.5191 40.5758
331 1 76.0664 71.8259 43.7306
211 1 78.4801 72.6892 42.1588
203 1 80.724 72.1051 43.0916
202 1 80.2181 72.8526 43.502
330 1 75.4744 71.3016 43.3067
325 1 75.1719 73.9367 44.8589
326 1 75.1631 73.3015 44.2089
329 1 75.4028 71.9229 42.6316
328 1 75.1589 72.2717 43.513
210 1 78.5876 72.6366 43.0896
208 1 79.6759 72.3892 42.7892
206 1 79.3873 71.1079 41.7795
207 1 79.2552 72.0713 41.8593
372 1 75.0308 74.6961 42.6146
374 1 75.6062 73.5424 42.5511
327 1 74.4936 72.5208 43.9963
361 1 77.4056 74.325 41.787
362 1 77.6106 73.6187 42.4712
373 1 75.8429 74.4658 42.8633
214 1 78.4618 70.7767 42.266
213 1 77.5144 71.2174 42.7293
217 1 80.2255 70.5237 43.4232
333 1 75.0924 72.0554 44.5982
212 1 78.3066 71.7756 42.4352
332 1 76.0087 72.1866 44.5764
215 1 79.0567 70.4904 42.9075
201 1 -20.7743 73.812 43.521
322 1 73.7769 73.3831 44.8232
324 1 75.038 74.4949 44.0341
323 1 74.2778 73.8057 44.2231
182 1 77.0785 74.3763 43.3403
183 1 77.7683 75.2034 43.5468
181 1 76.5556 73.6581 42.7986
93 1 76.6258 72.8212 45.2916
97 1 78.4973 74.4632 44.3741
478 1 -20.5586 72.8298 45.8313
479 1 -20.5937 72.1466 45.0396
341 1 78.93 72.9222 43.9995
477 1 80.514 73.129 45.0855
140 1 73.5359 76.2124 47.8287
371 1 75.4045 75.3514 43.1547
500 1 74.2311 74.6558 44.9965
365 1 78.5348 75.9074 43.6316
184 1 77.185 74.9309 44.3048
368 1 77.2438 76.2688 44.3948
363 1 77.94 74.592 42.7858
364 1 78.3355 75.5674 42.7367
99 1 79.014 74.397 43.3377
98 1 78.2263 73.9014 43.6229
370 1 76.0312 75.1634 43.8766
366 1 78.7504 76.477 44.4344
125 1 77.885 74.6893 45.3834
367 1 77.8234 76.7837 44.1465
369 1 76.3896 75.9676 43.9253
197 1 79.5006 75.9454 46.455
124 1 78.121 75.191 46.2489
196 1 78.6793 75.9963 45.9171
195 1 77.8134 76.1001 46.1542
194 1 77.9135 76.2038 45.1571
83 1 77.7664 69.2168 44.8899
81 1 76.5074 69.9339 45.2259
88 1 77.2579 71.2911 44.0827
87 1 77.6989 70.3977 43.544
86 1 78.2761 69.8991 44.2325
85 1 78.9124 69.2256 44.2363
219 1 79.6834 72.0995 44.0231
220 1 78.9065 71.8179 44.6082
218 1 79.5848 71.1709 43.8043
334 1 74.8896 71.8924 45.5191
92 1 76.2541 71.8875 45.5726
335 1 74.0199 72.095 45.1118
90 1 77.637 71.7358 45.0228
91 1 76.8157 71.1286 45.1477
89 1 77.0222 72.1746 44.277
343 1 78.4033 71.2149 43.8287
342 1 78.1813 72.088 43.8513
216 1 79.5759 69.807 43.5134
480 1 80.7414 71.3026 44.6999
494 1 74.8871 73.6072 45.938
321 1 73.8313 73.8046 45.746
495 1 74.4533 72.9506 45.492
496 1 75.4641 72.8809 45.2657
94 1 76.2046 73.1052 44.296
185 1 76.2588 74.2992 44.3304
186 1 76.5643 73.8052 45.1198
96 1 77.7403 73.9325 44.502
95 1 77.1665 73.3473 43.8009
348 1 78.7186 72.6523 45.6955
139 1 74.2958 76.3224 47.2737
497 1 75.8178 73.3925 45.9219
498 1 75.6651 74.4026 45.6911
198 1 79.6387 75.4082 45.6423
100 1 79.4495 75.3796 43.3992
199 1 79.891 75.6276 44.7396
476 1 80.4751 73.9086 44.6401
475 1 79.459 74.2881 44.6065
138 1 74.9739 75.461 47.5037
499 1 74.9425 74.9293 45.3391
126 1 77.0465 75.2449 45.5797
191 1 77.1321 75.0697 46.8458
200 1 79.0001 75.4291 44.6315
192 1 76.9586 76.0907 46.7492
123 1 78.5032 75.412 47.2408
122 1 78.0455 76.2237 47.136
193 1 76.9478 76.369 45.6633
338 1 73.7799 72.9661 46.8298
337 1 73.2974 72.1441 46.3499
82 1 77.2583 70.0677 44.6293
461 1 77.7181 70.4882 45.5511
84 1 78.581 69.6131 45.2132
360 1 78.679 68.2173 46.314
358 1 78.2857 69.9283 46.213
359 1 77.9859 68.994 46.3086
351 1 79.911 72.1426 45.2394
340 1 73.2844 72.2333 48.184
336 1 73.1005 72.4331 45.4298
492 1 75.1751 72.6212 46.3688
464 1 76.8324 70.5963 46.1484
463 1 76.6175 69.6413 46.4683
345 1 78.026 70.8086 44.5903
344 1 78.9743 70.6247 44.4045
465 1 77.2102 71.6426 46.1043
346 1 78.6408 70.9735 45.2503
353 1 80.0943 71.0773 45.7668
352 1 80.5478 71.8937 46.0032
354 1 80.0683 70.6151 46.6692
493 1 74.8019 73.5272 46.8688
491 1 76.0483 72.9026 46.8167
417 1 75.2741 73.2535 47.8468
490 1 77.0175 72.7132 46.4097
489 1 77.646 72.6331 45.771
488 1 78.0606 72.9451 46.6562
487 1 77.5833 73.0391 47.3475
401 1 79.0116 74.599 48.1105
469 1 79.624 72.3904 46.9066
349 1 78.4247 73.2344 44.9214
350 1 79.43 72.9717 44.9627
347 1 79.1393 71.6613 45.8369
130 1 74.0646 75.1194 47.122
129 1 74.6736 75.563 46.5075
418 1 75.2999 73.2061 48.7304
485 1 76.9869 73.9167 46.9203
187 1 76.7544 74.27 45.8564
486 1 77.0765 73.7594 47.8936
408 1 77.6151 73.1198 48.371
402 1 78.7595 73.6761 47.9405
188 1 77.6857 73.8222 45.8264
473 1 79.0191 74.4492 46.4734
474 1 78.9542 74.2049 45.451
132 1 74.6732 74.3059 47.4863
131 1 74.3179 74.3937 46.6268
128 1 75.4322 74.9266 46.6029
127 1 76.2623 75.2607 46.0875
484 1 76.0444 73.9398 46.7728
190 1 77.8909 74.3485 47.2686
189 1 77.9932 73.9514 46.5281
137 1 74.5516 75.61 48.1431
136 1 74.0582 74.8103 48.5845
482 1 75.5695 74.3272 47.8418
121 1 77.6056 75.5817 47.6789
481 1 75.2009 74.661 48.7301
462 1 77.2514 69.7474 45.8291
357 1 78.9701 70.6546 46.4614
339 1 72.9629 72.6059 47.4444
414 1 75.4517 71.2381 46.851
415 1 75.1807 72.1671 47.4109
413 1 76.3143 71.4023 46.4807
466 1 78.0079 71.3204 46.5416
412 1 76.583 70.7674 47.27
356 1 79.3949 69.8656 46.2066
355 1 80.3663 69.878 46.113
416 1 75.8687 72.4328 47.8847
420 1 74.1902 72.9586 47.8246
467 1 77.8205 71.8998 47.2719
411 1 76.416 71.3399 47.9318
410 1 76.6859 72.0853 47.3755
468 1 78.7009 71.9746 46.9733
470 1 79.6346 72.8691 46.0423
419 1 74.4913 73.7414 48.4682
409 1 77.2297 72.286 48.0708
471 1 78.9549 73.4665 46.2251
403 1 78.748 73.1884 48.7744
472 1 79.8173 73.9275 45.994
404 1 78.723 73.8591 49.5845
133 1 73.7453 73.8179 47.4752
406 1 78.2054 74.9155 48.6911
407 1 77.9651 73.9279 48.6997
134 1 73.1398 73.5357 48.2157
135 1 73.1331 74.4185 48.3116
483 1 76.1701 74.756 47.3589
405 1 79.0496 74.6819 49.2258
222 1 55.9708 2.01217 52.8333
224 1 57.0871 2.20006 53.3116
221 1 55.6264 2.03806 51.9625
225 1 57.4114 3.09577 53.8966
238 1 59.2648 2.1724 56.2747
223 1 56.4894 2.75834 52.6829
240 1 59.4439 2.70819 54.4119
226 1 57.6004 2.15475 54.2248
228 1 59.0347 2.16608 53.2542
227 1 58.2466 2.32436 53.6909
229 1 58.8313 1.43717 53.9678
232 1 58.7391 1.96055 54.9388
239 1 59.7602 2.42657 55.4259
231 1 59.3801 1.40376 55.469
230 1 59.462 0.866678 54.556
237 1 58.4041 1.94839 56.2498
236 1 57.86 2.61653 55.7631
233 1 58.2607 2.83887 54.6343
234 1 58.8046 2.99854 55.36
235 1 58.3666 3.36743 56.1728
165 1 70.1737 71.7423 56.808
171 1 71.9233 71.5508 57.5002
167 1 70.5277 72.9588 57.8955
166 1 69.9576 72.6436 57.1839
168 1 71.2588 73.4442 57.4496
250 1 70.716 70.6261 60.3975
164 1 69.2063 71.701 57.0906
170 1 70.9956 71.9314 57.5981
249 1 70.7136 70.2982 61.4102
22 1 73.9076 71.29 59.5328
24 1 72.9385 71.4533 58.7798
172 1 71.8269 70.6174 57.722
26 1 73.7851 72.0082 57.7676
23 1 73.0012 70.8612 59.4513
31 1 72.3637 73.6718 59.0383
162 1 70.1776 70.6144 56.9328
163 1 69.2081 70.6621 57.3091
178 1 68.8192 71.6892 58.0006
169 1 71.6418 72.5993 57.3973
175 1 70.0546 69.9126 58.9345
25 1 73.7985 71.1593 58.3035
30 1 72.2445 73.7842 58.0599
28 1 72.5229 72.6765 56.7472
27 1 73.2025 71.9949 56.9984
179 1 68.9438 72.6981 57.8462
180 1 68.3929 73.5699 57.9247
21 1 74.1124 70.39 59.8827
40 1 72.6345 71.683 61.2201
248 1 71.0791 71.1678 61.3525
251 1 71.0558 70.9451 59.5201
173 1 71.7332 70.1871 58.5786
255 1 71.8294 71.0642 60.4185
35 1 71.0638 72.4017 58.7245
33 1 72.3754 72.2624 58.0678
32 1 72.9196 72.9515 58.6597
241 1 68.1677 70.6364 57.9147
177 1 68.9888 71.3179 58.9376
256 1 71.4567 71.962 60.1009
176 1 69.5504 70.6892 58.71
258 1 69.853 71.7249 59.154
174 1 71.0253 69.9846 59.1779
254 1 71.7368 70.2237 60.6773
34 1 71.5794 71.7249 58.4657
29 1 72.3241 73.4625 57.0337
161 1 71.1641 71.1116 56.919
257 1 70.5611 71.8933 59.8245
259 1 69.6697 72.706 58.8326
260 1 69.8541 71.9937 58.0483
39 1 72.7761 71.7798 60.2561
246 1 69.8302 71.1772 60.0223
247 1 69.987 71.0978 61.1079
253 1 72.1403 70.3598 59.6878
252 1 72.0406 71.2234 59.3425
36 1 71.7673 72.9857 58.3734
38 1 72.4292 72.8835 60.1887
37 1 72.0894 72.4341 59.1729
245 1 69.3553 71.9738 60.1429
242 1 68.0734 71.2292 58.5675
244 1 68.9451 72.3689 59.3833
243 1 68.147 72.2365 58.9555
57 1 13.0384 40.6496 66.6892
56 1 12.7914 40.1938 67.5886
55 1 12.649 39.3931 66.9247
42 1 13.9323 40.7838 66.0907
60 1 13.0828 42.0054 67.378
58 1 13.7537 40.7812 67.3282
59 1 14.1071 41.6461 67.0891
41 1 13.3632 41.5998 66.3373
54 1 13.2336 39.2494 67.4772
52 1 14.0211 38.7483 66.8214
53 1 13.2189 38.3814 67.0103
51 1 14.2748 37.8973 67.298
50 1 14.0322 38.4627 68.0937
43 1 13.7028 39.8146 66.5142
44 1 14.6147 40.0085 67.0863
45 1 14.0081 39.943 67.8078
47 1 13.5247 38.9109 69.0648
46 1 13.4231 39.9347 68.7418
49 1 15.0202 38.9171 68.1007
48 1 14.4132 39.2888 68.7064
442 1 66.4862 -3.9109 75.2893
443 1 67.0213 -4.15594 76.012
441 1 65.7822 -4.28758 75.718
459 1 64.8588 -5.05621 75.4676
447 1 66.4195 -4.88556 73.1962
444 1 66.5438 -4.99536 76.0539
445 1 67.0631 -5.02567 75.0883
455 1 65.293 -4.4333 74.5163
460 1 65.7931 -5.24906 75.186
446 1 66.3762 -4.98643 74.2426
456 1 64.4521 -4.39458 73.9259
452 1 64.7134 -6.06709 73.5653
454 1 65.4231 -5.05661 73.7819
458 1 64.7464 -5.42315 74.5006
457 1 63.9918 -4.76693 74.5952
449 1 65.8204 -6.49445 73.0655
453 1 65.598 -6.01365 73.9576
448 1 65.7632 -5.55142 72.7463
451 1 64.9457 -6.81883 74.0628
450 1 65.1149 -7.14535 73.0772
61 1 10.6316 67.8448 80.4725
ITEM: TIMESTEP
18000
ITEM: NUMBER OF ATOMS
500
ITEM: BOX BOUNDS pp pp pp
-2.2468665573886909e+01 8.2468665573886852e+01
-2.2468665573886909e+01 8.2468665573886852e+01
-2.2468665573886909e+01 8.2468665573886852e+01
ITEM: ATOMS id type x y z
67 1 11.9977 67.1936 82.0974
68 1 11.3569 67.6882 81.424
66 1 11.3625 67.6368 -22.1347
69 1 10.463 67.4592 80.9682
70 1 11.0727 66.8343 80.3379
71 1 11.4546 67.2174 79.4016
73 1 11.4161 68.2566 80.29
297 1 37.3208 -13.4383 -13.625
298 1 36.7107 -12.8237 -14.2475
295 1 37.4616 -15.2918 -13.2389
296 1 37.0042 -14.4184 -13.2692
300 1 37.7602 -12.5612 -14.5854
299 1 37.4282 -12.3078 -13.6275
288 1 36.1225 -15.3572 -12.7965
286 1 36.0426 -14.1136 -12.4491
289 1 35.2073 -15.6726 -13.0422
293 1 36.456 -14.8848 -14.8224
287 1 35.3732 -14.6264 -12.8691
290 1 34.9105 -15.2317 -13.7268
294 1 36.8114 -15.1823 -14.0333
284 1 36.627 -13.8371 -14.285
292 1 35.768 -14.6283 -14.1135
283 1 37.4344 -14.359 -14.4487
285 1 36.1691 -13.5948 -13.3176
291 1 35.8076 -15.5843 -14.0568
281 1 37.884 -14.9389 -15.321
282 1 37.1335 -14.3828 -15.4798
159 1 46.4906 -9.16187 0.94176
158 1 46.8272 -9.67822 0.213913
157 1 46.7446 -10.6511 -0.0388857
141 1 45.8234 -10.1356 0.85537
142 1 45.6574 -9.80302 -0.0289434
148 1 44.5989 -9.73465 -0.173729
144 1 46.275 -9.24271 -1.24178
160 1 47.2119 -8.66802 0.403955
147 1 45.1104 -9.42762 -0.82806
152 1 44.8491 -11.4825 -0.287047
151 1 44.8926 -10.7668 0.327319
156 1 46.921 -10.0618 -0.76316
155 1 46.0485 -10.3258 -1.13045
154 1 45.0964 -10.5507 -0.72512
143 1 46.0311 -8.80319 -0.364312
153 1 44.466 -11.1721 -1.14499
150 1 43.9371 -10.4615 0.177501
149 1 44.0202 -10.201 -0.804467
146 1 44.5391 -9.39328 -1.54883
145 1 45.438 -9.09593 -1.85596
318 1 61.5929 -1.47234 1.97042
431 1 62.1979 -0.752684 4.28216
428 1 61.8742 -2.19238 3.4883
302 1 63.7453 0.543193 2.19377
305 1 62.6118 -1.19998 2.39102
429 1 61.7193 -1.19309 3.34453
303 1 64.0498 -0.439495 2.51253
319 1 62.2445 -1.88363 1.41176
320 1 62.878 -1.12107 1.3967
316 1 60.7229 0.0838529 1.92582
314 1 61.348 1.03019 2.39854
315 1 61.162 0.220705 2.8761
317 1 61.1726 -0.660731 2.15698
421 1 62.1969 -1.83983 4.47556
423 1 62.7977 -2.74418 4.21393
439 1 63.9726 -3.64889 4.38611
432 1 62.5596 -0.279108 5.05039
434 1 63.1706 -2.07997 5.15653
433 1 62.8573 -1.15485 5.20152
427 1 62.6894 -2.2072 2.95822
426 1 63.4756 -1.77661 3.54479
425 1 63.8817 -2.01804 4.48313
430 1 61.4366 -0.303386 3.74282
304 1 63.0636 -0.437777 2.29663
313 1 61.8311 0.354982 1.82882
301 1 63.4457 0.22738 3.08197
306 1 62.0669 -0.465454 2.80936
312 1 62.3756 0.639053 2.59283
311 1 62.4141 0.245793 3.48935
422 1 61.8535 -2.6957 4.56211
435 1 62.4538 -2.43341 5.757
438 1 63.598 -3.93256 5.20453
440 1 64.9853 -3.22571 3.9723
424 1 63.6522 -2.78889 4.00203
436 1 62.7446 -3.22556 5.23741
307 1 63.0236 -0.759299 3.34656
308 1 63.2649 -0.174563 4.08231
309 1 63.5014 0.821322 4.58914
310 1 62.632 0.723347 4.27601
437 1 63.7275 -2.99237 5.1411
120 1 26.6984 69.0672 10.1775
114 1 25.1101 70.5176 9.20224
115 1 25.6048 69.6538 8.96478
113 1 25.6779 70.1091 9.98837
112 1 26.4581 70.0236 9.34397
103 1 25.6366 70.1437 7.94795
102 1 26.058 70.9489 8.47976
101 1 26.3885 71.1729 9.37913
118 1 26.6823 69.0194 9.00506
119 1 25.9843 68.8221 9.48747
116 1 25.1292 69.0692 8.37525
117 1 25.9916 68.5491 8.43719
109 1 27.53 69.5689 8.53894
105 1 27.1148 69.3721 7.5819
104 1 26.058 69.3403 7.71379
111 1 26.6123 70.0277 8.30446
110 1 27.3824 70.4431 8.84875
108 1 27.7869 70.1528 7.80657
107 1 27.1673 70.8481 7.63266
106 1 26.839 70.101 7.04641
6 1 -20.5531 11.5011 25.3573
5 1 -20.9529 10.6438 25.1707
4 1 -20.696 10.6626 24.2148
20 1 -22.1145 13.1928 21.9887
19 1 -21.9094 12.3974 21.3565
9 1 -19.9626 12.3032 24.7718
17 1 -20.3286 11.9079 22.2528
16 1 -20.9903 12.1643 22.8731
18 1 -21.1419 12.1095 21.6651
7 1 -20.8433 11.7685 24.5425
8 1 -20.7889 12.7723 24.5487
3 1 -19.9851 11.3533 24.2518
14 1 -19.6213 12.8255 22.7596
13 1 -20.1309 13.6776 23.1618
10 1 -19.2674 12.3731 24.1605
11 1 -19.6912 13.256 23.9419
15 1 -20.6266 12.9893 22.5223
12 1 -20.3789 12.6641 23.5474
2 1 -19.5456 11.48 23.4463
1 1 -20.1177 10.6997 22.9227
382 1 68.4701 66.7174 29.3402
381 1 69.0779 65.8734 29.4287
398 1 68.8877 68.9074 30.1002
280 1 66.8782 66.2742 28.5607
279 1 67.2108 66.6386 29.4405
265 1 67.805 68.7764 30.6661
397 1 68.6479 67.834 29.8717
263 1 66.9606 68.7943 29.8129
383 1 68.0084 66.0856 29.8465
385 1 67.2445 66.3533 30.5855
384 1 68.0246 66.8741 30.4143
386 1 66.4618 66.8496 30.2425
268 1 67.9035 67.7335 30.8934
395 1 69.285 66.6405 31.0047
400 1 68.7127 69.9733 29.5132
399 1 68.4942 69.7639 30.529
394 1 68.9196 65.8337 30.8724
276 1 66.5601 67.4836 28.0195
278 1 67.7328 67.4189 29.323
277 1 67.3304 67.3457 28.5914
266 1 68.5739 68.5856 31.1433
267 1 68.4449 67.9283 31.812
396 1 69.0497 67.5082 30.6282
275 1 65.6304 67.6412 28.2743
264 1 67.9387 68.7443 29.6468
262 1 66.7706 68.9507 30.7621
393 1 68.1126 65.8551 31.2727
392 1 68.0788 66.874 31.6927
391 1 67.2712 66.3432 31.9369
388 1 65.0981 67.2387 31.246
387 1 65.9041 67.4186 30.7507
389 1 65.884 66.6457 31.3913
390 1 66.9478 66.9787 31.3835
269 1 67.3063 67.7561 30.2116
273 1 66.4165 67.3352 29.1249
272 1 65.5504 67.0666 29.5491
274 1 66.2918 68.1899 28.794
270 1 66.3416 67.9882 30.0145
261 1 66.9201 69.948 30.5041
271 1 65.3209 67.8976 29.8919
378 1 77.7032 78.1134 45.2132
379 1 78.6198 77.7326 45.0165
214 1 81.3738 73.8602 42.5682
205 1 82.4094 75.3771 44.6613
329 1 75.1727 72.7259 44.4616
207 1 81.6925 74.9815 43.686
212 1 79.5724 73.8619 42.7113
204 1 82.4103 75.7924 45.6018
206 1 -22.2407 75.2849 43.8326
375 1 77.3603 77.0971 43.0721
374 1 76.6917 77.6357 43.2526
362 1 80.2829 76.0291 42.7431
211 1 78.9279 74.0958 43.2953
372 1 77.106 76.1204 44.6192
377 1 77.6482 78.4049 44.2834
376 1 77.7775 77.5231 44.0035
361 1 81.1119 76.0025 43.1695
380 1 79.1657 78.3255 44.4154
87 1 77.7032 72.537 44.3741
215 1 82.1227 74.0958 43.1269
217 1 81.6231 72.8449 43.9028
216 1 82.2015 73.1029 43.1224
331 1 76.8983 72.1679 44.8932
330 1 76.1771 72.2993 44.1199
328 1 75.0888 72.5065 45.4919
213 1 80.5846 73.9833 43.0952
209 1 80.4077 74.9626 42.6539
343 1 80.4709 72.8842 43.8329
342 1 79.4172 73.0031 43.8011
203 1 82.1258 74.6761 45.4965
219 1 80.7216 74.4329 44.3627
218 1 81.4002 73.7834 43.8197
327 1 75.0697 73.5606 45.607
181 1 77.9794 75.8611 42.6562
95 1 77.0033 75.083 44.0212
210 1 79.3892 74.8341 42.6949
341 1 79.7963 74.054 44.0422
202 1 81.4342 74.1577 45.2124
208 1 81.4378 75.0851 42.5895
324 1 75.5809 75.0986 44.9428
373 1 76.7765 76.8521 44.0488
182 1 78.832 75.5764 43.268
363 1 80.3805 77.0606 42.4738
99 1 80.4092 75.8466 44.7201
98 1 79.8723 75.2161 44.3168
201 1 81.3562 75.0747 44.8435
371 1 76.4588 76.1523 45.3898
370 1 77.6194 76.3403 45.5162
369 1 78.5333 76.5643 44.9703
183 1 78.0623 76.1015 43.9622
365 1 80.9133 77.6099 43.7362
364 1 80.1712 77.0857 43.4124
100 1 81.3591 75.9946 45.1909
83 1 78.9398 71.0734 43.5883
85 1 78.3883 72.1875 43.2895
81 1 78.0326 70.7815 43.8318
82 1 78.5472 70.0277 43.6993
461 1 76.2689 70.5981 45.4181
86 1 77.6418 71.6919 43.719
84 1 79.4251 71.8291 43.1458
345 1 81.032 71.3972 44.682
344 1 80.3859 72.0095 44.1065
479 1 82.1781 74.2156 44.4134
480 1 -21.803 74.2488 44.7732
333 1 76.1636 73.1519 45.8206
334 1 75.7239 73.0806 46.7316
335 1 75.7529 72.1949 46.3101
332 1 76.0798 72.5364 45.2567
88 1 78.4094 73.1108 44.0744
90 1 78.432 72.8713 45.0271
91 1 77.9732 73.2571 45.8619
89 1 78.4818 73.7288 44.7589
220 1 80.5939 73.5057 44.6223
346 1 80.7144 72.0982 45.2606
351 1 80.0781 73.0127 45.764
336 1 75.2169 72.2072 47.0982
322 1 76.6561 75.2068 44.9749
495 1 76.4534 75.1244 46.3048
326 1 75.8488 73.5204 44.8231
496 1 77.0496 74.5381 46.5959
94 1 77.4193 74.4503 44.4991
93 1 77.5693 74.1889 45.3432
349 1 79.8998 74.1037 45.0628
477 1 82.0086 73.1788 44.8634
350 1 80.417 73.7557 45.7016
323 1 75.9434 75.8873 44.452
500 1 76.8848 77.2452 47.5848
499 1 77.1084 76.8721 46.578
325 1 75.9312 74.4263 44.2365
185 1 77.8409 75.2476 45.5
184 1 77.9187 75.4013 44.6681
125 1 78.4349 76.7256 46.4468
186 1 78.7401 75.5228 45.4222
96 1 77.9436 75.0525 43.6912
97 1 78.8219 75.0087 44.2241
474 1 80.72 74.0916 46.9974
476 1 81.4988 72.8892 45.667
475 1 81.0484 73.3136 46.4119
368 1 78.9117 76.7101 44.0579
194 1 78.3845 78.1907 46.9874
366 1 80.5013 76.9014 44.3435
200 1 79.7852 76.6951 45.0692
199 1 79.7548 77.4786 44.9257
367 1 79.6418 76.2406 44.0912
360 1 79.713 70.9983 44.3043
359 1 79.3143 71.9578 44.1413
464 1 77.1841 72.5004 46.1654
463 1 76.8867 71.6764 46.5227
462 1 76.3683 71.6307 45.6245
358 1 78.4903 71.7242 44.4353
357 1 79.1355 71.717 45.2317
354 1 80.0249 71.4495 45.6475
356 1 79.1951 70.7568 45.6325
355 1 80.2862 70.5003 45.8992
337 1 75.1426 73.3367 47.5182
92 1 77.4925 73.3688 45.0458
414 1 76.7674 72.8211 47.4734
413 1 77.6366 72.7779 47.8514
465 1 78.0294 72.2498 46.1051
347 1 79.9896 72.3567 45.0118
466 1 78.9861 72.4639 45.9291
353 1 80.6928 71.3425 46.3774
352 1 80.2297 72.2629 46.397
478 1 -22.1544 73.3859 44.3308
494 1 76.0857 74.5726 47.183
338 1 74.5766 74.1365 47.1798
493 1 76.3577 74.6225 48.2757
497 1 77.22 75.294 47.4302
492 1 76.9875 74.1578 47.6944
491 1 77.367 73.5419 46.9325
490 1 77.8931 74.2299 47.3232
489 1 78.4111 74.3524 46.3214
348 1 79.5378 73.2058 44.7893
488 1 78.9256 74.0139 47.1747
471 1 81.9065 74.9591 46.5393
469 1 80.09 74.7215 46.3728
470 1 81.0186 74.6431 46.0586
321 1 76.4659 74.2958 45.5445
131 1 76.3369 76.0583 46.8823
498 1 77.475 75.9558 46.5578
128 1 78.3041 75.9994 47.3159
484 1 77.715 74.9597 48.2762
191 1 79.2627 76.1792 47.0951
187 1 78.9097 74.6706 45.1776
188 1 79.711 75.2348 45.6173
473 1 81.0891 75.0299 47.1655
189 1 80.4713 75.7586 45.7916
472 1 81.2806 75.6739 46.4174
129 1 77.8178 76.8376 47.788
127 1 78.3291 75.2503 46.8703
195 1 78.1722 77.8919 46.0913
126 1 78.4315 75.9409 46.3774
192 1 79.0179 76.5299 47.8442
193 1 78.5516 77.3225 47.3537
124 1 79.1543 77.2731 45.9853
196 1 78.6626 78.4612 45.6803
197 1 79.0498 79.2285 45.632
198 1 79.6122 78.3778 45.4406
412 1 78.3379 73.4098 47.9727
340 1 75.5076 74.9941 46.3083
415 1 76.1931 73.5257 48.0307
411 1 78.6758 72.7929 47.3049
467 1 79.2712 73.0275 46.4618
410 1 79.4057 72.9172 47.9621
409 1 79.8453 73.8697 47.992
468 1 79.3776 74.0107 46.031
339 1 75.3568 74.0693 46.6797
134 1 75.1933 76.0216 47.9456
420 1 75.2715 74.1731 48.3198
417 1 75.5116 73.2802 49.4436
416 1 75.6892 72.9147 48.5868
487 1 79.4055 74.8984 47.2984
402 1 79.3196 73.3013 51.096
135 1 75.6869 75.698 48.6901
130 1 77.1065 76.2673 47.57
132 1 76.1355 75.4936 47.6934
133 1 75.328 75.1279 47.6359
482 1 78.3134 73.7007 48.9358
483 1 78.5086 74.3808 48.2716
485 1 78.3828 75.8179 48.3152
486 1 79.1885 75.2908 48.2864
190 1 79.5631 76.2468 46.1447
401 1 79.2108 73.27 52.0753
140 1 76.765 74.7993 49.2761
139 1 76.0209 75.1747 49.759
138 1 75.4504 75.9857 50.115
137 1 76.1393 76.2771 49.4236
121 1 80.5628 76.0154 47.1532
123 1 79.8915 77.4872 46.6778
122 1 80.4955 76.7094 46.3798
419 1 75.8314 74.2695 49.0785
418 1 76.4469 73.8044 49.7083
408 1 79.312 73.7455 48.5959
403 1 80.1374 73.8297 51.0727
136 1 75.4176 76.5406 48.8817
481 1 78.1059 74.3137 50.0175
407 1 78.9243 74.5052 49.1835
404 1 80.3252 74.0557 50.108
406 1 79.3685 74.3928 49.9944
405 1 79.6195 73.4371 49.7109
221 1 59.6859 3.51945 56.0704
229 1 60.0497 0.789703 56.762
222 1 59.1132 2.70398 55.7041
223 1 59.7511 2.66061 54.8901
224 1 58.9192 1.92996 54.7165
225 1 58.6481 0.99302 54.6308
228 1 59.9424 0.0879325 55.9454
227 1 59.6875 0.437892 55.1099
230 1 59.1373 1.04505 56.7096
226 1 59.1223 -0.0678423 54.6217
240 1 58.418 0.563654 57.3087
232 1 59.5836 1.50677 55.4947
233 1 60.5179 0.972198 55.9574
234 1 60.7234 1.56818 56.6423
231 1 58.7075 1.77734 56.0253
236 1 60.0535 2.34426 56.1973
238 1 59.6414 1.32789 57.7474
237 1 59.3821 1.99426 57.0404
239 1 58.6092 1.52365 57.723
235 1 60.9525 2.55048 56.7555
28 1 74.2173 74.4887 58.7981
163 1 72.2028 71.4656 57.5833
241 1 70.96 70.3668 59.5824
162 1 73.1609 70.9009 57.3125
172 1 73.3206 71.5691 58.2462
164 1 72.0691 71.9237 58.5334
178 1 70.8621 72.1676 58.9515
165 1 71.9494 71.9899 59.477
260 1 71.6033 72.9895 59.1283
171 1 73.7635 72.1471 57.8204
170 1 72.81 72.4258 57.7416
161 1 73.1241 70.114 57.8559
27 1 75.0108 74.1022 58.634
33 1 73.5602 73.7617 58.2792
26 1 75.6809 73.5876 58.6093
179 1 70.4522 72.159 58.1266
180 1 70.1026 71.3046 58.5939
167 1 72.3628 73.0832 58.379
166 1 72.791 72.5849 59.1707
168 1 71.2782 72.973 58.1866
169 1 71.9069 72.66 57.4592
29 1 74.2309 74.7607 57.9207
30 1 73.1762 74.6369 57.9195
175 1 72.3127 70.772 58.4668
176 1 71.9523 70.6285 59.2051
173 1 72.9081 71.4953 59.1865
174 1 72.9498 70.5656 59.2004
23 1 73.8121 72.9052 58.8709
242 1 71.0994 70.1519 60.5526
177 1 71.3125 71.2379 58.7042
243 1 70.4229 70.8956 60.4505
258 1 71.526 73.9042 60.3199
251 1 72.7668 71.6672 60.8525
34 1 73.2501 74.1934 59.2017
252 1 73.0329 72.3178 60.1556
24 1 74.744 72.8366 58.7546
22 1 74.1969 73.5201 59.5076
25 1 74.93 73.1475 57.88
244 1 70.4878 71.4975 59.643
259 1 71.0385 73.0719 59.7492
35 1 72.6074 74.7872 58.9297
36 1 72.1704 73.8769 59.4046
37 1 72.3477 74.56 59.9649
31 1 73.542 74.0989 57.1521
32 1 73.4389 73.2129 57.3939
250 1 72.4196 70.957 60.0874
254 1 73.9307 73.0537 60.5177
253 1 74.0172 72.4015 59.9847
21 1 75.0183 73.0384 59.9586
245 1 69.5293 71.8107 59.7037
257 1 72.1697 72.9617 60.2293
246 1 69.9412 72.3783 60.4181
255 1 73.1417 73.5922 60.018
256 1 72.8939 73.1394 60.8855
39 1 73.5525 75.649 59.975
38 1 73.2638 74.6582 60.2237
249 1 71.4081 71.2314 60.0988
247 1 70.6607 72.7989 60.7808
248 1 71.4297 72.1863 60.3243
40 1 73.2395 76.318 60.7196
43 1 15.4738 39.6461 68.8546
42 1 15.0871 40.3775 68.306
41 1 15.717 41.1041 68.4801
53 1 14.31 42.2005 68.4114
51 1 13.0762 42.2021 69.522
50 1 13.4259 41.2405 69.219
55 1 13.991 40.853 68.3647
54 1 14.4849 41.4648 69.0404
52 1 13.9708 42.6125 69.4443
57 1 14.1835 39.4781 70.018
56 1 14.0959 40.1708 69.1793
58 1 14.8405 38.9106 69.7264
45 1 13.7124 39.1883 68.696
44 1 14.6748 39.2878 68.3619
60 1 16.127 38.3074 68.5372
59 1 15.2339 38.567 68.8933
47 1 13.1361 40.2353 68.605
48 1 12.6551 40.1959 69.5379
49 1 12.5212 41.0103 68.943
46 1 13.2682 39.538 67.9115
450 1 69.7655 -5.57676 74.5849
452 1 69.6511 -4.61183 76.0047
449 1 69.2121 -6.00433 75.3366
448 1 68.664 -6.64694 76.0801
447 1 68.6678 -7.62985 75.8277
451 1 69.2489 -4.92304 75.2023
458 1 68.6363 -5.61403 76.1543
453 1 69.6847 -5.66319 76.4114
456 1 67.8362 -5.04023 76.847
457 1 67.6424 -5.87304 76.2452
455 1 68.4759 -5.46763 77.4857
446 1 68.561 -7.1436 75.035
454 1 69.1402 -5.03435 77.0526
445 1 69.0035 -6.62124 74.5282
459 1 68.1602 -6.01998 75.3465
442 1 67.5514 -7.00341 73.3309
441 1 68.1208 -7.62018 73.8021
444 1 68.1603 -6.58729 74.2058
460 1 68.4433 -5.53381 74.5641
443 1 67.6383 -6.04061 73.5015
78 1 8.55816 66.8403 79.3532
80 1 8.56677 66.0473 78.3526
76 1 9.55219 67.6252 79.4629
79 1 7.88494 66.3694 78.938
65 1 10.7318 67.2021 82.0683
64 1 11.0361 66.4327 81.5687
63 1 10.0207 66.5864 81.4482
77 1 9.51737 66.6596 79.2986
72 1 12.1445 67.9557 79.6598
62 1 9.55709 67.0099 80.584
61 1 9.08161 67.0246 81.4646
74 1 10.6252 68.1231 79.7139
75 1 9.84036 68.0747 80.26
ITEM: TIMESTEP
19000
ITEM: NUMBER OF ATOMS
500
ITEM: BOX BOUNDS pp pp pp
-2.3825364139805117e+01 8.3825364139805430e+01
-2.3825364139805117e+01 8.3825364139805430e+01
-2.3825364139805117e+01 8.3825364139805430e+01
ITEM: ATOMS id type x y z
290 1 37.5466 -14.6112 -16.9331
296 1 36.9055 -16.5346 -15.4816
297 1 36.0899 -16.2082 -15.9495
295 1 37.314 -15.6423 -15.3507
292 1 37.0076 -15.0458 -16.1943
287 1 36.0313 -14.6212 -16.4059
288 1 36.6106 -14.0262 -16.1676
286 1 35.7764 -15.0977 -15.48
291 1 37.8891 -14.7753 -15.8827
289 1 37.5696 -13.816 -16.3334
282 1 35.7441 -15.5652 -13.9731
298 1 35.8352 -16.1517 -14.9609
284 1 36.6089 -15.424 -14.5576
299 1 35.9956 -16.573 -14.0686
293 1 36.9377 -14.5849 -15.322
285 1 35.9618 -14.6227 -14.6974
294 1 37.6392 -14.9 -14.7335
283 1 36.6934 -15.8032 -13.7073
300 1 35.871 -16.4411 -13.1357
281 1 36.1195 -15.0391 -13.2507
160 1 45.1604 -11.8718 -1.70564
142 1 46.2005 -11.564 -1.34087
159 1 45.9773 -11.7307 -2.41913
143 1 47.1856 -11.8856 -1.49857
157 1 46.757 -10.6198 -1.85813
156 1 46.2145 -9.76995 -1.82433
158 1 45.8355 -10.8215 -2.13263
153 1 46.0695 -11.3832 -0.173472
141 1 46.6403 -12.2751 -0.65575
144 1 48.0156 -11.6828 -0.922903
152 1 47.0049 -11.5457 0.172689
151 1 47.978 -11.3696 0.225236
154 1 46.3136 -10.7393 -0.838259
155 1 46.5795 -9.8102 -0.871767
146 1 47.2391 -10.2747 -0.119835
145 1 47.2752 -11.0243 -0.749325
148 1 48.252 -10.6092 -0.60778
147 1 47.6364 -9.97153 -1.02983
150 1 48.9035 -11.1321 0.549971
149 1 48.4391 -10.2996 0.295906
427 1 62.0935 -2.70698 1.53347
320 1 62.7456 -1.70541 1.39209
302 1 63.0878 -0.395924 1.50341
426 1 62.9727 -2.65282 1.82525
425 1 62.8113 -3.38358 2.535
317 1 60.9012 -1.27934 2.56325
319 1 61.8857 -1.5865 1.88867
428 1 61.6146 -2.41067 2.44248
424 1 63.1438 -2.54856 3.00332
316 1 60.6023 -0.405111 2.61864
318 1 61.4324 -0.739028 1.90711
305 1 61.7861 -0.655227 2.9457
303 1 62.5187 -0.976413 2.2482
301 1 62.4995 0.173543 2.02088
311 1 62.7937 0.783141 3.0121
421 1 62.3399 -3.5431 3.46764
422 1 62.1268 -2.60476 3.28083
304 1 62.5414 -1.38876 3.19759
429 1 61.4685 -1.84377 3.34616
430 1 61.7545 -2.33975 4.25234
423 1 62.9465 -2.35107 3.9145
432 1 63.0152 -1.36023 4.34756
433 1 63.564 -1.42013 3.61041
435 1 64.4707 -2.29848 3.7543
434 1 64.4981 -1.2613 3.98362
315 1 60.9816 -0.255091 3.55387
306 1 62.1292 -0.543701 3.85788
307 1 62.8092 -0.334183 3.12703
308 1 63.7695 -0.512276 3.13246
309 1 63.3765 -0.363223 4.11742
313 1 61.3817 0.587266 3.98596
312 1 61.8876 0.43682 3.17786
310 1 62.7218 0.277665 4.02133
431 1 62.4643 -1.9752 5.00714
436 1 63.9177 -2.40319 4.6064
439 1 64.304 -1.9443 5.84511
438 1 64.8982 -1.25902 5.6964
437 1 64.6689 -2.04544 4.98553
314 1 61.3703 -0.291368 4.57446
109 1 24.2585 70.456 5.78996
111 1 25.1591 71.3209 5.87264
110 1 24.393 71.198 5.18007
440 1 65.0613 -2.20517 6.60104
119 1 26.4615 69.6362 6.98729
106 1 25.5157 70.2219 7.19223
107 1 24.7854 70.7134 6.74187
114 1 26.3886 70.6984 7.04193
113 1 26.7863 70.4911 6.13855
112 1 25.8281 70.4456 6.04166
120 1 27.3054 70.0723 6.99753
108 1 24.1026 71.2962 6.31829
105 1 25.5334 71.2251 7.31187
103 1 25.514 72.0925 6.59005
102 1 26.1504 71.497 6.16859
101 1 26.7359 71.7017 6.91366
117 1 26.1282 70.8303 8.49794
115 1 27.0079 70.9214 7.80545
118 1 26.4301 70.0205 7.88958
104 1 25.749 72.244 7.53151
116 1 26.7333 71.59 8.33247
20 1 -23.2252 9.57868 23.7653
18 1 -23.5556 10.5827 23.9732
12 1 -22.7592 11.3739 24.046
17 1 83.7769 11.5151 23.6857
14 1 -22.9285 11.7529 23.0036
15 1 -23.8089 12.3894 22.9471
13 1 -23.0965 12.3476 23.8303
16 1 83.3073 12.5534 23.7914
2 1 -23.1014 13.9519 23.7972
3 1 83.5123 14.1986 23.7142
19 1 -22.9615 10.2294 24.5719
10 1 83.6267 11.5618 24.7401
11 1 -23.0399 11.731 24.9449
8 1 -23.1921 12.495 25.5624
9 1 83.6758 12.5066 24.8524
1 1 -23.3461 13.2734 24.534
4 1 83.1655 13.69 24.4046
6 1 83.6554 13.3246 25.7159
5 1 83.6045 14.204 25.1594
7 1 83.7858 12.5496 26.2478
271 1 69.1377 67.7531 29.4702
270 1 68.4238 67.4255 29.4328
276 1 70.1477 68.021 29.5607
273 1 69.9581 67.1476 29.8964
272 1 69.7371 67.1178 28.8242
274 1 70.7255 67.1684 29.3069
263 1 67.519 69.4192 29.8203
266 1 67.4247 68.2628 29.7568
398 1 68.4804 68.8387 29.7283
399 1 69.2793 69.196 29.9014
275 1 71.0049 68.2574 29.4423
261 1 67.9218 70.9112 29.9247
262 1 68.2696 69.882 29.9279
280 1 69.5964 66.5073 30.7001
268 1 66.9902 67.4138 30.1265
269 1 67.9664 67.2794 30.3353
397 1 68.7525 68.2254 30.4651
386 1 68.7767 67.4125 31.3301
277 1 70.6638 67.8719 30.5001
279 1 70.5357 66.8652 31.023
278 1 69.9904 67.6316 31.1089
267 1 66.7375 68.2447 30.5473
264 1 67.3936 69.6126 30.8328
265 1 67.732 68.6412 30.6342
395 1 69.6421 68.6155 30.9558
396 1 68.8516 69.0801 31.005
400 1 70.3487 69.1447 30.067
394 1 70.4733 69.0949 31.1689
383 1 69.4881 66.1878 32.2362
382 1 70.4258 66.1821 32.3479
381 1 70.4586 65.4824 31.7577
387 1 68.0431 67.9727 31.5561
385 1 69.4955 67.1509 31.8906
391 1 69.6109 68.2314 32.3021
389 1 68.0461 68.9663 31.5952
388 1 67.1435 68.4407 31.5819
390 1 68.8889 68.5875 31.8806
393 1 69.9738 69.332 31.8811
392 1 70.4482 68.7453 32.6239
384 1 69.6455 66.836 32.9704
213 1 80.9707 75.4781 42.6017
356 1 80.0707 72.0455 44.1178
359 1 79.353 73.4994 43.9309
480 1 -23.2969 75.055 44.1271
84 1 77.3299 74.7923 43.3676
81 1 78.4509 74.2579 43.3094
82 1 78.909 75.1317 43.4693
215 1 80.5209 74.6457 43.6806
216 1 81.4015 74.6597 43.9084
83 1 78.0352 75.5669 43.649
325 1 76.8213 76.6847 43.9486
214 1 80.1484 75.4045 43.0138
212 1 81.202 76.4806 43.1284
209 1 82.0694 76.2166 44.161
211 1 81.0534 75.7819 43.8377
365 1 77.6385 77.6037 44.0421
363 1 79.2002 77.0312 43.7639
208 1 82.1615 77.2499 44.1363
366 1 77.4469 78.6164 43.8077
355 1 80.9917 71.7386 44.7244
354 1 82.0132 72.0455 44.5942
330 1 76.7548 73.8624 44.5125
331 1 77.1235 73.4188 45.3233
358 1 78.8549 72.6142 44.2569
360 1 80.1918 73.3883 44.3573
357 1 79.5982 72.6517 44.815
346 1 80.3751 73.8357 45.4498
345 1 80.7506 72.7991 45.3097
344 1 81.289 72.9361 44.5027
343 1 81.859 73.6373 44.5451
353 1 82.0887 72.863 45.3445
219 1 83.2872 73.5418 45.1723
478 1 -23.7385 75.3032 45.472
479 1 -22.7414 75.1393 44.9652
328 1 76.242 75.2839 45.4505
329 1 76.4011 74.3244 45.4543
85 1 77.7336 74.7681 44.3598
333 1 77.8223 74.6194 45.4899
86 1 78.5747 75.2833 44.5141
90 1 79.474 74.0944 44.7408
91 1 78.5718 74.0763 45.0694
341 1 80.7554 75.0629 44.8104
89 1 79.6822 74.9725 44.481
342 1 81.2598 74.3249 44.9313
217 1 82.2733 74.6541 44.2778
218 1 82.8916 73.9539 44.3794
202 1 82.7563 75.3052 45.3091
326 1 76.4495 76.3417 44.7287
327 1 76.5886 75.3913 44.4268
324 1 77.6848 76.6562 44.5254
338 1 77.4215 75.6106 45.4484
87 1 79.2558 75.9172 44.6863
88 1 80.0884 75.5925 44.2558
97 1 80.1734 76.5411 44.9695
210 1 81.2885 76.3858 44.599
205 1 81.867 76.279 45.4891
206 1 82.7721 76.462 45.2414
373 1 77.9937 77.771 45.1915
323 1 77.2206 77.1375 45.2681
181 1 78.671 76.791 44.8592
182 1 79.0233 77.6125 45.2714
364 1 78.5954 77.6871 44.1757
183 1 80.0201 77.6175 45.3102
362 1 79.705 77.2873 44.4322
98 1 80.9444 76.9992 45.377
99 1 81.8716 77.3495 45.5126
100 1 81.4107 78.1577 45.3609
207 1 82.9217 77.2973 44.6859
367 1 77.9905 79.3178 44.3352
375 1 77.5749 78.6777 45.1571
374 1 78.4854 78.5862 44.7392
369 1 78.6406 79.3325 45.4977
361 1 79.8707 78.3765 44.5726
379 1 77.4291 79.8353 45.457
368 1 78.9817 79.6123 44.6024
380 1 78.2575 80.362 44.8405
462 1 79.1214 71.567 46.6564
461 1 79.9799 71.7595 46.0814
332 1 77.925 73.7845 45.8536
335 1 77.2288 73.8906 46.6648
463 1 79.5429 72.5344 46.7143
466 1 81.1403 72.9666 46.3493
352 1 82.1161 72.625 46.3357
467 1 81.3486 73.6394 46.8512
474 1 83.6401 73.5725 46.9399
477 1 -22.9483 75.2922 45.9205
476 1 -22.5281 74.4337 46.2688
475 1 -23.3303 73.9736 46.2095
473 1 -23.7259 74.5808 46.8791
336 1 76.5082 74.5682 46.5537
334 1 77.6583 74.6974 46.3546
92 1 78.7934 74.7941 45.6879
489 1 79.5554 74.3024 46.1399
490 1 78.6475 74.0937 46.5614
488 1 79.0947 75.0236 46.6677
347 1 80.5349 74.607 45.8702
187 1 79.8205 75.2837 45.7714
468 1 80.5882 73.9674 46.7356
469 1 80.2031 75.0286 46.7627
348 1 81.4397 74.478 46.134
349 1 82.0662 73.9271 45.6814
350 1 82.266 74.2548 46.739
220 1 83.115 74.2552 45.8969
340 1 76.0733 76.5851 46.0965
94 1 77.7217 76.4456 46.0815
339 1 76.8278 76.2046 45.7138
495 1 77.0815 76.3879 46.7976
337 1 76.963 75.3808 46.2645
96 1 79.318 76.5156 45.6545
93 1 78.3681 75.5761 45.8854
186 1 79.5715 75.9303 46.462
492 1 78.2535 75.6775 46.9778
185 1 80.1374 76.5057 46.1646
188 1 80.7208 75.6674 45.7016
189 1 80.7827 75.8585 46.7225
203 1 81.8969 75.3478 45.8159
204 1 81.7897 76.0212 46.5159
201 1 82.9138 75.6298 46.2498
322 1 76.8127 77.5904 46.0941
321 1 77.8078 77.4027 46.2049
95 1 78.7694 76.9537 46.1876
499 1 79.0151 77.8005 46.7158
184 1 80.1953 77.499 46.2998
200 1 81.2852 78.0021 46.8931
124 1 81.3368 76.9854 46.6184
376 1 76.6389 78.8222 45.6376
378 1 77.6496 79.3609 46.2533
377 1 77.3671 78.3946 46.0904
371 1 79.4908 78.3428 45.9705
372 1 78.4774 78.3322 45.9355
370 1 78.9827 79.1975 46.3348
500 1 78.4287 78.5017 46.9697
199 1 81.7226 79.0018 46.8878
465 1 81.2102 72.3439 47.0077
414 1 77.8573 73.1539 47.0785
415 1 77.9463 73.6794 47.8854
417 1 76.909 73.4804 47.9712
413 1 78.3886 72.7379 47.7303
412 1 78.9973 73.5487 47.3606
411 1 79.5171 72.8625 47.9805
464 1 80.3172 72.7511 47.1965
410 1 80.1131 73.7931 48.0202
351 1 82.4495 73.2158 47.223
420 1 76.1558 75.0297 47.4421
419 1 76.279 74.3639 48.1033
418 1 77.1099 74.4235 47.7536
491 1 78.3964 74.7244 47.2858
484 1 78.9792 75.2569 48.3769
407 1 80.8393 75.102 48.1354
406 1 80.0646 74.7854 48.284
470 1 81.2052 74.7941 47.0669
471 1 82.1427 75.2289 47.3404
408 1 81.1938 74.1662 48.087
472 1 82.9924 74.8876 47.2359
494 1 76.5384 76.0251 47.4819
493 1 77.3455 75.3648 47.3078
135 1 77.4069 75.7758 48.2902
487 1 79.425 75.3295 47.4348
486 1 78.9804 76.1642 47.6011
485 1 79.5603 75.9001 48.352
190 1 80.324 75.8723 47.5127
122 1 82.3336 76.458 47.6097
191 1 81.1796 76.0021 47.9161
121 1 83.0629 75.8741 47.2095
496 1 77.7634 76.9066 47.2722
497 1 77.8081 77.4721 48.1054
498 1 78.6059 77.5297 47.6635
126 1 79.534 76.8248 47.115
130 1 79.3798 78.1054 48.0478
127 1 79.9878 77.7072 47.3248
125 1 80.4943 76.8877 47.1028
195 1 80.8646 78.0729 48.027
194 1 80.7889 77.0927 48.0734
128 1 79.7303 77.0635 48.0501
123 1 82.2749 77.2624 47.0534
196 1 80.1629 78.747 48.1215
197 1 80.6557 78.9194 47.3117
198 1 81.5375 78.914 47.8348
416 1 77.5462 73.2197 48.5246
140 1 77.2716 73.881 49.5076
136 1 77.9325 75.1056 48.5472
483 1 79.2142 74.3945 48.7725
482 1 78.2451 74.191 48.9811
403 1 79.3765 74.4982 49.792
409 1 80.552 73.9633 48.9394
405 1 79.7822 75.2337 49.2224
134 1 77.4153 76.4797 48.999
137 1 77.2861 75.4878 49.2676
133 1 78.2066 75.9186 49.0717
193 1 80.6256 76.5702 49.0391
192 1 81.5978 76.468 48.8427
131 1 78.917 77.5063 48.6437
132 1 78.4365 76.7478 48.4299
129 1 80.0296 77.8192 48.609
481 1 78.3535 73.867 49.8632
139 1 77.5861 74.6608 50.1647
402 1 79.3072 74.3222 50.5414
401 1 79.399 75.1529 51.0729
138 1 77.7906 75.5966 50.1338
404 1 78.9401 75.3447 49.8696
227 1 59.9907 0.510022 56.7551
240 1 60.6894 1.92479 55.9613
239 1 60.5158 1.78556 56.8903
228 1 59.4857 -0.0524383 57.22
229 1 58.9736 -0.217838 58.0954
232 1 60.7871 -0.244039 57.9336
233 1 61.2171 -0.714859 57.1192
234 1 61.8961 -0.176202 57.5753
226 1 60.8463 0.84835 56.9449
238 1 60.8241 1.61459 57.693
237 1 60.1233 1.41865 58.3172
225 1 61.6864 1.09473 57.3918
221 1 60.2803 2.97823 57.3299
223 1 61.293 2.63426 57.8296
224 1 61.8808 2.0888 57.3125
222 1 61.346 3.0293 57.0615
242 1 72.035 70.3503 58.316
243 1 72.4449 71.2307 58.009
168 1 72.5879 72.3327 58.3205
169 1 73.48 72.3422 58.0458
161 1 75.8633 72.129 58.2315
170 1 73.28 73.1293 58.1257
34 1 72.5597 73.8368 58.0983
172 1 75.1764 72.9258 57.7842
171 1 74.2094 73.2347 57.7892
33 1 73.3742 74.4224 58.14
30 1 75.337 73.9306 57.9612
29 1 75.3453 74.6048 57.3843
28 1 74.94 75.4235 57.5122
230 1 59.2986 -0.461333 59.061
231 1 60.08 -0.358492 58.5537
235 1 61.6514 0.247279 58.3485
236 1 60.7429 0.620901 58.5029
241 1 72.1737 70.0061 59.128
244 1 72.2718 71.6592 58.9974
180 1 73.2354 71.7862 59.0575
162 1 75.3061 71.4586 58.7209
163 1 74.3685 71.536 58.377
176 1 74.2222 71.5612 59.4584
164 1 74.7265 72.4167 58.5083
167 1 72.8227 72.9004 59.1253
165 1 73.9087 72.8733 59.0098
166 1 73.4824 73.4123 59.6293
174 1 75.3062 72.777 59.5515
173 1 75.0485 73.3967 58.7625
35 1 71.9919 74.2789 58.6023
32 1 73.6532 73.9295 58.731
36 1 72.6576 74.186 59.3171
37 1 72.6231 75.1459 59.2853
31 1 74.4175 74.2343 58.4309
24 1 75.2473 74.6354 59.3632
27 1 74.7715 75.2255 58.5062
21 1 74.0667 75.0324 59.2275
26 1 75.6722 74.9138 58.4881
38 1 73.3355 75.8575 59.1351
39 1 74.0358 76.2871 58.4026
40 1 74.7041 76.3122 59.3326
25 1 75.6277 75.5587 59.1896
245 1 72.0507 72.2241 59.8078
179 1 73.0882 71.2407 59.84
178 1 73.4211 71.3438 60.7465
177 1 73.87 72.0419 60.2251
246 1 72.5244 72.0021 60.608
175 1 74.9468 72.0258 59.8535
260 1 71.8708 72.853 60.9273
259 1 72.5777 73.1913 60.1349
258 1 73.1711 73.2417 60.7884
252 1 74.5209 73.7122 60.9276
253 1 74.4736 73.6085 59.9365
255 1 73.3727 74.9715 60.0833
256 1 73.155 74.2007 60.8203
254 1 74.2521 74.5326 60.0648
23 1 75.4559 75.0372 60.2233
22 1 74.6872 75.4667 59.9129
247 1 72.2058 71.9503 61.4823
248 1 73.1046 72.4263 61.4554
250 1 73.6013 72.9821 62.1644
257 1 72.729 73.6609 61.5203
249 1 74.1525 72.8019 61.3725
251 1 73.9861 73.8655 61.8175
54 1 15.4578 39.5284 68.989
55 1 14.9332 40.2652 69.3413
50 1 16.0849 40.5011 69.5936
45 1 14.971 41.4147 69.2832
53 1 15.3576 39.1897 69.8004
59 1 12.5803 40.9093 71.015
43 1 13.3386 40.8901 70.0825
42 1 13.4241 40.2368 70.728
41 1 14.2346 40.0453 70.1361
57 1 14.3425 41.0958 70.9828
56 1 14.8844 40.9103 70.1768
52 1 15.3698 39.9749 70.3464
48 1 16.9041 41.0839 70.4032
49 1 16.6278 40.2254 70.4751
51 1 15.8559 40.9053 70.516
60 1 12.3429 41.4218 70.1917
44 1 14.0839 41.4148 69.7671
46 1 15.4127 41.9276 69.8975
47 1 16.3582 41.9992 70.109
58 1 13.3742 41.3655 71.2793
453 1 70.7573 -7.92285 75.0773
450 1 72.1946 -7.5613 75.244
448 1 71.3035 -6.97422 74.7578
447 1 71.1284 -5.9809 75.1709
457 1 70.9746 -7.66746 76.7053
455 1 70.2375 -7.10581 75.9945
454 1 69.7804 -7.89238 75.6034
451 1 72.0085 -7.647 76.2885
452 1 71.432 -8.09387 75.7264
456 1 71.2153 -6.98923 75.952
446 1 70.7265 -5.6516 75.9793
444 1 71.8986 -5.57303 75.7767
449 1 72.1908 -6.63631 75.3563
460 1 72.1514 -6.33587 76.5056
443 1 71.5297 -5.02378 76.5049
445 1 71.1759 -4.9547 75.4143
458 1 71.6991 -7.07136 77.0106
442 1 72.1378 -5.50238 77.1652
459 1 71.2055 -6.21283 76.8095
441 1 72.0543 -5.20047 78.2096
77 1 8.40566 67.8916 78.7456
76 1 7.60201 68.2432 79.2783
80 1 9.34579 67.9134 79.572
78 1 8.65402 68.6657 79.0524
73 1 8.91064 66.7657 79.7248
74 1 8.39312 67.5665 79.8288
72 1 9.68839 67.0216 80.3461
66 1 10.8284 67.2889 80.6454
65 1 10.3132 67.9268 80.1767
75 1 7.84854 68.4907 80.1833
79 1 8.94816 68.6793 79.9912
63 1 11.2109 69.4799 80.6324
64 1 10.9095 68.559 80.5483
62 1 12.2395 69.11 80.6362
61 1 13.0839 69.2617 80.2481
70 1 8.61306 68.1483 81.2779
71 1 9.09765 67.3174 81.2673
68 1 10.2616 67.5686 81.6923
67 1 11.0068 66.9375 81.4944
69 1 9.63602 68.3095 81.2111
ITEM: TIMESTEP
20000
ITEM: NUMBER OF ATOMS
500
ITEM: BOX BOUNDS pp pp pp
-2.5274687857367432e+01 8.5274687857367510e+01
-2.5274687857367432e+01 8.5274687857367510e+01
-2.5274687857367432e+01 8.5274687857367510e+01
ITEM: ATOMS id type x y z
290 1 36.3636 -16.213 -13.931
296 1 37.3531 -16.2555 -16.4785
297 1 36.9784 -15.3374 -16.5327
295 1 36.7848 -16.4399 -17.2226
292 1 35.9921 -16.7779 -15.2963
287 1 36.8358 -16.1562 -15.5189
288 1 37.229 -16.9572 -15.1486
286 1 36.163 -15.6309 -15.9623
291 1 36.0024 -15.8419 -14.8199
289 1 37.1728 -16.3324 -14.2587
282 1 36.6083 -16.0406 -18.1331
298 1 37.3583 -15.5537 -17.4519
284 1 35.7052 -16.2851 -17.2401
299 1 37.831 -16.2601 -17.8366
293 1 36.2672 -16.7569 -16.3259
285 1 35.3545 -15.6243 -16.5218
294 1 36.2652 -17.3352 -17.2131
283 1 36.2069 -15.4566 -17.5119
300 1 37.6119 -17.2435 -17.6229
281 1 37.0024 -16.7868 -18.345
160 1 49.3412 -11.2758 0.46888
142 1 47.7813 -11.6151 -0.194116
159 1 49.0798 -11.9239 -0.259051
143 1 47.6483 -11.3782 -1.17321
157 1 48.6153 -10.916 -0.286895
156 1 48.7145 -11.1379 -1.16744
158 1 49.5551 -11.1625 -0.501563
153 1 48.7072 -13.2513 -1.26395
141 1 47.8551 -12.2236 0.528719
144 1 47.2273 -12.2675 -0.818315
152 1 48.0229 -13.5061 -1.92545
151 1 48.8158 -13.0926 -2.34485
154 1 48.2558 -12.3878 -0.982296
155 1 49.2236 -12.057 -1.23541
146 1 48.5687 -12.0181 -2.23102
145 1 47.4883 -12.2335 -1.85454
148 1 48.18 -12.6481 -3.16395
147 1 48.3829 -11.6701 -3.10927
150 1 48.4469 -13.6746 -3.1033
149 1 49.0737 -12.9166 -3.43165
427 1 62.3201 -2.70712 3.13769
320 1 61.354 -0.0857193 2.90183
302 1 63.617 -1.41315 2.0915
426 1 61.9122 -3.51891 3.01638
425 1 62.3595 -3.23862 2.13214
317 1 60.8045 -1.51832 2.95538
319 1 61.4501 -0.457207 3.88015
428 1 62.3841 -3.17266 4.1827
424 1 63.269 -3.17049 2.14381
316 1 61.6112 -2.04656 2.71265
318 1 61.619 -1.0518 3.13201
305 1 62.4897 -1.65623 3.01375
303 1 62.8184 -1.24061 1.72437
301 1 63.7526 -2.28486 1.61772
311 1 62.2556 -0.123675 4.43179
421 1 64.6376 -2.57968 2.38435
422 1 64.182 -3.10686 3.14094
304 1 62.7203 -2.08989 2.14695
429 1 62.4155 -2.27948 4.16938
430 1 62.7182 -1.63514 4.83949
423 1 63.2724 -3.48604 3.01515
432 1 62.6159 -0.995855 3.94162
433 1 63.2904 -1.76323 3.97254
435 1 64.321 -1.7813 3.81803
434 1 63.5266 -1.96708 3.11401
315 1 61.0432 -2.77149 3.07468
306 1 62.5943 -0.722921 2.88897
307 1 62.3413 -0.292089 2.08214
308 1 62.4938 0.378824 2.76734
309 1 62.9137 0.178328 3.66631
313 1 61.0691 -1.67942 4.09705
312 1 61.835 -1.10434 4.52757
310 1 62.0307 0.543647 3.64313
431 1 62.8938 -0.682369 4.96242
436 1 63.9947 -0.885875 4.20087
439 1 64.5176 -1.37153 2.71831
438 1 63.7835 -0.897379 2.99154
437 1 64.2288 -0.0269363 3.56464
314 1 61.4541 -2.68244 3.88623
109 1 25.5623 72.0484 6.21119
111 1 24.9528 72.8865 5.75902
110 1 24.6626 72.4048 6.49879
440 1 65.0238 -0.995063 3.44543
119 1 26.6305 70.7665 5.04894
106 1 26.0582 71.9784 5.22097
107 1 25.9726 72.9452 5.36637
114 1 24.3908 71.4823 4.70248
113 1 24.8254 71.2863 5.68052
112 1 24.312 72.1225 5.49288
120 1 25.8852 70.9368 5.73815
108 1 26.3069 72.7342 6.11863
105 1 25.221 72.2458 4.96967
103 1 24.9848 73.0585 4.2533
102 1 24.0443 72.8143 4.61784
101 1 24.3298 73.6125 5.08194
117 1 25.4568 71.1194 4.7026
115 1 24.8231 72.0368 3.94352
118 1 26.2951 71.4455 4.24637
104 1 25.8299 72.6494 4.28558
116 1 25.3251 71.2303 3.663
20 1 82.9629 13.4045 26.1559
18 1 82.7088 12.5409 25.2551
12 1 82.8875 11.0423 27.1992
17 1 82.5671 12.2973 24.3118
14 1 83.3698 12.2087 26.0808
15 1 82.94 11.4898 25.4916
13 1 82.8724 11.9795 26.8342
16 1 83.2542 11.6763 24.5563
2 1 -24.9797 13.3701 25.0395
3 1 -25.0021 13.5281 23.9799
19 1 82.7252 13.5905 25.3251
10 1 84.0673 11.3553 25.835
11 1 83.4748 11.2091 26.4511
8 1 83.7263 13.1326 25.167
9 1 84.0489 12.1569 25.3109
1 1 84.7692 12.8986 25.6247
4 1 84.7688 13.1923 24.1948
6 1 84.3236 12.4374 23.5387
5 1 84.8785 12.175 24.301
7 1 83.7655 12.5959 24.295
271 1 71.6561 68.6729 30.1553
270 1 70.6582 68.4636 30.5313
276 1 72.1714 67.9186 32.2603
273 1 72.1937 67.3569 30.8783
272 1 72.1898 68.369 30.9592
274 1 72.572 67.0398 31.719
263 1 70.4863 67.4142 29.9473
266 1 70.8174 66.3657 30.6716
398 1 69.7931 70.0896 31.3585
399 1 69.6574 69.3936 30.8856
275 1 73.0157 67.8746 31.5457
261 1 70.7803 68.301 29.4887
262 1 70.3456 67.5561 29.0392
280 1 70.3241 68.9005 31.615
268 1 70.9996 67.4596 31.2325
269 1 71.2728 67.6907 30.5073
397 1 70.6763 69.7414 31.2392
386 1 68.9992 68.0131 31.769
277 1 72.5002 68.8625 32.0551
279 1 71.1906 68.455 31.3394
278 1 71.4868 68.8682 32.2397
267 1 70.2394 67.1101 30.8432
264 1 70.9927 66.7404 29.4593
265 1 71.6723 66.3648 29.9684
395 1 71.5385 70.366 31.4752
396 1 71.42 69.814 30.519
400 1 70.2665 69.6788 30.0276
394 1 71.5044 70.9176 32.2961
383 1 70.3918 68.1062 32.4744
382 1 70.4276 68.8824 32.9937
381 1 69.6305 69.3365 33.2434
387 1 69.3948 68.8718 32.4023
385 1 69.2504 68.1411 30.8554
391 1 70.1957 70.6419 32.7504
389 1 71.0146 69.7534 32.5602
388 1 70.0941 69.7092 32.2557
390 1 70.8247 70.3576 33.375
393 1 71.3116 71.5141 31.5326
392 1 70.5139 70.8523 31.8232
384 1 70.0827 67.8862 31.5319
213 1 81.5904 77.7862 44.888
356 1 81.9197 73.1599 45.203
359 1 81.6152 73.5351 43.6174
480 1 84.8722 76.8668 45.1852
84 1 79.0614 76.6736 45.0696
81 1 78.8723 77.0058 44.0918
82 1 79.5609 76.4147 43.8224
215 1 82.6508 77.8917 43.6359
216 1 82.5029 76.7552 43.8761
83 1 79.5262 75.8583 44.6701
325 1 79.0221 78.9849 46.1234
214 1 81.7007 77.81 44.063
212 1 82.3174 77.8861 45.6199
209 1 84.091 78.0539 45.424
211 1 83.0979 78.3173 45.1274
365 1 80.1012 80.2689 45.9231
363 1 80.4792 79.5975 44.8432
208 1 84.5243 77.7287 46.3043
366 1 79.7844 80.5196 44.9555
355 1 82.1855 73.4605 46.2365
354 1 82.1978 74.3471 45.7722
330 1 78.088 77.4428 45.1771
331 1 78.7821 77.4215 45.7707
358 1 82.5204 72.9038 43.9553
360 1 81.664 74.2595 44.4455
357 1 82.6914 73.5655 44.7588
346 1 81.5597 74.8451 46.7243
345 1 80.9801 75.5378 46.3403
344 1 80.3994 75.716 45.5004
343 1 79.9708 74.9096 45.2931
353 1 83.128 74.5081 45.4963
219 1 81.8515 75.3299 44.2624
478 1 85.1511 75.3216 44.0116
479 1 85.1599 76.1603 44.4364
328 1 77.7861 79.0264 45.7751
329 1 77.6497 78.3766 45.0662
85 1 79.7472 77.278 44.6438
333 1 79.7347 76.9386 45.8139
86 1 79.2749 78.2164 44.3782
90 1 80.6393 77.2975 45.3033
91 1 80.7247 76.573 45.9128
341 1 81.4892 75.0499 45.6561
89 1 80.6938 77.7348 44.3743
342 1 80.7445 74.4216 45.8237
217 1 83.37 76.3967 44.3905
218 1 82.4453 75.9088 44.7919
202 1 82.2948 77.1023 44.8864
326 1 78.8652 78.3476 45.3291
327 1 78.5619 79.2777 45.2679
324 1 79 78.1659 46.6135
338 1 77.4196 77.0391 47.1765
87 1 79.9571 78.5542 44.9818
88 1 80.3107 78.6128 44.184
97 1 81.1146 78.6391 45.0317
210 1 83.4571 77.5492 44.8749
205 1 83.2287 78.1768 46.1146
206 1 83.5142 77.9785 47.0842
373 1 79.5748 79.3891 47.2147
323 1 79.3192 77.2038 46.7949
181 1 80.2597 79.3619 46.3701
182 1 80.0748 78.5173 46.7592
364 1 79.7447 79.5728 45.4325
183 1 80.7562 79.0049 47.367
362 1 81.1348 79.5344 45.5313
98 1 82.0877 78.93 45.3324
99 1 82.2712 79.4705 46.1259
100 1 82.4079 80.4234 46.0867
207 1 84.1686 77.3541 46.9573
367 1 78.9416 80.2161 44.975
375 1 78.1511 80.1091 46.4289
374 1 78.4236 79.5107 47.1204
369 1 79.1967 80.117 46.3258
361 1 81.4021 80.1575 46.4021
379 1 80.2722 81.195 46.1891
368 1 78.8771 80.9255 45.7091
380 1 80.7902 81.0195 45.3474
462 1 81.0108 71.7784 47.1704
461 1 81.4543 71.5732 46.2511
332 1 79.6401 77.8559 45.8533
335 1 78.4501 75.7044 45.8392
463 1 81.5486 72.6794 47.2713
466 1 82.8242 73.1637 48.6612
352 1 83.244 74.3638 46.5041
467 1 82.9807 73.7945 47.6733
474 1 83.8924 76.129 46.9316
477 1 84.5087 75.3881 44.6185
476 1 84.2387 76.1226 44.974
475 1 84.0597 76.3416 46.0552
473 1 84.0697 76.4524 47.9254
336 1 78.1725 76.5648 45.9352
334 1 79.0968 76.2941 46.3159
92 1 80.1417 76.4028 46.7051
489 1 80.6847 74.4111 47.3279
490 1 79.9362 74.635 47.8035
488 1 80.8567 75.3467 47.3731
347 1 82.4305 75.1088 46.8595
187 1 82.0344 76.5182 46.2099
468 1 82.0841 74.2456 47.5493
469 1 82.0814 75.1409 47.999
348 1 82.303 75.5073 45.9221
349 1 82.8743 76.0161 46.4588
350 1 83.485 75.3739 46.0519
220 1 82.6106 74.8003 44.2719
340 1 78.1072 78.0365 46.158
94 1 80.5232 77.6001 47.6495
339 1 77.4641 77.2597 46.1671
495 1 78.5938 75.501 48.022
337 1 78.1754 76.4196 46.8226
96 1 81.002 78.7291 46.0554
93 1 80.4103 77.4603 46.6598
186 1 81.3812 77.4148 46.0632
492 1 78.6651 75.3408 46.7956
185 1 81.922 78.3585 46.4055
188 1 82.1822 76.7183 47.2189
189 1 81.7431 76.3906 47.9861
203 1 82.8578 76.9247 45.583
204 1 82.8698 77.2008 46.4296
201 1 81.3701 76.8084 44.5603
322 1 78.3104 77.5393 47.0345
321 1 77.5272 78.0341 46.9816
95 1 81.1712 78.0955 46.9894
499 1 78.7954 78.9755 48.3502
184 1 81.6278 79.3191 46.9569
200 1 82.652 80.2323 47.7526
124 1 82.2736 77.6684 47.0482
376 1 78.5745 80.8548 46.7184
378 1 79.6157 81.365 46.9861
377 1 78.8257 81.7707 46.6571
371 1 79.9513 80.578 48.0499
372 1 78.9954 80.2435 47.697
370 1 79.8615 80.3599 47.1533
500 1 78.1304 79.7433 48.3517
199 1 82.3435 80.428 48.6914
465 1 82.0415 73.2324 48.135
414 1 79.6434 72.481 46.1908
415 1 80.1944 72.5432 46.8268
417 1 79.0529 72.6234 47.3379
413 1 80.3061 73.0667 45.8705
412 1 81.3133 72.9733 46.0696
411 1 81.1711 73.7814 46.616
464 1 82.3446 72.3971 47.6483
410 1 80.6538 73.3687 47.6331
351 1 83.531 75.1953 46.9342
420 1 79.484 73.6176 47.8582
419 1 78.5644 73.4804 47.4616
418 1 78.6385 72.9986 46.633
491 1 79.4439 75.3874 47.2964
484 1 79.4519 76.501 47.6704
407 1 80.673 75.0287 48.4387
406 1 80.39 76.001 48.493
470 1 82.9929 74.8772 47.7823
471 1 82.8818 75.8928 47.635
408 1 80.5073 74.0969 48.4768
472 1 83.1204 76.2934 48.3628
494 1 78.2328 74.6573 47.6293
493 1 78.5865 74.5234 46.6238
135 1 79.1392 76.5257 50.2008
487 1 81.6084 75.7614 47.2323
486 1 81.2139 76.7882 46.9309
485 1 80.6096 76.5942 47.6911
190 1 82.3301 77.0589 48.4345
122 1 82.8544 77.6961 47.9373
191 1 83.1554 77.1984 49.0172
121 1 83.2539 76.9329 47.4404
496 1 78.1403 76.492 47.8527
497 1 78.7453 77.2811 47.8881
498 1 78.5013 78.2388 47.9386
126 1 81.4316 78.436 48.1251
130 1 79.1815 77.5922 49.3116
127 1 81.0148 77.5559 48.5888
125 1 81.7755 77.6001 47.815
195 1 80.6084 78.6563 49.2229
194 1 81.5293 78.4376 49.1624
128 1 80.3513 78.3998 48.1962
123 1 82.3396 78.4795 47.4824
196 1 80.7359 79.3966 48.5751
197 1 81.6694 79.6248 48.1436
198 1 81.2384 80.5179 48.2475
416 1 79.5478 73.3845 46.845
140 1 79.2552 73.8944 49.2437
136 1 78.5164 75.779 49.7196
483 1 79.4266 75.6041 48.5931
482 1 80.0085 75.3253 49.2502
403 1 81.6553 76.3056 49.8631
409 1 81.0882 73.1493 48.4439
405 1 80.6395 76.1335 49.3614
134 1 79.7995 76.6981 49.3302
137 1 78.6281 74.8634 49.1476
133 1 79.1594 76.6216 48.6455
193 1 82.4988 78.1361 48.7489
192 1 82.2428 77.376 49.4101
131 1 78.345 77.4184 48.9241
132 1 78.2262 76.4875 48.8622
129 1 79.5284 77.7815 48.3785
481 1 79.8059 75.7056 50.1126
139 1 78.7361 73.6344 48.5388
402 1 82.2924 76.0692 49.0046
401 1 81.6544 75.4041 49.186
138 1 79.1969 74.6115 48.4062
404 1 81.4414 76.7512 49.0163
227 1 61.9345 -0.048792 59.6038
240 1 61.6243 0.94404 58.4252
239 1 62.0694 0.863529 59.1901
228 1 61.8322 -0.0511814 58.653
229 1 61.5872 -1.0114 58.5661
232 1 61.3555 -1.01676 59.7351
233 1 60.9737 -0.329792 59.1716
234 1 60.7755 0.542263 58.7049
226 1 62.862 -0.110605 59.7671
238 1 61.2434 0.800011 59.6358
237 1 60.7708 1.05696 60.3683
225 1 63.4394 0.612486 59.3674
221 1 62.4362 1.74014 59.057
223 1 62.9003 1.02012 57.9887
224 1 63.5213 0.326078 58.4285
222 1 63.3248 1.53493 58.5206
242 1 74.1058 72.4922 59.7389
243 1 74.4214 73.0875 60.3807
168 1 75.2001 72.1216 58.8963
169 1 75.6497 72.7588 58.2458
161 1 76.4956 73.0585 60.9576
170 1 75.9167 73.5976 58.4426
34 1 74.651 76.2194 58.5121
172 1 77.3077 74.4302 59.2091
171 1 76.6755 73.6645 59.1041
33 1 74.6428 75.4396 57.8061
30 1 76.1976 74.9487 57.9811
29 1 75.5717 74.3057 57.3944
28 1 75.1692 74.8291 56.6908
230 1 62.4898 -1.06452 58.9344
231 1 62.1549 -1.53175 59.7847
235 1 60.0351 0.405052 59.2545
236 1 60.3053 1.23411 59.5515
241 1 73.4664 72.832 59.095
244 1 74.611 72.8924 61.2932
180 1 76.2156 72.0111 58.9084
162 1 77.142 72.3691 60.5282
163 1 76.7483 72.8941 59.7477
176 1 75.2395 73.611 60.9778
164 1 76.8367 73.9357 60.1279
167 1 74.6302 73.014 58.7589
165 1 75.7959 74.0533 59.6915
166 1 75.0505 73.7077 59.2055
174 1 76.3152 75.2323 60.7453
173 1 76.901 74.918 59.8511
35 1 73.8242 75.7531 58.363
32 1 74.7198 75.2079 58.7181
36 1 73.3421 75.1692 57.7505
37 1 73.1865 74.2175 58.2605
31 1 75.4873 74.5886 58.6705
24 1 75.6814 75.6994 60.1054
27 1 75.4099 75.7565 57.1664
21 1 75.6546 76.6939 59.389
26 1 75.5576 75.7439 58.2113
38 1 72.9488 73.6654 58.9788
39 1 72.7724 74.4762 59.2314
40 1 71.9768 74.2 58.5545
25 1 76.0644 75.3774 59.1624
245 1 74.9118 72.1394 60.6195
179 1 75.8609 72.9132 59.2474
178 1 75.9385 72.1571 59.9459
177 1 75.4123 72.9572 60.257
246 1 75.1311 72.0771 61.536
175 1 75.8615 74.287 60.7417
260 1 73.5359 73.4137 59.9462
259 1 74.3484 74.0797 59.9569
258 1 73.8503 74.2942 59.1923
252 1 74.5594 75.0606 61.828
253 1 75.412 75.2916 61.2408
255 1 73.9109 75.5429 60.6347
256 1 73.7698 75.2504 59.729
254 1 74.8031 75.1132 60.6114
23 1 75.119 74.917 59.6847
22 1 74.9459 75.97 59.4988
247 1 75.9595 72.1152 61.0551
248 1 75.9696 72.964 61.9067
250 1 75.4234 74.3928 61.9123
257 1 73.2737 74.6355 60.1731
249 1 75.4284 73.5757 62.4667
251 1 74.5167 73.9542 61.7165
54 1 14.3415 42.3474 71.5354
55 1 15.0388 41.7782 71.2196
50 1 14.4164 40.5096 71.521
45 1 15.5786 40.845 71.8632
53 1 13.5888 41.8009 71.1315
59 1 17.4639 41.9881 72.113
43 1 16.8263 41.3373 70.9124
42 1 15.9053 41.7891 70.7193
41 1 15.5428 40.9763 70.1186
57 1 15.7369 42.6809 71.55
56 1 15.4411 41.9219 72.1929
52 1 13.9668 41.318 71.9261
48 1 15.2166 39.5217 71.2424
49 1 15.0493 40.384 70.8657
51 1 13.4909 40.6708 71.3015
60 1 17.5351 41.0434 71.8321
44 1 16.1026 40.8915 71.1584
46 1 14.889 40.6991 72.4885
47 1 14.7014 39.7579 72.1862
58 1 16.5577 42.1327 71.6859
453 1 74.057 -5.73819 77.7488
450 1 74.9285 -6.45403 76.4524
448 1 74.4857 -7.4957 77.6604
447 1 75.2368 -8.10164 77.8321
457 1 73.1757 -6.72459 76.043
455 1 73.5088 -6.83359 77.11
454 1 74.5104 -6.46762 77.4018
451 1 74.8228 -5.50781 76.9323
452 1 74.9955 -5.49958 77.7978
456 1 73.7634 -6.11263 76.5294
446 1 75.5598 -8.39005 76.9724
444 1 74.2306 -7.45096 76.2623
449 1 75.2965 -7.11226 77.3276
460 1 73.9409 -8.51448 75.8404
443 1 73.4712 -7.87828 76.6845
445 1 74.6688 -8.28457 76.7422
458 1 73.6089 -6.84686 75.1734
442 1 73.364 -8.86777 76.7411
459 1 73.2533 -7.67133 75.6934
441 1 73.9246 -8.6391 77.587
77 1 7.73786 70.0447 80.0954
76 1 7.81209 69.1679 79.979
80 1 9.40445 70.5174 80.3745
78 1 8.49346 69.5351 80.6697
73 1 9.20027 68.1231 79.9983
74 1 8.39598 68.5073 80.4558
72 1 9.43958 68.6671 80.8514
66 1 10.4632 69.5002 80.6475
65 1 9.90694 69.1202 79.9093
75 1 8.10861 68.2348 79.5738
79 1 9.37277 69.8865 81.1753
63 1 8.49836 68.8593 78.775
64 1 8.89038 69.0951 79.7532
62 1 8.90427 68.7775 77.8336
61 1 8.31101 68.0244 78.0196
70 1 9.61688 68.9739 81.9471
71 1 8.78982 68.7982 81.625
68 1 10.3164 68.0492 81.1889
67 1 10.828 68.6161 80.6382
69 1 10.5651 68.8627 81.7999
ITEM: TIMESTEP
21000
ITEM: NUMBER OF ATOMS
500
ITEM: BOX BOUNDS pp pp pp
-2.7030082558265867e+01 8.7030082558265789e+01
-2.7030082558265867e+01 8.7030082558265789e+01
-2.7030082558265867e+01 8.7030082558265789e+01
ITEM: ATOMS id type x y z
281 1 37.8281 -16.5024 -17.2564
294 1 37.3896 -17.3838 -17.621
300 1 37.2697 -18.6775 -17.9333
295 1 36.5382 -17.9556 -17.8257
282 1 37.1421 -16.8875 -16.6986
284 1 35.7189 -17.0776 -17.4857
283 1 36.18 -16.5413 -16.7758
298 1 36.6173 -18.9203 -17.1447
299 1 36.4451 -19.0782 -18.0872
293 1 36.6042 -16.7312 -17.8444
285 1 35.6218 -16.8403 -18.3889
287 1 36.3312 -18.1947 -18.8123
286 1 36.0593 -17.2405 -19.1474
296 1 35.7417 -18.346 -17.4576
297 1 36.4783 -18.1236 -16.8169
292 1 36.885 -16.6111 -18.7442
288 1 37.0522 -17.6564 -18.8157
291 1 37.2567 -16.7328 -19.7018
289 1 37.8895 -17.1677 -18.9376
290 1 37.7467 -17.6011 -19.7768
148 1 50.0639 -12.1509 -2.7551
150 1 49.2498 -12.4917 -1.64427
149 1 49.6226 -12.9409 -2.42643
147 1 50.1482 -12.0401 -1.81057
152 1 49.7312 -13.6378 -0.501782
153 1 49.6635 -14.1691 -1.24621
151 1 49.8118 -13.1338 -1.24185
145 1 50.6844 -13.3512 -0.506855
155 1 49.3366 -14.7922 -2.22671
146 1 50.7449 -12.4914 -1.08109
142 1 50.6214 -13.531 -3.02225
143 1 50.5957 -13.1865 -2.04153
144 1 50.7408 -13.6677 -1.3452
154 1 49.9615 -13.9888 -2.1455
159 1 50.2251 -14.8429 -2.84481
156 1 48.9338 -13.8356 -2.49263
158 1 49.5922 -14.2314 -3.2586
157 1 48.8531 -13.548 -3.3792
141 1 50.9326 -14.099 -2.47265
160 1 50.559 -14.8606 -3.70621
301 1 64.7399 -3.48996 1.26835
315 1 61.8336 -1.89219 2.79172
426 1 63.1237 -3.07132 3.29724
425 1 63.5046 -3.53773 2.62169
424 1 64.4042 -4.01395 2.43117
423 1 64.5928 -3.02984 2.56706
317 1 60.4639 -1.79981 3.76186
316 1 60.9778 -2.34415 3.23394
305 1 62.8885 -2.05267 3.26602
302 1 63.954 -2.90148 1.4313
303 1 63.4017 -2.43087 1.949
304 1 62.5215 -2.51789 2.34147
421 1 65.7448 -3.07293 2.90336
439 1 63.1157 -1.55308 1.37742
320 1 60.7809 -1.72805 1.99378
306 1 62.7391 -1.48493 2.3952
307 1 61.828 -1.23346 1.9444
438 1 63.4315 -0.700014 1.35855
308 1 62.0379 -0.833004 2.88643
427 1 64.0269 -3.12654 3.55465
428 1 63.8301 -2.25574 3.90696
314 1 62.0198 -2.76415 3.27154
422 1 65.371 -3.54756 2.03702
313 1 61.9458 -2.13629 3.97822
429 1 63.5791 -2.40863 4.78929
433 1 64.0146 -1.274 3.32076
434 1 64.2506 -1.93458 2.71969
435 1 63.9442 -1.36074 1.89897
319 1 60.9477 -1.25458 2.83411
318 1 60.1244 -1.03723 3.27207
311 1 62.0605 -1.25684 4.71233
432 1 64.0877 -0.972106 4.23361
309 1 62.8826 -0.526142 3.24144
436 1 64.3554 -0.692821 2.28096
437 1 63.3433 -0.513305 2.23905
440 1 62.3546 -2.27573 1.21045
310 1 62.7922 -1.14512 3.87819
115 1 24.8773 73.1334 4.73692
116 1 23.9316 73.0929 4.71895
118 1 23.5382 72.916 3.49912
103 1 24.5836 74.6445 3.72669
104 1 23.9681 74.3352 3.04719
430 1 62.9351 -1.80051 5.00963
312 1 61.5257 -1.26154 3.83807
431 1 63.7129 -1.11642 5.12697
119 1 24.3419 72.3493 3.18645
120 1 24.25 72.4399 2.21322
112 1 25.8168 73.6203 3.71475
114 1 24.7462 72.2055 4.29472
113 1 25.0648 72.9539 3.64463
105 1 24.1987 73.3745 2.70716
117 1 24.0954 73.5652 3.97661
106 1 23.8686 73.8302 1.90746
102 1 24.9699 73.9528 3.21205
111 1 26.3116 73.4165 2.89389
101 1 25.7211 74.5637 3.13209
107 1 24.4305 74.5866 2.05956
109 1 24.8853 73.3595 1.89461
110 1 25.4462 73.0809 2.66867
108 1 25.32 74.1626 2.16753
17 1 82.652 12.2408 25.8358
7 1 84.8373 12.0597 25.4249
6 1 84.3624 11.449 26.1593
5 1 83.5425 11.5309 26.8901
3 1 84.5805 11.5712 27.2592
4 1 83.8734 11.2321 27.7839
15 1 83.1742 14.118 25.0413
18 1 83.2344 11.3744 25.6693
16 1 82.9409 13.2571 25.6952
9 1 83.7646 12.8982 26.3791
1 1 84.0569 12.6385 27.3782
2 1 84.6932 12.4091 26.6294
19 1 82.5225 11.4265 25.1779
8 1 83.9059 12.2931 25.709
11 1 84.9303 13.4615 26.6029
10 1 83.9171 13.6877 26.8787
14 1 83.7529 13.9753 25.796
13 1 83.9412 13.3158 25.1969
20 1 82.1578 10.5836 24.7168
12 1 84.7711 13.1269 25.5894
264 1 73.7714 67.3015 32.4815
265 1 74.2143 68.1677 32.441
263 1 72.7972 67.2682 32.0132
262 1 72.5058 67.4723 30.9969
261 1 71.7131 67.4168 31.8544
266 1 73.9807 68.3706 33.3665
385 1 71.9567 69.1644 31.0001
268 1 72.5745 68.778 33.2039
267 1 73.0751 67.9222 33.0061
273 1 73.4334 69.1408 32.876
269 1 72.6158 68.5136 32.3263
270 1 72.9665 68.2876 31.4754
399 1 73.4143 69.2045 29.7779
400 1 74.2766 69.6383 30.1089
271 1 73.6482 68.9804 31.1159
272 1 74.0325 69.2631 32.0621
279 1 73.7497 70.6907 32.5351
398 1 73.1645 70.0428 30.5512
397 1 73.6851 70.9021 30.7359
396 1 73.0174 71.6924 30.3692
386 1 72.8145 69.2867 31.6027
383 1 71.4322 68.545 31.8329
384 1 71.7864 68.3011 30.8396
276 1 74.6381 70.7862 33.0143
274 1 73.9321 69.8576 33.6068
275 1 73.7488 70.9028 33.6097
387 1 72.5466 69.937 32.1204
280 1 72.831 70.4555 33.0791
277 1 74.9174 69.9266 32.3752
278 1 74.2739 70.3369 31.773
391 1 71.3195 71.0282 32.1981
389 1 70.909 70.0364 32.6395
388 1 71.7132 69.5267 32.1635
392 1 71.7914 70.4473 31.5047
395 1 73.3201 71.7204 31.3759
394 1 72.4775 71.3355 31.4935
393 1 71.6896 71.439 31.2958
381 1 70.5046 69.814 31.705
382 1 70.4865 68.9895 32.0506
390 1 71.9161 70.4365 32.6594
359 1 82.2766 74.4282 45.1657
358 1 82.6997 75.0366 44.5708
478 1 85.8411 77.8827 45.1567
82 1 82.9067 77.1425 44.5441
216 1 84.8828 77.4873 44.3202
81 1 83.4517 76.2934 44.5723
214 1 84.7023 78.8766 44.28
215 1 85.3096 78.3466 44.2792
88 1 82.1099 79.2951 44.8302
356 1 83.4546 76.495 45.802
357 1 83.086 75.6766 45.2058
343 1 82.8038 77.2549 45.4879
360 1 81.3702 74.6874 44.6849
219 1 84.2256 77.6381 45.571
353 1 85.4546 76.0562 45.6158
220 1 84.1436 76.9521 45.1705
84 1 81.568 78.3915 44.7579
83 1 82.5741 78.2097 44.8974
344 1 81.8948 77.1216 45.523
217 1 84.8472 76.484 44.6373
218 1 85.1095 77.0704 45.4406
479 1 86.041 77.159 44.5967
477 1 85.8841 78.8637 45.2763
476 1 85.7261 78.4069 46.2163
330 1 80.1052 78.5866 45.5833
85 1 81.1774 79.4284 44.7507
90 1 82.3076 78.4483 46.3167
89 1 82.0346 79.1654 45.7657
213 1 84.2524 78.232 44.7971
202 1 83.1814 79.1443 46.0459
201 1 83.225 78.222 45.6583
210 1 83.7637 80.0179 45.2709
203 1 83.9023 79.0037 46.5515
480 1 86.4603 76.597 45.4241
209 1 84.1871 80.1246 46.1454
329 1 79.6554 79.4168 45.6784
86 1 81.1451 80.3268 45.2999
326 1 80.5656 80.6313 46.7196
327 1 79.5182 80.367 46.6583
363 1 80.3388 82.0118 45.6742
87 1 82.0935 80.1795 45.4593
364 1 80.1606 81.2193 45.383
97 1 81.4879 79.9402 47.3156
362 1 81.1324 81.996 46.1531
98 1 82.2941 80.0133 46.6316
211 1 83.546 79.0809 44.7966
367 1 80.4119 82.5262 47.276
366 1 80.0009 81.8586 46.8485
380 1 81.7454 84.1996 45.7952
414 1 80.0746 74.7953 45.8359
461 1 83.3829 74.7052 45.8647
418 1 79.6673 74.6094 46.9142
416 1 80.9042 74.5144 46.7136
415 1 80.5458 75.3183 46.535
413 1 80.7308 75.4486 45.4646
355 1 84.1754 76.6645 46.3138
412 1 81.6534 75.528 46.0657
411 1 82.5882 75.2784 46.0858
492 1 80.0875 77.2358 46.4512
493 1 79.6004 77.9796 46.2984
342 1 82.3575 76.1795 45.5682
354 1 84.4986 75.9384 45.7182
346 1 82.007 76.8218 46.397
341 1 81.6546 76.3385 44.9526
347 1 82.8803 76.5029 46.799
352 1 85.8822 76.1125 46.4963
351 1 85.7735 77.0614 47.0613
336 1 81.1802 78.3471 47.5071
337 1 80.6883 79.2585 47.2309
335 1 80.941 77.495 47.15
334 1 81.227 78.1814 46.5302
345 1 81.108 76.48 46.0633
91 1 82.8147 77.7648 46.4728
92 1 82.5985 77.4262 47.4158
187 1 82.5764 80.2503 47.6349
348 1 83.4135 77.137 46.8378
349 1 83.9488 77.9118 46.5646
350 1 84.9687 77.565 46.6271
474 1 84.7184 79.6047 47.3601
475 1 85.0099 79.3097 46.4102
340 1 78.5772 79.4755 46.4234
339 1 78.7027 78.6498 46.4244
321 1 78.8555 78.6309 47.7053
331 1 80.9987 79.0083 45.8143
324 1 79.998 80.8993 47.9138
323 1 80.087 80.0409 47.9798
333 1 81.5931 79.0447 46.7687
332 1 81.1034 79.9134 46.2894
93 1 82.0842 78.1291 47.9205
212 1 84.3286 78.8393 45.4635
186 1 82.7841 79.9848 48.4712
95 1 81.7433 78.6242 48.7158
486 1 81.5831 76.9763 47.7476
205 1 83.4563 79.2218 47.7052
204 1 83.3769 79.7593 46.9649
208 1 85.0932 80.461 46.7003
207 1 84.342 80.7443 47.1642
328 1 80.1028 80.3283 45.9127
325 1 80.8282 80.5545 47.683
181 1 81.7113 80.722 48.6022
182 1 81.5121 81.1087 49.4106
96 1 81.3236 79.5474 48.2711
99 1 83.0113 80.45 46.0679
185 1 83.055 80.6491 49.2434
184 1 82.1273 80.1288 49.3902
375 1 82.4101 82.6286 49.6117
369 1 81.1545 82.5702 48.1663
368 1 80.1467 82.3818 48.2668
376 1 82.1255 83.3866 49.0082
365 1 79.4984 81.4795 46.0245
100 1 83.6617 81.0235 46.4321
361 1 81.5125 81.0854 45.9432
378 1 81.7772 82.7394 47.1902
377 1 82.0371 83.2218 47.9763
379 1 81.7097 83.6405 46.6899
462 1 83.7374 73.7189 45.6434
464 1 84.6296 73.2956 46.4691
417 1 80.448 74.7903 47.5296
420 1 79.1974 75.7912 46.3244
419 1 78.7073 75.1861 46.9765
410 1 82.4538 74.3701 46.2691
463 1 83.8025 73.7796 46.5186
465 1 84.8838 74.1526 46.9257
467 1 84.2633 74.9242 46.7386
494 1 78.847 77.8409 47.0161
138 1 80.8823 76.2429 50.9845
489 1 81.4292 75.617 47.4119
490 1 80.8305 76.3029 47.5228
488 1 82.312 75.6802 47.0479
407 1 83.0359 75.1114 47.4109
468 1 84.78 75.7531 47.1012
469 1 84.6644 76.6189 47.2995
470 1 84.6453 76.7218 48.25
496 1 79.7241 78.1834 48.4339
495 1 79.7145 77.9818 47.423
491 1 79.8975 76.4691 46.9685
484 1 80.646 77.3018 48.2198
485 1 81.4019 77.55 48.5656
188 1 82.5163 79.3536 47.2847
189 1 82.9108 78.4557 47.2763
487 1 82.4467 76.4567 47.7089
471 1 84.4619 77.6331 47.7691
472 1 85.3437 78.0335 48.1044
473 1 85.3695 79.0682 47.8024
338 1 79.6387 79.1508 46.8434
322 1 79.6227 79.1072 47.9671
497 1 80.5922 78.3362 48.5571
129 1 80.5996 77.4821 50.4089
94 1 82.4067 78.9199 48.1626
124 1 83.7553 79.7909 48.8832
190 1 83.4951 77.9297 47.7991
125 1 83.4529 78.768 49.0035
206 1 83.7939 80.2415 47.8713
122 1 84.6553 78.555 49.0166
121 1 84.2619 79.07 48.3402
373 1 81.9099 81.6715 48.0483
374 1 82.0266 81.8833 48.9889
499 1 80.7535 78.6202 49.6212
498 1 80.4286 77.6145 49.2328
183 1 82.024 80.7515 50.184
128 1 81.2537 78.3751 50.564
126 1 82.6365 78.7111 49.5613
123 1 84.2939 79.354 49.4897
500 1 80.1877 79.1535 48.9024
372 1 82.0818 81.785 46.9779
371 1 81.3184 81.2748 46.966
370 1 80.9064 81.7819 47.6305
197 1 83.2356 80.3162 50.9691
198 1 83.9765 80.615 51.4174
200 1 83.6701 79.1681 51.2405
140 1 82.1389 76.2535 50.0523
139 1 81.6321 75.7926 50.8798
409 1 81.9102 74.5935 47.1725
466 1 84.6873 74.3136 45.8987
137 1 81.3229 76.9548 51.2855
408 1 82.2499 74.6917 47.9801
482 1 78.9362 77.4719 48.0247
136 1 81.8298 77.4969 50.6297
483 1 79.6868 76.947 48.2558
133 1 80.4207 75.7181 49.1749
132 1 79.7177 76.3978 49.278
406 1 82.956 75.5637 48.2862
405 1 82.0429 75.3851 48.7187
134 1 80.9714 76.4596 49.5668
402 1 83.3706 76.4198 48.7058
401 1 83.5351 76.8297 47.8281
130 1 80.0767 76.7766 50.2715
131 1 79.4468 77.1586 49.8432
127 1 81.7396 78.2197 49.6593
192 1 83.3058 77.7566 49.4283
404 1 82.1065 76.3727 48.7837
191 1 83.8364 77.5899 48.6475
193 1 83.0745 77.9417 50.4367
195 1 82.0226 78.9334 50.7427
196 1 82.8639 79.4899 50.5332
194 1 82.5516 78.2592 51.3343
199 1 84.2284 79.6568 51.7511
135 1 81.7377 77.2335 49.5418
481 1 78.3514 76.9942 47.6391
403 1 82.6931 77.1615 48.5075
28 1 77.1936 76.7895 59.3026
223 1 63.9794 -2.18995 61.792
169 1 76.7769 75.6653 58.5598
36 1 75.3415 74.0998 59.2287
37 1 75.9493 73.8118 58.5468
30 1 76.7581 76.8269 58.1322
29 1 76.4744 77.3445 58.9069
33 1 74.8583 75.5685 58.3385
27 1 77.463 75.8236 59.3867
26 1 76.4499 76.2116 59.5438
233 1 63.1608 -0.0106461 59.9123
227 1 64.2898 -0.434317 60.6779
228 1 63.9042 -0.894491 59.8275
229 1 63.2105 -1.31426 60.4847
232 1 62.2487 0.0630294 59.6114
230 1 62.3488 -1.65248 60.1602
226 1 64.5624 -0.302837 61.747
234 1 63.1201 -0.0641237 60.6935
235 1 62.2876 -0.59612 60.6542
236 1 61.9963 0.139972 61.1094
240 1 62.1006 1.69695 61.0585
239 1 62.9122 1.75196 61.6528
238 1 63.1776 0.949858 61.1106
225 1 63.9201 -0.94505 61.5351
224 1 64.748 -1.51501 61.789
222 1 64.2552 -1.73826 60.9378
221 1 63.538 -2.34567 60.424
242 1 75.8038 74.5111 62.3604
168 1 76.3997 74.7055 58.6248
180 1 77.8084 73.9239 60.1108
241 1 76.5729 74.1666 62.9921
38 1 76.4142 74.3879 57.685
167 1 77.1841 74.0834 58.5646
166 1 76.9853 74.5512 59.4705
170 1 77.7782 75.4861 58.1714
171 1 78.7726 75.7602 58.0857
163 1 78.1739 74.721 60.7566
179 1 77.0966 74.3106 60.719
40 1 76.6083 74.7975 56.6844
39 1 76.8003 75.3051 57.4633
258 1 75.9853 73.76 60.2198
256 1 75.0251 74.6471 60.9822
32 1 75.6997 75.4717 57.899
23 1 75.8148 75.4535 59.0686
165 1 77.7871 74.6441 59.0754
31 1 76.1633 76.273 57.4495
172 1 78.661 75.4712 59.0347
35 1 75.3052 74.6002 58.3268
34 1 74.3948 74.7349 58.6743
22 1 74.9604 75.7951 59.3777
21 1 74.7249 75.083 59.9289
25 1 76.6554 75.3269 59.9363
231 1 62.5628 -0.903458 59.6238
237 1 62.7735 0.235991 61.7385
245 1 77.4915 73.2223 62.1735
178 1 76.5525 74.741 61.3197
247 1 77.1229 74.9556 62.5849
162 1 79.0108 74.9964 60.4637
260 1 76.0947 73.1232 61.8303
243 1 76.6278 73.9378 61.8876
176 1 76.5181 76.02 60.8362
161 1 79.1104 74.388 59.4921
177 1 75.8204 75.4285 61.1284
257 1 74.9886 73.8975 60.3092
259 1 75.793 74.0011 61.1757
254 1 75.0596 75.2268 62.3544
174 1 78.3321 76.45 60.0249
175 1 77.5146 75.7971 60.5516
164 1 78.0107 74.9801 59.9217
173 1 78.2987 76.3105 59.0248
255 1 74.7325 74.5522 61.8721
24 1 75.7617 75.2364 60.1076
246 1 77.5743 74.1532 62.6664
244 1 77.58 73.8996 61.4678
251 1 76.3666 76.8691 61.6131
248 1 77.6649 75.527 61.9028
249 1 77.1463 76.109 62.5534
252 1 76.1476 76.0065 62.1832
253 1 75.0764 76.1411 62.3311
250 1 77.1722 76.3846 61.6114
41 1 15.575 40.6558 71.7464
49 1 16.1439 43.3687 73.3616
43 1 15.5547 41.3344 72.692
42 1 16.2378 41.4118 72.0091
48 1 16.2759 42.4117 73.8443
47 1 15.3346 42.7717 74.1554
51 1 16.7087 42.0758 72.8472
50 1 16.7724 43.0668 72.789
45 1 14.99 42.0255 73.252
46 1 14.7754 42.9881 73.3068
44 1 15.6554 42.2308 72.6145
60 1 14.5149 42.364 72.3071
54 1 16.7746 40.7966 73.1446
53 1 17.2278 41.5158 73.6055
52 1 17.5518 42.4335 73.2333
55 1 15.9382 41.0093 73.6163
57 1 15.7571 40.1805 72.8502
56 1 16.1322 40.0474 73.702
58 1 14.76 40.5733 72.8064
59 1 14.2863 41.4208 72.6605
458 1 77.4684 -7.06208 78.8751
442 1 76.214 -6.89057 77.5573
460 1 78.4865 -6.48322 79.1871
445 1 77.6192 -7.73511 78.1349
443 1 76.4991 -7.58192 78.0895
459 1 77.687 -6.07708 78.9322
444 1 76.9516 -8.02334 77.3902
457 1 76.8032 -7.85769 79.1342
456 1 77.2372 -8.7054 78.8155
450 1 76.8375 -9.04413 77.0655
441 1 77.1554 -6.64127 77.9051
446 1 78.3691 -7.33424 77.5892
448 1 77.4096 -8.39672 76.3878
447 1 78.1162 -8.19941 77.0527
449 1 76.8032 -8.98869 76.076
455 1 77.5081 -8.7728 77.8838
453 1 76.9345 -9.6146 78.313
454 1 76.5295 -8.75129 78.0611
451 1 77.8331 -9.35994 76.9185
452 1 77.7919 -9.8804 77.753
61 1 7.34747 70.3789 79.4184
62 1 6.97536 70.5238 80.2686
75 1 8.18976 68.5763 81.594
63 1 7.13106 69.58 80.5509
73 1 8.88908 69.412 81.1474
76 1 7.71378 69.4951 81.9853
78 1 7.11046 70.617 81.5141
74 1 8.0681 69.1802 80.9302
72 1 8.68833 70.2611 80.6854
65 1 8.39049 70.266 79.2917
64 1 8.06467 69.7006 80.042
66 1 9.239 69.5975 79.5799
67 1 9.91816 69.9623 78.9058
77 1 8.06648 70.2503 81.6022
80 1 8.02319 70.8766 80.0231
68 1 10.0424 70.2154 79.9193
70 1 9.6599 70.4108 80.9353
71 1 9.17213 70.9216 80.0462
69 1 10.4845 70.6611 80.5665
79 1 7.64425 71.0346 80.9961
ITEM: TIMESTEP
22000
ITEM: NUMBER OF ATOMS
500
ITEM: BOX BOUNDS pp pp pp
-2.8797228887385394e+01 8.8797228887385558e+01
-2.8797228887385394e+01 8.8797228887385558e+01
-2.8797228887385394e+01 8.8797228887385558e+01
ITEM: ATOMS id type x y z
287 1 36.1527 -19.0342 -17.4178
286 1 35.7292 -18.6483 -18.2764
288 1 36.967 -19.0656 -17.9344
289 1 37.0442 -19.9865 -17.9608
290 1 36.2558 -20.5545 -17.6853
292 1 36.8476 -19.7093 -18.9607
291 1 36.1188 -19.7179 -18.338
300 1 37.7914 -17.1037 -21.5626
299 1 37.7961 -17.8132 -22.1766
296 1 37.3867 -17.7057 -20.7543
294 1 37.6186 -18.8349 -20.4337
295 1 37.473 -18.517 -21.3906
284 1 37.1113 -18.3682 -19.5916
285 1 36.6039 -18.6485 -18.7818
293 1 37.5169 -19.4363 -19.5552
281 1 35.8423 -19.0812 -19.3522
298 1 36.939 -17.5064 -21.824
297 1 36.4798 -18.1859 -21.1713
283 1 36.3279 -18.362 -20.1519
282 1 36.545 -19.1955 -20.0372
160 1 50.5398 -13.7379 -2.34529
157 1 51.2873 -14.2988 -1.52419
158 1 51.7081 -13.9142 -2.34687
155 1 51.6076 -15.3051 -1.10933
159 1 51.2135 -13.2523 -1.76001
156 1 52.1733 -14.9199 -1.93993
154 1 51.216 -15.7532 -1.89404
142 1 51.3793 -14.8839 -2.64107
143 1 50.8338 -14.5265 -3.46364
141 1 50.3195 -14.7913 -2.48665
148 1 51.8849 -14.4656 -3.46271
149 1 52.5055 -14.3423 -2.79038
147 1 52.4628 -15.0273 -3.96837
152 1 51.6074 -16.1135 -3.01471
153 1 50.7735 -16.0111 -2.61937
151 1 52.4439 -16.1705 -3.5061
145 1 51.4694 -14.8831 -4.48758
144 1 51.3711 -15.3664 -3.66801
150 1 52.3792 -15.3207 -2.94465
146 1 51.9564 -15.7159 -4.44302
424 1 65.8901 -2.56385 1.73415
301 1 62.6535 -4.35016 1.36139
422 1 65.8489 -1.896 0.76519
320 1 62.3845 -3.22705 5.34669
304 1 62.8073 -3.22913 3.07367
440 1 64.3198 -1.85444 0.0141491
302 1 63.1258 -3.53712 1.18205
303 1 63.0405 -3.81761 2.27416
439 1 64.2786 -1.40587 0.914492
306 1 62.6129 -2.65413 2.01188
307 1 61.8688 -2.57269 2.57567
438 1 63.3424 -1.44539 0.732416
435 1 64.6088 -1.37774 2.09768
436 1 63.6069 -1.00873 2.50266
437 1 63.0193 -1.07832 1.5421
120 1 24.7118 74.5487 2.92059
106 1 23.932 75.0134 2.19402
109 1 22.8468 75.6964 0.60763
108 1 23.4788 75.7732 1.34148
107 1 23.0622 75.3924 2.22433
425 1 65.3336 -3.27909 1.33797
427 1 64.306 -3.75521 2.42148
317 1 60.3818 -3.21829 4.42149
316 1 60.5632 -2.40444 4.92705
315 1 61.5536 -1.99964 5.02772
305 1 63.4884 -2.76749 2.43097
314 1 61.0234 -1.57653 4.25711
426 1 64.4883 -2.96624 1.75554
428 1 64.4383 -3.06596 2.88263
434 1 63.8897 -2.06037 1.82841
423 1 65.1477 -2.22879 1.25317
421 1 65.2862 -2.37426 0.0770415
318 1 61.3586 -3.17961 4.74638
319 1 62.3225 -2.69097 4.49269
312 1 60.8812 -2.03664 2.95238
308 1 62.561 -2.14008 3.20583
309 1 62.9098 -1.72265 2.42899
310 1 62.1114 -1.13906 2.36257
433 1 64.2645 -2.06593 2.79243
118 1 25.1477 74.966 1.14557
119 1 25.1352 75.0018 2.153
113 1 23.4839 73.9408 1.72545
104 1 24.7142 75.9509 1.40443
105 1 24.4737 75.8188 2.35508
117 1 25.5805 75.1439 0.245744
102 1 24.1163 74.7101 0.864183
112 1 23.9487 73.648 0.866732
111 1 22.9871 73.9865 0.763478
110 1 23.0588 74.8729 1.17555
103 1 24.403 75.5397 0.58323
101 1 23.687 74.897 -0.0213889
313 1 61.0992 -2.37051 3.96505
430 1 64.5405 -1.89336 3.80681
429 1 63.7878 -2.66283 3.5798
311 1 61.6286 -1.58807 3.153
432 1 65.0985 -2.13537 2.51939
431 1 65.0216 -1.37577 3.1175
114 1 24.4033 74.1441 1.71958
115 1 24.9693 73.9129 0.873129
116 1 24.749 74.5781 0.0781111
20 1 82.8012 12.3216 26.5091
15 1 85.0021 11.7627 25.338
17 1 83.8963 11.7643 26.7305
19 1 82.6898 11.3098 26.4957
18 1 83.4756 11.2431 25.7764
8 1 82.821 12.0132 27.5223
7 1 82.766 12.8645 27.9409
6 1 82.5242 13.2167 27.1767
16 1 84.2261 12.0283 25.7651
9 1 83.8411 12.285 27.8598
13 1 84.6322 10.6132 26.9672
12 1 85.1196 11.4778 27.2104
14 1 84.676 10.9483 26.0527
5 1 83.4572 12.9656 26.9103
4 1 83.4946 13.9335 26.6632
3 1 84.4237 14.2529 26.8456
1 1 83.1184 13.9573 28.0427
10 1 84.3304 13.0929 27.5205
2 1 83.9563 14.4743 27.741
11 1 85.1574 12.3549 27.4815
399 1 76.4984 71.5667 32.472
400 1 75.5129 71.4546 32.8259
398 1 76.0487 71.4107 31.8296
396 1 75.1715 70.9109 30.4291
263 1 75.5376 69.2073 35.1162
383 1 74.833 68.4929 30.9846
262 1 75.8848 70.1426 34.9724
261 1 75.3229 70.2287 35.6057
384 1 75.2321 68.6207 30.2594
270 1 75.2491 69.1221 32.4925
381 1 74.8324 69.8507 30.8059
382 1 74.3214 69.3579 31.447
385 1 76.0464 68.8666 30.5702
386 1 75.5195 69.2926 31.4549
387 1 75.7681 70.0527 32.078
271 1 75.8215 69.103 33.1806
272 1 76.1297 69.6328 33.903
392 1 73.6633 71.9142 31.1401
394 1 74.8144 71.583 31.302
393 1 74.3069 72.0868 31.8671
397 1 75.734 70.8126 31.1087
278 1 74.4478 71.9829 33.0332
395 1 74.3072 71.139 30.5592
264 1 74.9829 69.0339 34.247
269 1 74.2593 68.9295 32.5625
265 1 74.628 69.4503 33.4546
266 1 73.7076 69.4641 33.2645
267 1 73.5674 69.6861 32.2619
389 1 74.3812 70.4951 31.6288
268 1 74.4902 69.8444 32.3773
388 1 75.1756 70.8054 31.9695
273 1 75.4237 70.1445 33.4639
277 1 74.8335 71.6576 33.9404
391 1 73.0418 71.8257 31.9426
280 1 72.7272 72.2674 33.3619
390 1 73.8887 71.0258 32.0948
279 1 73.5135 71.5657 33.1022
276 1 74.0374 71.1598 33.9602
274 1 74.6699 70.6672 33.256
275 1 74.5962 70.3642 34.2165
360 1 82.9872 77.7164 44.8389
358 1 84.6252 76.8993 45.9374
82 1 83.9811 81.9716 44.7914
81 1 83.4906 82.8104 45.0911
217 1 87.0829 79.5803 45.0693
479 1 86.2621 81.1576 47.9682
84 1 82.6942 81.8243 45.7249
216 1 87.049 80.4754 44.6027
215 1 86.2782 80.4795 45.2395
213 1 85.4894 81.4544 45.2781
85 1 83.0263 82.6309 46.2774
214 1 85.8943 80.866 46.073
462 1 85.3034 75.8349 46.8235
466 1 87.0255 78.0896 47.4347
414 1 82.2678 76.4436 46.5416
413 1 83.0914 76.2394 45.968
359 1 83.6489 77.1227 45.4757
412 1 83.2114 76.3722 46.8301
411 1 84.2609 76.2874 46.635
357 1 85.1831 77.2006 46.5978
461 1 85.392 76.0882 45.7448
345 1 83.3055 78.2319 46.8911
344 1 84.0149 77.6824 46.4847
342 1 82.7615 77.6801 46.0195
341 1 82.1958 76.9786 45.4618
356 1 85.4366 77.9597 46.2344
220 1 85.3731 80.0541 45.2098
353 1 87.4272 78.4428 46.5642
218 1 86.1492 79.6393 44.8437
354 1 87.2136 77.6299 45.7376
480 1 86.3063 80.4525 48.4538
330 1 81.2094 81.3862 46.8198
343 1 83.5897 78.1928 45.6955
83 1 82.9997 81.9382 44.8275
201 1 83.9693 79.8798 46.1048
219 1 86.0946 79.5524 45.7637
478 1 86.6504 81.036 47.0087
329 1 81.9769 81.22 47.3177
331 1 81.5196 81.6678 46.0153
88 1 83.9896 81.7165 45.9099
89 1 83.6151 80.9213 46.4912
202 1 84.5893 80.7062 45.7637
211 1 84.8255 82.9015 45.4413
212 1 85.0768 82.1474 44.7474
477 1 86.3468 80.0318 47.0359
86 1 83.7016 82.3742 46.9215
364 1 81.5355 84.356 48.445
328 1 81.3073 81.7946 47.7867
87 1 84.1127 82.6787 46.0985
361 1 82.7751 82.5067 47.5123
210 1 85.6529 82.6487 45.8024
209 1 85.1734 81.9875 46.2715
99 1 84.6304 82.3433 48.4251
365 1 81.1518 83.508 48.0415
363 1 82.4586 83.9089 48.4022
362 1 82.9644 83.4478 47.5502
380 1 85.3977 82.8455 47.0748
410 1 84.354 75.3289 46.8502
463 1 86.1066 76.4798 46.8291
464 1 87.0724 76.371 46.7085
465 1 87.2847 77.2846 47.1796
418 1 79.695 76.8997 45.3083
419 1 80.2616 77.4037 45.9947
416 1 80.5223 76.2162 46.2113
415 1 81.468 75.9594 46.36
417 1 79.9748 75.9614 45.3051
489 1 82.2807 78.1791 46.8278
488 1 82.712 77.3737 47.0684
409 1 83.7792 75.0679 47.6731
407 1 84.9791 75.7251 49.0986
467 1 86.2571 77.5377 47.1825
468 1 86.4362 76.6751 47.8131
420 1 80.7577 78.0651 45.4116
491 1 81.1664 78.1654 46.7228
490 1 81.6755 77.4725 47.1668
346 1 83.5152 79.0002 47.2507
355 1 86.3082 77.3895 46.0819
347 1 84.3399 78.4462 47.2266
348 1 84.3443 78.7988 46.3088
469 1 85.7205 76.0346 48.2052
352 1 86.9195 79.2852 46.4599
351 1 86.308 78.639 46.5314
493 1 79.946 78.6531 47.1547
494 1 78.9933 78.9027 47.3586
495 1 78.7782 78.9224 48.3147
492 1 80.4158 77.5386 47.0202
336 1 82.511 79.2358 47.417
335 1 83.1915 79.9707 47.7743
334 1 82.6904 80.2969 46.9778
90 1 84.3031 80.8394 47.1066
92 1 84.6428 79.5288 47.5284
91 1 84.0491 79.8483 47.1254
349 1 85.1297 79.2407 45.9377
189 1 85.3192 80.2997 48.9562
350 1 85.3848 78.9153 46.8476
476 1 85.6454 79.6779 47.7376
340 1 80.4015 81.2589 47.4692
339 1 80.6544 80.5057 47.0293
338 1 81.6019 80.0459 47.1283
337 1 82.1333 80.0111 48.0693
332 1 81.2803 80.7424 45.9935
97 1 83.3694 81.1713 47.5963
333 1 82.2797 81.0241 46.2747
188 1 85.1433 81.1773 49.4645
203 1 85.1286 80.1459 46.6331
204 1 85.2791 80.6548 47.5287
474 1 86.2648 78.9929 48.7826
475 1 86.124 78.9166 47.7389
327 1 80.8732 81.5565 48.6616
326 1 81.5013 80.7538 48.5325
371 1 83.1795 81.5451 49.5198
98 1 84.0172 81.6717 48.2825
100 1 85.3869 82.0749 48.9319
208 1 84.6803 81.8647 47.1592
207 1 85.6239 81.4231 47.0143
367 1 81.6017 82.7099 49.3064
366 1 80.9099 82.8007 48.5611
378 1 83.9978 82.7255 47.7642
372 1 83.9007 82.0459 49.3767
379 1 84.7964 83.2305 47.8416
408 1 84.2693 75.704 48.3312
405 1 84.3732 77.3783 48.5762
406 1 84.6457 76.5813 48.8504
481 1 81.3825 79.0624 47.426
483 1 81.7482 79.1071 48.4374
486 1 82.7497 78.9855 48.4144
487 1 82.8245 78.178 47.7825
404 1 83.567 76.9315 48.8367
403 1 82.9234 77.0389 47.9949
402 1 83.7864 77.5326 47.6281
401 1 83.9998 76.654 47.8353
470 1 85.0804 76.613 47.5974
496 1 79.3865 79.7269 48.591
482 1 80.7945 79.0604 48.2697
484 1 81.9534 79.9092 49.0759
485 1 82.4604 79.0745 49.2727
497 1 79.9064 79.2764 49.4422
93 1 84.3113 80.3838 48.0402
190 1 84.6764 79.593 48.5983
191 1 83.744 79.0472 48.4185
471 1 84.7869 77.5886 47.5935
472 1 85.5223 77.2373 48.2219
321 1 80.2624 82.9976 46.6213
322 1 79.8946 82.2534 47.1696
96 1 82.537 80.9784 48.196
500 1 81.3334 80.5215 49.6538
95 1 83.2045 80.5903 48.7983
94 1 84.1282 80.6914 48.867
186 1 84.5055 81.2528 50.8926
205 1 85.059 81.1663 48.1787
124 1 86.5485 80.6483 49.5187
473 1 85.9416 78.0586 48.4673
121 1 86.85 78.3493 50.2527
324 1 79.8954 80.4917 48.053
323 1 79.4 81.4012 47.8206
325 1 80.8539 80.2032 47.9799
187 1 84.2247 81.1013 49.9058
181 1 82.7653 80.9576 50.3406
206 1 85.519 81.9846 47.8489
369 1 82.1441 82.1582 48.5689
368 1 82.2321 81.9398 49.4399
370 1 83.1288 82.0571 48.6019
373 1 83.8803 82.3267 50.4302
374 1 83.5444 83.215 49.9351
376 1 84.07 83.774 48.8177
377 1 83.3441 83.0958 48.4415
133 1 82.4498 79.639 50.9427
132 1 82.3103 79.9894 50.121
131 1 83.0587 79.1652 50.2452
134 1 83.1731 78.987 51.3504
130 1 83.8178 79.4271 50.5345
140 1 84.9118 77.7387 51.2793
129 1 83.6231 80.1386 49.9567
498 1 80.781 79.4482 49.2009
127 1 84.3273 79.5132 49.6846
135 1 82.8502 78.312 50.7451
192 1 84.4523 78.4976 48.4852
122 1 86.5393 79.1279 49.7832
499 1 80.5466 80.0055 50.147
126 1 84.953 80.211 50.1323
125 1 85.8657 80.6164 50.0379
123 1 85.9984 79.7401 49.4772
182 1 83.2101 81.4223 51.2436
184 1 83.2657 80.2234 51.4519
183 1 82.4988 80.7649 51.598
185 1 84.2294 80.4103 51.1995
375 1 84.2819 82.9574 49.4811
138 1 84.5173 77.2343 50.0513
137 1 84.0151 77.3822 50.9397
139 1 85.402 77.3616 50.5711
128 1 83.5397 79.634 49.2401
136 1 83.0761 77.7609 51.3808
194 1 85.896 78.4297 49.5877
193 1 85.0426 78.8998 49.2286
195 1 85.0347 77.8533 49.236
200 1 85.8143 78.4774 50.7512
196 1 84.0252 77.989 49.5829
199 1 85.3979 79.2013 50.413
197 1 83.9589 78.2014 50.4408
198 1 84.8087 78.6259 50.1758
40 1 76.4952 75.0424 57.3893
31 1 76.0191 75.7549 58.9209
37 1 78.547 74.8216 59.0513
167 1 79.6532 74.9241 59.752
33 1 77.3867 76.4624 58.9381
32 1 76.8247 76.0733 58.2232
35 1 77.9937 76.0643 58.1437
34 1 77.6645 77.0321 58.2778
169 1 80.2772 75.5887 58.2165
168 1 79.5248 75.4628 58.9858
38 1 77.6377 74.361 58.7289
39 1 77.3776 74.917 57.9338
170 1 80.0884 76.6295 58.3236
30 1 75.8851 76.5393 58.2861
171 1 79.2179 76.7141 58.6942
230 1 65.5761 -0.547884 62.4816
231 1 66.5054 -0.936111 62.196
228 1 65.2235 -1.77732 62.7523
232 1 65.7851 -1.33135 61.486
233 1 64.8086 -0.933724 61.4755
36 1 78.2648 75.8068 58.9906
258 1 78.1705 74.4182 60.9351
180 1 80.0693 75.1491 61.4212
21 1 76.9809 75.4221 59.0809
166 1 80.2742 75.4724 60.1125
23 1 77.4869 75.1816 60.1977
25 1 76.8797 76.8756 60.1458
24 1 77.2726 76.0015 59.9173
165 1 79.6731 76.1775 60.4941
164 1 80.3671 76.5552 60.325
172 1 79.1125 76.7668 59.765
161 1 79.7345 78.4763 62.3962
22 1 76.8617 74.7459 59.6344
26 1 76.404 76.8297 59.3216
28 1 76.6002 77.1585 57.9632
27 1 76.7911 77.5382 58.8167
174 1 77.7518 77.1811 60.9566
173 1 78.8288 76.928 60.7449
29 1 75.634 77.2793 57.8567
222 1 64.491 -3.20427 64.2495
221 1 64.3139 -4.10343 64.6869
235 1 64.3134 0.488821 60.7838
227 1 64.5037 -2.23403 62.5796
229 1 64.771 -0.952858 62.9871
225 1 63.6591 -2.55774 63.6835
236 1 63.8902 -0.358641 60.6276
234 1 65.0126 0.0936735 61.3668
238 1 64.4846 -0.199685 62.2803
240 1 64.3629 0.267777 63.2138
239 1 64.0619 0.709685 62.3603
257 1 79.028 75.005 61.2369
179 1 79.638 75.75 61.8956
259 1 78.7423 74.7125 60.3117
244 1 79.3902 76.7454 62.7354
256 1 78.4053 74.7264 61.9727
178 1 78.8381 76.1392 61.4619
177 1 78.1273 75.9173 61.9929
163 1 80.3425 77.1797 61.1405
162 1 80.169 77.5729 62.0205
176 1 77.3991 76.3048 61.792
251 1 76.9296 76.3007 63.1967
250 1 77.4006 77.1221 63.4804
175 1 77.7827 76.1185 60.9353
223 1 64.6469 -3.19185 63.2624
226 1 64.5301 -2.14208 63.5485
224 1 63.7722 -3.13096 62.8339
237 1 63.9408 -0.152914 61.5563
241 1 78.9561 75.8297 63.5959
260 1 78.7415 75.6903 60.5385
243 1 78.3553 76.5364 62.9314
245 1 79.0092 77.6877 62.5789
246 1 78.7273 77.0556 61.8913
254 1 76.876 74.2541 61.7809
255 1 77.5613 75.0564 61.6983
242 1 78.7667 75.6353 62.7143
247 1 78.1946 78.0169 61.6555
248 1 77.7395 77.6378 62.4935
253 1 77.221 74.6671 62.5834
249 1 78.1947 77.8841 63.4251
252 1 77.5434 75.6538 62.7814
57 1 16.6644 43.7359 74.7795
58 1 17.5235 43.6008 75.1028
59 1 17.88 42.7234 74.5206
41 1 15.7524 41.5779 73.2453
43 1 16.2859 42.6793 73.6496
42 1 15.3888 42.3527 73.7364
60 1 18.2366 41.8756 74.9578
44 1 16.7343 42.7443 74.6026
51 1 15.5887 40.4126 73.9942
50 1 15.3914 40.6327 75.1052
56 1 16.0287 44.0506 74.0195
55 1 15.6149 43.2303 74.3304
54 1 15.8335 42.4845 74.9971
53 1 14.9306 42.1414 74.691
45 1 16.8543 42.8538 75.5057
46 1 17.4573 42.2673 75.685
49 1 16.2547 40.8447 74.7009
48 1 16.1217 41.7665 74.442
47 1 16.6482 41.7958 75.3256
52 1 15.188 41.2315 74.284
450 1 80.123 -8.89609 78.3393
449 1 81.0044 -9.44609 78.2201
451 1 80.04 -8.19633 77.6591
448 1 81.3927 -10.1554 78.7662
447 1 81.1222 -9.63281 79.579
453 1 79.2213 -8.27996 78.4206
454 1 78.694 -7.74088 79.1024
455 1 79.3617 -8.51799 79.4342
452 1 79.2407 -8.82017 77.648
443 1 81.5785 -8.14635 79.5553
444 1 80.7197 -8.54707 79.2656
445 1 80.3252 -8.37402 80.0347
446 1 81.0754 -8.93954 80.2924
442 1 82.1385 -8.31785 80.3634
441 1 81.3188 -7.84793 80.6309
457 1 80.0128 -10.0603 78.7764
456 1 79.8727 -9.31347 79.4203
458 1 79.8454 -9.84832 77.9921
460 1 80.4123 -10.0627 77.1257
459 1 80.2109 -9.26145 77.3354
66 1 7.96997 70.3934 79.9791
67 1 7.13653 70.9213 79.7843
61 1 6.16385 69.5716 81.4246
65 1 7.5264 69.5076 79.7978
68 1 7.73403 71.5885 79.235
63 1 7.10936 69.954 80.6333
74 1 8.27524 71.2469 80.9129
64 1 6.92354 68.9766 80.3567
73 1 7.39451 71.0887 81.2158
62 1 6.43887 70.4494 81.114
80 1 7.47693 73.1486 81.8205
79 1 7.4594 72.9097 80.8533
72 1 7.63185 71.8451 80.3192
71 1 8.57683 72.2375 80.7272
70 1 8.87533 72.2349 79.7467
69 1 8.48595 71.3324 79.8529
75 1 8.17763 71.0728 81.8469
76 1 8.81869 71.537 81.9882
78 1 7.74011 72.1045 81.498
77 1 8.58358 72.539 81.9516
ITEM: TIMESTEP
23000
ITEM: NUMBER OF ATOMS
500
ITEM: BOX BOUNDS pp pp pp
-3.0366182379696909e+01 9.0366182379697037e+01
-3.0366182379696909e+01 9.0366182379697037e+01
-3.0366182379696909e+01 9.0366182379697037e+01
ITEM: ATOMS id type x y z
299 1 38.1116 -18.782 -20.5019
298 1 37.5051 -19.3896 -19.898
297 1 36.8814 -20.1716 -19.5422
296 1 36.0275 -19.9659 -20.0514
294 1 35.9531 -20.9027 -20.5847
295 1 35.2139 -20.5954 -19.963
300 1 38.0596 -18.3538 -21.5016
281 1 37.9597 -20.3943 -19.7633
282 1 37.8464 -20.0534 -20.6827
293 1 36.7037 -20.6623 -21.0224
283 1 36.8671 -19.7855 -20.7008
284 1 35.8486 -19.696 -21.0232
290 1 37.091 -18.7459 -22.2148
288 1 36.9787 -20.4969 -22.8121
292 1 37.2885 -20.2211 -21.634
291 1 37.4901 -19.2704 -21.4431
289 1 36.9714 -19.5521 -22.6794
286 1 35.9971 -19.9789 -22.3211
285 1 36.5114 -19.4566 -21.7284
287 1 36.4759 -20.8178 -22.0786
145 1 53.0592 -14.6473 -2.13749
144 1 53.5469 -15.5819 -1.84587
146 1 53.3863 -15.0839 -2.89723
147 1 52.6545 -14.9962 -3.53336
141 1 53.3805 -16.9273 -3.30476
153 1 51.7344 -17.1983 -2.34641
142 1 53.5627 -16.2152 -2.71318
152 1 52.6048 -16.6589 -2.50825
150 1 52.4231 -16.153 -3.44169
151 1 52.6179 -15.7087 -2.4957
160 1 52.8701 -16.4474 -5.77181
143 1 54.0506 -16.5006 -1.81569
158 1 53.9899 -15.7985 -4.88581
148 1 52.8121 -15.2697 -4.38905
149 1 53.2651 -15.7739 -3.73248
155 1 52.4851 -17.1383 -3.89486
156 1 53.3714 -17.2343 -4.40916
154 1 52.3674 -17.6545 -3.10123
157 1 53.9489 -16.3936 -4.1597
159 1 53.0481 -16.2164 -4.95322
421 1 64.5119 -3.78733 0.17308
440 1 62.341 -1.37046 0.362651
116 1 22.2659 75.7158 -0.740323
103 1 22.9536 76.5066 -0.839338
101 1 22.2859 77.0827 -0.271235
117 1 22.3505 75.9416 -1.74382
301 1 63.6092 -4.06776 4.95375
302 1 63.9974 -4.14523 4.06051
426 1 64.475 -2.5179 1.25467
424 1 64.2907 -1.77608 0.239693
425 1 64.8417 -2.72085 0.428651
423 1 63.6226 -2.57343 0.595925
438 1 61.8577 -1.73794 1.30102
437 1 62.7358 -2.10856 1.66576
439 1 62.5415 -1.02733 1.27511
434 1 63.805 -2.90904 2.32565
422 1 63.8257 -3.19236 -0.203915
111 1 24.1999 76.1704 0.614401
113 1 23.9575 74.7167 -0.515271
102 1 22.8185 76.2436 0.107748
112 1 23.7626 75.2456 0.376458
114 1 23.3518 75.4453 -0.69876
115 1 22.703 75.0547 -0.0144984
109 1 25.2986 76.2014 0.167345
108 1 24.6072 76.9081 -0.0388202
110 1 24.9849 76.5277 1.10899
118 1 23.2305 75.5918 -1.82297
104 1 23.2187 76.6493 -1.70752
303 1 64.2292 -3.69529 3.16778
427 1 65.0467 -3.23225 1.42177
307 1 63.0317 -3.75468 2.21842
304 1 64.4053 -3.91095 2.32543
306 1 63.1344 -3.10783 1.48811
305 1 63.9245 -3.65537 1.43678
428 1 65.1481 -2.97195 2.31853
312 1 61.3504 -2.89134 2.39086
310 1 62.9447 -2.41676 2.62804
311 1 62.3069 -3.05964 2.3891
308 1 62.6858 -4.22999 3.08641
309 1 63.1762 -3.30752 3.15995
435 1 64.0276 -2.05105 2.03497
436 1 63.6025 -1.62023 1.34789
433 1 63.7483 -2.42136 3.33332
432 1 63.4957 -1.4542 3.57297
431 1 64.3142 -1.54085 3.83207
120 1 24.0123 76.3318 -2.29512
106 1 23.5633 77.1101 -0.178225
107 1 24.0283 76.1972 -0.428632
119 1 24.1201 75.8662 -1.49106
105 1 23.9005 76.9797 -1.12243
317 1 61.8053 -2.55389 3.54923
318 1 62.718 -2.59857 3.81848
313 1 61.8461 -2.14679 2.64076
319 1 63.491 -3.15876 4.20624
429 1 64.8896 -2.83433 3.18795
314 1 61.1287 -1.47727 2.42489
430 1 65.0591 -1.88787 3.406
316 1 62.3462 -1.62897 3.49391
320 1 64.5787 -3.2373 4.18786
315 1 61.5102 -1.39144 3.24158
18 1 82.3156 12.9982 27.9779
15 1 82.9414 12.5653 28.7512
16 1 82.1492 12.1288 28.5064
19 1 82.839 12.642 27.1472
17 1 81.7456 13.0286 28.7344
13 1 84.298 13.8681 29.3967
14 1 83.7648 13.0167 29.2665
20 1 82.953 11.9221 27.7874
5 1 84.3058 11.0157 27.1077
6 1 83.7995 11.7635 26.9539
4 1 83.5371 10.8945 27.6848
3 1 84.1159 11.6347 28.0765
12 1 83.84 13.6817 28.506
8 1 84.2979 12.5526 26.5011
7 1 84.3719 11.7068 26.1969
9 1 84.137 13.278 26.9706
10 1 83.6229 13.9149 27.5557
11 1 83.5342 12.9617 27.8762
1 1 85.4777 12.8246 27.4584
2 1 84.7651 12.1571 27.4891
383 1 78.3784 68.6799 34.5247
384 1 78.6231 69.6359 33.8502
385 1 77.7423 69.6766 33.2218
381 1 77.6309 68.7984 33.8127
392 1 75.6284 72.7573 32.4438
395 1 77.6155 72.9457 31.136
396 1 78.0383 72.6271 31.9661
394 1 77.305 73.3742 31.9455
397 1 77.2338 72.1063 32.2686
269 1 76.5462 69.2011 34.2069
270 1 76.4621 70.1157 34.6819
382 1 78.4332 68.556 33.4659
267 1 75.8379 70.4424 33.9262
389 1 76.1329 70.6422 31.6895
268 1 75.5407 69.4635 33.9167
386 1 77.1728 69.8517 32.4064
387 1 76.5477 70.0829 33.124
391 1 75.8938 72.3286 31.5101
390 1 76.1457 71.4914 32.2271
398 1 77.4871 72.8173 33.0437
388 1 75.7928 70.4424 32.6178
399 1 77.8466 72.0068 33.4124
393 1 76.5364 72.9468 32.4403
271 1 77.2333 70.1936 34.0326
265 1 76.9145 71.0621 34.9777
266 1 75.9885 71.4294 34.6072
272 1 77.8474 70.7307 33.4474
273 1 77.2962 71.1542 32.7725
278 1 75.133 71.0427 31.5814
279 1 75.2719 70.1434 31.2135
276 1 75.0566 72.0505 32.872
274 1 76.4751 71.1175 33.3497
400 1 78.0805 71.9614 34.3062
277 1 74.9497 71.5417 32.2268
280 1 74.9549 69.284 31.4476
264 1 77.1784 71.4799 34.047
275 1 75.504 71.4229 33.5917
263 1 76.7805 72.3863 33.8591
262 1 76.0348 72.8217 33.4307
261 1 75.5172 72.4979 34.3993
417 1 83.6857 78.1095 44.5705
418 1 84.4681 78.3024 45.0543
360 1 85.5921 79.724 44.4142
220 1 89.0942 80.2648 46.3605
217 1 88.2846 80.7654 47.025
218 1 87.9303 81.4015 46.4201
213 1 86.9503 81.997 47.9005
216 1 87.6187 80.6921 47.6652
215 1 88.295 81.0072 48.3097
83 1 85.6316 83.7091 45.1342
82 1 85.678 82.927 45.87
81 1 84.6786 82.6032 45.8851
212 1 87.73 82.6124 48.1335
415 1 83.8076 77.8055 45.5947
461 1 86.9211 78.3515 46.2773
419 1 84.4146 79.2106 44.5445
416 1 83.4282 78.5833 45.4868
414 1 83.2463 77.2679 45.3219
413 1 83.3172 77.0441 46.2052
341 1 82.1065 80.888 46.7906
359 1 86.0892 78.8565 44.3534
411 1 84.887 77.4855 46.5504
358 1 85.3071 79.0498 45.1862
357 1 84.6694 79.4161 45.7188
464 1 86.9148 79.615 44.8335
355 1 85.4112 80.6731 45.4929
420 1 83.6559 79.7762 44.9522
491 1 83.0669 78.8454 47.7843
342 1 82.987 80.607 47.1347
344 1 84.2052 80.1479 46.5179
343 1 83.3609 80.3881 46.2667
348 1 86.3243 80.7502 47.7878
356 1 85.2378 80.2063 46.2645
354 1 86.6137 80.6522 45.4905
351 1 87.1634 80.6386 46.4067
353 1 86.5939 81.565 45.9913
201 1 84.8078 81.1226 46.4418
349 1 86.0562 80.479 46.8743
203 1 85.8123 82.3429 46.9664
219 1 88.4479 80.8602 45.833
352 1 87.0649 81.4598 46.9301
331 1 82.7551 82.4398 46.2115
332 1 83.1222 81.4701 46.3809
333 1 83.9479 81.9594 46.478
88 1 84.4183 82.9469 46.9301
89 1 84.8005 82.0447 47.0313
202 1 85.7827 81.4426 46.7042
214 1 87.4527 81.719 48.6415
321 1 81.7354 83.0719 49.8031
84 1 84.8654 83.6191 45.9216
85 1 83.9396 83.4298 45.9712
87 1 83.7573 83.3844 47.725
211 1 87.6802 83.0507 47.1849
210 1 87.078 83.8576 47.3624
209 1 86.4084 84.3819 47.8542
410 1 85.2351 78.4861 46.4172
409 1 85.278 78.4935 47.4536
462 1 86.3634 78.6569 45.5697
469 1 87.1057 78.985 47.2304
490 1 83.5033 79.3907 47.1081
492 1 82.902 79.0785 48.7927
488 1 84.2713 80.2592 48.1388
403 1 84.9917 79.3269 48.0823
412 1 83.9095 77.45 46.8399
402 1 84.5281 79.3407 47.1253
401 1 85.3495 79.7045 47.1518
470 1 86.2623 78.5948 46.9808
471 1 86.8263 77.9291 47.3155
463 1 87.3584 78.7198 45.1928
465 1 86.1281 79.6727 45.397
467 1 87.7993 79.4197 46.3894
468 1 87.9031 78.4608 46.9774
494 1 82.6224 79.2236 50.2529
493 1 82.2687 78.7254 49.3789
489 1 83.4717 80.0296 48.0053
487 1 84.2613 81.2363 48.3957
345 1 84.7364 80.4118 47.207
347 1 85.789 80.9385 48.6148
350 1 86.9354 79.9557 47.0455
466 1 86.9057 79.4666 45.9022
475 1 87.9776 80.089 48.3769
338 1 82.7746 81.6536 47.4426
481 1 81.9011 79.512 47.7829
325 1 81.9983 81.1225 47.9126
336 1 83.8665 81.5643 47.5002
335 1 83.4112 82.058 48.1856
334 1 83.4745 82.4924 47.2366
337 1 83.1594 81.0609 48.1264
346 1 85.1455 81.0215 47.8709
91 1 85.5305 82.3372 47.9334
93 1 85.4059 82.0227 49.1234
92 1 86.2039 82.2152 48.6805
476 1 88.2017 79.2658 48.9044
477 1 87.5717 79.7442 49.5846
340 1 81.0907 81.4849 47.5977
324 1 81.4041 80.6346 48.4923
323 1 81.0907 81.4269 48.783
330 1 83.0198 83.2896 46.7287
339 1 81.848 82.1131 47.4546
329 1 82.427 83.115 47.3759
90 1 84.5115 82.4595 47.8352
97 1 84.3986 83.5565 48.6412
204 1 85.4831 83.2813 47.027
207 1 86.5088 84.2683 48.9055
205 1 86.1739 83.3348 47.6435
479 1 89.5577 80.1665 49.2875
478 1 88.6879 80.1343 49.589
322 1 81.3888 82.2947 49.291
328 1 82.8798 82.9126 48.1685
361 1 83.8774 82.6605 52.1753
86 1 83.9669 83.9172 46.8341
378 1 84.0149 84.6105 47.892
380 1 85.4319 83.92 48.3867
208 1 87.2437 84.4309 48.3649
206 1 86.7239 83.4971 48.4278
365 1 83.8302 80.8495 51.9198
362 1 83.0537 82.7986 52.5522
379 1 84.7164 84.006 47.5942
408 1 84.2852 78.3446 47.5846
407 1 84.8343 78.1884 48.4525
405 1 84.7317 79.4357 49.2073
404 1 84.1532 79.1604 48.4567
406 1 85.5417 78.7662 48.9116
472 1 86.7028 78.1166 48.3661
495 1 81.744 79.5447 49.7514
486 1 84.5983 80.6508 49.288
192 1 86.8961 80.3925 48.6186
196 1 85.4911 79.9404 48.9052
473 1 87.5441 78.5114 48.0293
194 1 86.0743 78.9051 48.0432
193 1 87.0153 79.3967 48.4289
195 1 85.8705 79.9014 48.1037
474 1 87.8941 79.3732 47.78
496 1 82.0026 80.1777 50.2821
497 1 81.7505 81.1417 50.3041
483 1 82.1481 80.6767 49.3791
482 1 82.3776 80.1742 48.4618
498 1 82.3297 81.9601 49.7061
484 1 83.0634 80.676 49.1631
485 1 83.7723 79.9451 49.2731
191 1 87.67 80.793 49.1708
128 1 86.563 81.3315 49.2467
189 1 87.5375 81.794 49.6854
190 1 87.9928 80.9985 50.1538
123 1 85.7509 79.0389 49.9884
327 1 82.3437 82.6295 48.977
326 1 82.2503 81.6746 48.6617
371 1 85.3697 83.2198 50.0425
96 1 83.8314 82.8541 48.8614
98 1 85.1178 82.9267 48.6787
95 1 83.7199 82.3707 49.6394
94 1 84.5309 82.1475 49.1247
188 1 86.7203 82.1025 50.1177
480 1 90.1779 79.4235 49.0105
124 1 86.5108 79.0791 49.3132
367 1 84.0145 81.7863 50.9935
366 1 83.3004 81.1479 51.0931
369 1 84.0451 82.9695 50.9878
368 1 83.246 82.1999 50.6993
370 1 84.6905 82.4994 50.2704
372 1 85.4266 84.288 49.9969
377 1 83.5144 84.0226 48.4329
375 1 82.9631 83.3762 49.8125
99 1 86.0374 82.9381 49.3164
100 1 86.9582 83.1322 49.874
364 1 83.4496 81.4454 52.5346
363 1 82.9898 82.049 52.0008
376 1 82.8609 83.5599 48.9672
138 1 83.3629 78.6253 50.9322
137 1 83.3501 78.9036 51.9456
139 1 83.6633 78.9608 49.8745
135 1 83.0098 79.6631 51.3511
197 1 85.1491 80.1492 49.9204
200 1 86.646 80.93 51.2808
198 1 85.6336 79.9404 50.5035
121 1 87.0697 78.2915 49.8665
499 1 82.9581 81.434 50.1068
133 1 83.3186 80.4192 50.3327
132 1 84.2856 80.654 50.4738
131 1 84.0001 81.2914 49.7767
130 1 85.0805 81.3135 49.8292
129 1 85.8625 80.9074 49.7812
127 1 86.882 80.9869 50
126 1 86.5096 80.2114 50.1878
199 1 85.7726 80.8571 50.8142
122 1 86.6831 78.8197 50.4858
500 1 83.1007 81.727 49.1312
181 1 85.128 79.9868 51.4631
186 1 85.596 81.865 51.0789
187 1 85.77 81.9403 50.186
125 1 86.3592 79.9489 49.401
373 1 84.8649 83.9419 49.4473
374 1 83.9504 83.4261 49.6075
134 1 83.8043 80.0572 50.9268
136 1 82.8813 79.6117 52.2944
140 1 84.3676 79.4911 50.3617
184 1 85.2917 81.9972 52.2326
183 1 85.7629 81.1385 51.7834
182 1 86.0193 80.2049 51.9024
185 1 84.837 81.5246 51.6552
40 1 80.2776 74.8482 59.9281
39 1 79.3833 75.0129 59.1979
29 1 78.5102 77.462 58.4378
28 1 77.7104 77.8406 59.1569
38 1 80.1246 75.7289 59.1635
31 1 78.4293 75.8852 59.5562
32 1 79.1851 76.4922 60.0216
21 1 79.1367 74.0864 61.1375
37 1 79.7879 76.7167 59.0723
35 1 79.1777 77.5573 59.297
36 1 79.5244 77.1163 58.4116
169 1 79.7444 79.1103 59.7312
168 1 80.6672 79.4878 59.3217
30 1 78.708 76.6737 59.0275
33 1 78.9322 77.1566 60.5966
26 1 77.4564 76.3943 60.0407
27 1 77.4579 76.758 59.0547
34 1 78.3049 77.1803 59.7473
170 1 79.6097 78.2112 60.0386
171 1 79.9623 77.3775 59.9261
235 1 67.585 -2.51284 64.3219
236 1 67.195 -1.6902 64.0637
22 1 78.8683 74.714 61.7656
259 1 81.6868 76.8226 61.9811
23 1 78.1836 74.8527 61.0971
24 1 78.9862 75.5427 60.7504
260 1 81.4182 77.0691 61.0942
167 1 81.1895 78.7433 59.2087
166 1 80.7397 78.0992 59.7843
165 1 81.4312 78.1705 60.3801
25 1 78.3313 76.1863 60.526
173 1 80.7166 75.8652 60.7844
164 1 81.4227 79.2258 60.2934
172 1 80.4398 76.588 60.1559
233 1 66.8429 -2.5723 63.4358
232 1 66.2416 -2.24705 64.0995
237 1 66.4006 -1.1255 63.7535
234 1 67.0848 -3.24832 64.2105
254 1 79.7447 76.841 62.7041
258 1 81.2489 76.0064 62.2331
256 1 81.6521 76.8773 63.0965
255 1 80.7282 76.9968 62.7634
178 1 79.7141 76.4255 61.0204
177 1 78.969 76.8386 61.6884
175 1 80.1209 75.841 61.9371
180 1 81.0628 77.6548 61.9428
257 1 81.6887 75.8349 63.1699
179 1 80.4706 76.813 61.5742
176 1 79.1251 75.8829 61.9078
174 1 80.2306 75.1007 61.0867
246 1 78.1576 77.3525 61.3051
163 1 81.432 79.018 61.2815
162 1 80.5836 78.4082 61.4784
247 1 77.2793 76.6963 61.2629
227 1 64.3348 -2.36201 64.2177
223 1 65.2897 -2.89215 64.6775
224 1 64.8835 -2.2421 65.3963
229 1 65.365 -1.18518 64.9691
226 1 63.7903 -1.99165 64.8886
228 1 64.9763 -1.50572 64.1254
231 1 66.7145 -2.3938 65.008
238 1 66.7282 -1.34893 63.0598
240 1 66.5778 -0.018847 62.1071
230 1 65.9496 -1.95547 65.1738
239 1 66.5305 -0.434493 62.9618
253 1 79.4251 77.7704 63.1246
252 1 78.6703 77.1944 62.6899
241 1 80.468 78.0369 62.7507
242 1 79.9308 77.7293 61.9971
251 1 78.3557 77.968 62.3129
250 1 77.4059 77.5084 62.1153
243 1 79.9867 77.6091 61.0125
244 1 79.1389 77.7981 61.3322
248 1 77.8092 76.035 61.5818
249 1 77.8541 76.5652 62.3028
161 1 80.3809 78.8062 60.6401
245 1 78.5239 78.1851 60.7088
221 1 65.6889 -2.21761 63.0928
222 1 65.5952 -3.17624 63.7267
225 1 64.2644 -3.02424 65.1488
41 1 16.2589 43.5235 75.1793
51 1 17.9354 44.0875 75.9946
49 1 17.8165 43.8003 77.0048
42 1 16.8195 43.0135 74.6591
53 1 17.7872 43.3629 75.2627
52 1 17.0439 43.7775 75.8715
48 1 16.7975 43.3947 76.8343
55 1 17.2598 42.4259 76.6679
57 1 16.6799 41.7554 76.1434
43 1 16.0418 42.4201 74.2404
44 1 16.278 41.9589 75.0816
59 1 17.494 41.4009 76.6334
56 1 16.4696 42.6494 76.2266
50 1 18.3055 43.2709 76.3838
54 1 17.5017 42.6573 75.776
47 1 15.7906 43.1216 76.9823
60 1 17.2237 40.5486 76.2436
46 1 15.4355 43.3263 75.9714
45 1 15.5826 42.4082 75.6287
58 1 16.6185 41.6629 77.1209
459 1 83.8159 -8.13456 80.1463
460 1 83.4452 -7.31133 80.2307
457 1 82.5582 -8.70878 79.8796
458 1 83.0573 -8.31018 80.6449
449 1 84.7441 -9.69176 79.6506
448 1 84.0085 -10.0423 79.0403
450 1 84.3815 -10.0766 80.4402
451 1 84.727 -9.00775 80.5246
453 1 82.9578 -9.74841 80.9881
452 1 83.87 -9.24273 80.9658
456 1 83.276 -8.37213 79.2762
447 1 83.2239 -10.438 78.8016
455 1 83.6144 -9.22344 79.7495
445 1 82.2759 -9.75178 79.5094
443 1 82.7388 -11.2647 79.7205
444 1 82.2087 -10.6129 79.0061
446 1 83.0825 -9.41794 78.8984
442 1 83.1283 -11.6588 78.9182
454 1 83.2844 -10.0614 80.0638
64 1 6.31749 70.9054 81.2448
65 1 6.98841 70.7068 80.6201
66 1 7.15304 71.3517 80.0063
67 1 6.24288 71.1728 80.0253
68 1 6.35619 72.1089 80.2885
72 1 7.77466 71.46 81.0908
69 1 5.89443 72.5928 81.1272
70 1 6.77175 72.7609 81.507
441 1 82.1281 -11.5549 78.8408
61 1 4.70902 72.0534 82.0388
63 1 5.54355 71.4226 80.8098
62 1 5.4503 71.4426 81.7332
73 1 7.88614 72.4656 81.4411
74 1 7.52982 72.351 80.628
79 1 8.58998 73.2432 80.9815
71 1 6.85386 71.7756 81.2687
78 1 8.02295 73.8797 80.3816
75 1 8.30106 72.3002 79.9426
76 1 8.63149 73.1684 79.6225
80 1 8.98413 74.1365 81.383
77 1 7.65654 73.2705 79.9324
ITEM: TIMESTEP
24000
ITEM: NUMBER OF ATOMS
500
ITEM: BOX BOUNDS pp pp pp
-3.2137672695333293e+01 9.2137672695333521e+01
-3.2137672695333293e+01 9.2137672695333521e+01
-3.2137672695333293e+01 9.2137672695333521e+01
ITEM: ATOMS id type x y z
287 1 37.5356 -21.4747 -21.0447
288 1 36.8914 -22.0022 -21.5562
289 1 37.3766 -22.0184 -22.3759
286 1 37.6408 -20.4563 -21.0481
290 1 37.9971 -21.1215 -22.027
294 1 37.3803 -20.2964 -23.6467
293 1 37.9686 -20.854 -23.0507
283 1 37.1176 -21.6989 -23.4116
284 1 37.0261 -21.1036 -22.5892
285 1 36.8656 -20.6456 -21.728
282 1 37.7162 -21.1842 -24.0608
292 1 37.3161 -20.1382 -22.4779
291 1 38.2106 -20.0787 -22.2073
300 1 35.4754 -21.1737 -23.1086
295 1 36.491 -20.6998 -23.428
297 1 36.068 -22.1231 -23.4051
296 1 36.2492 -21.4594 -24.0799
298 1 36.0181 -21.8588 -22.3487
281 1 37.0272 -20.6787 -24.5122
299 1 35.1616 -21.4853 -22.2081
160 1 54.3435 -16.0343 -2.49566
155 1 54.2446 -17.747 -2.87554
156 1 54.2329 -18.2167 -3.72775
157 1 53.6434 -17.4296 -3.78285
148 1 54.9057 -16.538 -4.49198
149 1 54.6541 -17.2133 -3.80663
159 1 54.1933 -16.2052 -3.49789
158 1 53.6099 -16.738 -3.10033
153 1 55.2548 -17.8621 -3.27617
154 1 54.9735 -16.9677 -2.88514
141 1 53.4381 -18.1026 -5.09002
152 1 55.2458 -18.2478 -4.24804
150 1 55.5858 -17.0971 -3.8567
146 1 54.603 -17.6868 -4.8612
147 1 55.4208 -17.3744 -4.95886
142 1 54.0118 -18.7735 -4.70651
151 1 56.1888 -17.8792 -4.22879
143 1 54.4281 -19.2984 -5.35706
144 1 54.9673 -18.4502 -5.58729
145 1 54.407 -17.6153 -5.79295
117 1 22.9769 77.2973 -0.878311
118 1 22.1886 77.1556 -1.46073
119 1 21.6344 77.8547 -1.95258
104 1 22.6374 78.8628 -2.78527
120 1 22.2352 78.3124 -1.19634
105 1 22.1277 78.1804 -3.36505
421 1 65.4201 -2.76426 0.761785
425 1 64.0478 -2.67255 0.349704
422 1 64.8405 -3.51646 0.969706
440 1 61.2903 -3.7171 1.30586
424 1 64.904 -3.00749 -0.0802494
113 1 23.1072 76.8072 -3.06254
116 1 23.6937 77.909 -1.25122
102 1 22.8929 78.1377 -2.04095
115 1 23.9113 76.9759 -1.66289
112 1 23.9411 76.4374 -2.68958
114 1 23.0115 77.0342 -2.01585
107 1 22.1767 77.2413 -2.70947
109 1 23.0743 77.0256 -4.31734
103 1 23.4073 78.9302 -2.01341
101 1 23.7838 77.936 -2.39636
106 1 23.0167 77.8066 -3.15765
108 1 22.3431 77.0702 -3.64101
423 1 64.4339 -3.8302 0.206056
306 1 63.2004 -2.97695 1.62141
426 1 64.561 -2.60446 1.34813
427 1 65.222 -3.11204 1.79345
305 1 63.7072 -3.51387 0.89894
438 1 61.8859 -3.73264 2.25039
437 1 61.9844 -2.80651 1.99174
439 1 61.0776 -3.33461 2.22033
436 1 62.2514 -3.41241 1.21536
111 1 24.2107 77.0337 -3.38027
110 1 23.7221 76.5012 -3.87492
307 1 62.8875 -3.32161 2.40756
308 1 63.1845 -4.03534 2.9785
303 1 64.9317 -4.57933 1.4119
304 1 64.1531 -3.93611 1.63077
312 1 61.9221 -4.01698 4.21172
310 1 63.4958 -3.05101 3.41367
311 1 62.6431 -3.52639 3.79599
309 1 63.6843 -3.83657 3.8403
434 1 63.142 -1.86683 0.989895
429 1 66.2184 -2.5754 2.50637
428 1 66.2469 -3.06699 1.64458
313 1 61.5975 -3.92813 3.27183
314 1 61.9728 -3.00513 3.12712
315 1 62.8006 -2.44169 3.09084
435 1 62.7347 -2.73083 0.575755
302 1 64.8374 -4.1658 2.40856
317 1 63.5572 -1.74077 2.64592
318 1 64.2843 -2.2733 2.4147
319 1 63.88 -3.15648 2.27025
433 1 63.5071 -1.24757 1.63979
320 1 64.668 -3.1595 2.7763
432 1 64.3934 -1.2088 2.18067
316 1 62.7273 -2.04215 2.12456
431 1 65.1935 -1.56913 1.98403
430 1 65.2783 -2.21475 2.54063
301 1 64.3046 -4.83451 2.71206
5 1 82.9401 12.6057 30.5881
7 1 82.9078 12.186 29.4389
19 1 83.7973 11.2952 26.9564
6 1 82.7598 11.7342 30.2609
8 1 83.0573 11.5294 28.8917
9 1 83.9175 11.6779 29.2418
4 1 82.9791 13.3808 29.8087
3 1 83.1172 13.1058 28.8731
18 1 83.6475 11.7598 27.8479
16 1 83.032 12.873 27.8084
20 1 83.0568 12.0038 27.0412
11 1 84.5803 11.9922 28.2522
1 1 83.9948 13.0301 29.7894
2 1 83.8507 13.6824 29.1896
12 1 85.1272 12.4143 29.0163
10 1 84.1313 12.5334 28.8452
17 1 83.9877 12.645 27.4021
15 1 83.426 13.7328 27.3404
14 1 84.2511 13.5042 27.7967
13 1 84.9856 13.1221 28.3705
279 1 76.8346 71.3467 31.8714
395 1 80.0409 72.801 33.6602
280 1 77.8574 71.3951 32.3235
389 1 79.5908 70.7726 33.1974
388 1 79.7206 71.4353 33.8594
386 1 80.0315 72.7727 34.8724
390 1 79.4816 71.2589 32.3178
278 1 76.5196 70.4067 31.7472
277 1 77.3258 70.3767 32.4712
397 1 78.2515 72.9841 33.3246
273 1 78.4602 72.7023 34.2709
392 1 79.503 72.3108 32.1783
391 1 78.7186 72.0429 32.7193
394 1 79.8976 72.0406 33.1119
393 1 80.2331 72.727 32.4705
396 1 79.1851 72.7712 33.2723
381 1 80.5564 70.9348 35.9847
269 1 78.1778 70.7734 34.1453
382 1 80.2711 71.841 36.1335
267 1 77.0298 70.6777 34.8691
268 1 77.7566 70.0517 34.5097
387 1 79.4409 72.1918 34.2597
271 1 78.3808 71.4611 35.1905
384 1 80.0128 71.7273 35.1245
385 1 80.616 72.3488 35.4199
276 1 77.6895 71.0563 33.1529
275 1 78.6302 71.1495 33.3166
274 1 78.286 71.9496 33.6618
264 1 77.0006 72.8141 33.2948
399 1 78.4062 74.3015 33.4705
272 1 78.0059 72.3868 35.1399
262 1 77.6475 72.4558 32.1056
398 1 78.4074 73.6396 32.7264
263 1 77.3902 72.0189 33.0307
383 1 79.3413 71.8597 35.7851
270 1 78.971 71.1194 34.4715
266 1 77.5118 71.4403 34.4388
265 1 77.3614 72.3005 34.1296
400 1 79.2429 73.8429 33.5194
261 1 78.5353 72.768 31.8557
414 1 85.3447 80.1084 45.9442
417 1 83.9635 80.3324 46.8954
418 1 83.9835 80.6687 47.7845
359 1 85.0458 82.3978 45.5763
358 1 85.557 82.0372 44.738
463 1 86.8125 81.8861 44.7633
419 1 83.1697 80.196 47.5754
420 1 82.8791 79.9576 46.5993
360 1 85.9343 82.908 45.3217
465 1 87.7025 83.3765 45.4948
464 1 87.1999 82.629 45.1724
83 1 87.0041 85.1851 46.8865
413 1 84.735 79.5559 46.5193
412 1 85.1421 79.269 47.3831
411 1 85.1756 80.2153 47.753
415 1 84.5292 80.5664 45.7543
416 1 84.8474 80.7927 46.7834
410 1 85.8044 81.071 47.2541
461 1 87.4152 82.3686 43.9834
462 1 87.4461 81.3007 44.0923
357 1 85.6414 81.2435 45.409
344 1 84.9152 82.6599 47.2872
343 1 85.0574 81.8582 46.8286
356 1 86.2351 81.4676 46.1441
466 1 87.9728 82.7406 46.0781
467 1 88.7718 82.136 46.0375
220 1 89.5264 85.2273 47.5396
341 1 83.9941 82.6073 47.625
332 1 85.3622 84.0524 45.3672
355 1 86.3972 82.3955 46.3781
201 1 87.5243 82.7992 47.8891
202 1 88.0784 83.4377 48.0755
354 1 86.7022 83.2129 45.9084
351 1 88.5942 82.5883 47.1834
353 1 87.2604 83.1508 46.7635
218 1 89.2674 83.8789 48.1034
219 1 88.8027 84.4668 47.4807
331 1 84.5889 83.6439 45.2843
330 1 84.8105 83.9201 46.2908
81 1 87.6218 84.2118 47.5
333 1 85.7066 83.5266 46.0161
82 1 87.3814 85.0411 47.8276
85 1 86.3044 84.5859 47.7714
84 1 86.0033 85.4457 47.1818
491 1 84.4842 80.0669 48.901
408 1 86.3222 79.4307 47.2481
409 1 85.875 80.2292 46.8264
194 1 87.9765 80.6878 48.6869
469 1 87.2571 81.4149 46.2843
470 1 87.7107 80.5804 46.3448
471 1 88.4854 80.5001 46.7289
473 1 88.8472 80.5084 47.7738
468 1 88.1886 81.4399 46.1985
481 1 83.0708 82.1943 48.485
490 1 84.5075 81.0455 48.7718
488 1 84.651 82.1357 48.3178
402 1 86.894 80.8265 47.1067
489 1 84.9697 81.2498 48.0028
345 1 85.742 82.0544 47.756
349 1 88.4817 81.6763 47.8156
403 1 86.4208 80.3153 47.8676
401 1 86.5801 80.435 46.1345
195 1 87.1913 79.968 48.48
350 1 88.6387 82.3636 48.2657
474 1 89.0337 80.2995 48.6688
340 1 83.4386 83.6677 47.5911
342 1 84.1822 81.7275 47.2778
338 1 84.5149 83.4381 48.2497
325 1 83.8737 84.5181 49.3342
337 1 84.953 83.3257 48.9982
336 1 85.5826 83.048 48.4139
346 1 86.0075 81.9404 48.7145
348 1 87.599 81.7939 48.1462
352 1 88.1166 83.4787 46.8934
217 1 88.653 84.5867 48.4462
216 1 88.9582 85.524 48.7829
339 1 84.3836 83.6313 47.4154
329 1 85.2693 84.5846 46.6922
328 1 84.6873 84.6142 47.516
88 1 86.2986 82.9869 47.3765
335 1 85.3424 83.9468 47.9718
334 1 85.4973 83.6438 47.1062
90 1 86.7347 82.5932 48.4713
203 1 88.3664 83.6247 49.0302
89 1 86.7408 82.1869 47.4916
91 1 87.639 82.7211 48.8181
204 1 87.6188 84.4212 48.7138
213 1 87.9293 84.3657 49.8058
205 1 87.2914 85.2662 48.9066
212 1 88.5538 84.4478 50.5217
211 1 87.7692 84.7667 50.8797
87 1 86.8836 83.601 47.8357
86 1 86.621 84.0927 47.2647
378 1 85.8208 86.7028 48.7672
379 1 86.4779 86.5453 48.1473
210 1 87.1085 85.1539 51.8306
209 1 86.7947 85.4725 51.0315
492 1 85.1667 80.689 49.5152
493 1 84.6595 80.9404 50.4831
407 1 86.2138 79.4998 48.3082
406 1 86.1358 79.2153 49.2516
472 1 87.8763 80.9665 47.4866
124 1 89.3388 79.1767 49.9178
482 1 82.9788 83.102 48.6512
405 1 86.1593 80.2564 49.4981
404 1 85.7275 80.3876 48.5469
485 1 84.1248 82.8702 50.055
196 1 87.0018 80.6645 49.127
192 1 88.5692 81.7668 49.163
193 1 88.2733 80.8871 49.6537
125 1 88.5732 79.5638 49.5033
475 1 89.3317 80.7101 49.5963
476 1 89.2828 80.5047 50.6256
477 1 89.9653 79.7413 50.9188
478 1 88.8758 79.601 51.2467
479 1 88.8816 79.0586 52.0421
480 1 88.3025 79.5976 52.1401
324 1 83.6431 84.3712 48.4232
323 1 82.9392 84.212 49.1344
483 1 83.7849 83.4166 49.1397
484 1 83.6127 83.7185 50.1246
326 1 84.3496 85.3564 49.0107
500 1 84.5621 84.8808 49.9655
487 1 84.9718 82.1317 49.2413
486 1 84.009 82.2836 49.275
347 1 86.7587 81.3188 48.3633
214 1 88.2326 85.0313 49.3325
128 1 88.1649 81.5697 50.3617
215 1 89.0972 85.2398 49.8456
191 1 89.4318 82.4459 48.95
322 1 82.2764 83.3714 49.2629
327 1 84.6609 84.5467 48.5552
96 1 86.2949 83.4867 48.8845
94 1 85.9012 82.7763 50.4664
93 1 86.8073 82.8778 49.9831
98 1 86.592 84.4787 49.5399
99 1 86.1575 83.7543 49.9512
92 1 87.307 83.5635 49.4817
376 1 85.37 85.4566 49.457
97 1 85.8319 84.1574 48.9723
377 1 85.0433 86.1585 49.2542
374 1 86.0179 86.0624 50.1068
380 1 86.347 85.6277 48.2143
373 1 85.1885 85.7083 50.5559
207 1 87.4656 86.2058 50.5564
208 1 86.5504 86.3651 50.9187
206 1 87.1092 85.3856 50.0199
138 1 86.6014 79.3866 50.3569
139 1 87.1226 78.664 50.8208
123 1 88.4644 78.6337 50.514
121 1 88.7406 77.8383 49.8559
122 1 87.9078 77.938 50.4562
495 1 85.5742 81.9732 51.3795
494 1 85.5949 81.5248 50.5849
496 1 84.6855 81.9497 51.47
133 1 86.6409 81.1232 50.0921
134 1 87.0352 80.8915 50.9908
140 1 87.1419 78.3556 49.6719
197 1 87.269 80.08 50.0075
198 1 87.7285 79.2503 50.1186
126 1 88.4457 79.9278 50.4308
497 1 84.7472 82.454 50.8141
499 1 85.0755 84.0981 49.8359
367 1 86.2965 83.1846 52.2692
132 1 86.0069 81.3214 49.5842
131 1 86.7298 81.9719 49.4669
130 1 87.5353 81.6416 49.2663
129 1 87.6938 82.3023 49.942
199 1 87.9105 79.3124 51.0621
189 1 88.9094 82.9993 50.7491
127 1 88.0554 80.5834 50.9175
190 1 88.7496 82.7458 49.6777
321 1 82.9363 82.6467 49.795
498 1 85.1118 83.216 50.2913
368 1 86.4293 83.9769 51.8796
95 1 85.7388 82.9151 49.4278
369 1 86.3104 83.5438 50.9815
370 1 85.438 84.1212 50.9023
371 1 86.0342 84.799 51.2314
187 1 87.3969 82.4203 50.9323
188 1 87.8784 83.1539 50.7105
100 1 86.8759 84.0865 50.4256
375 1 85.9993 85.1411 50.1499
372 1 85.599 85.6954 51.3658
137 1 85.8724 79.4054 51.2067
135 1 86.0434 80.6061 50.732
136 1 85.6676 79.8593 50.4071
181 1 85.4708 79.6362 52.3237
182 1 84.7469 79.7517 51.6518
366 1 85.445 83.3147 51.8929
365 1 85.3795 82.8883 52.887
186 1 86.5383 81.8561 51.1987
183 1 85.2843 80.4156 51.3949
185 1 86.2461 81.2155 51.7866
200 1 88.0782 78.2661 51.4304
363 1 86.422 82.061 52.223
361 1 87.3902 81.5648 51.6916
184 1 86.235 80.3276 51.7319
364 1 85.663 81.9789 52.9427
362 1 87.3284 81.7345 52.5698
39 1 81.8079 80.2183 59.0982
38 1 81.9349 79.1015 59.0491
27 1 79.9263 75.9809 62.0026
29 1 79.6452 75.4978 61.0892
30 1 80.5255 75.2916 60.8389
37 1 81.6483 78.3215 59.5455
35 1 81.1571 77.6339 58.7905
36 1 82.1048 77.9117 58.7772
28 1 79.925 76.4219 61.2019
167 1 81.6877 80.5827 60.4332
168 1 80.9633 80.3271 59.8823
40 1 82.5237 80.3081 59.7931
31 1 80.7985 76.299 60.7397
24 1 82.0388 76.4926 61.9421
25 1 81.1464 76.0425 61.7808
173 1 82.2753 79.1339 61.3042
26 1 80.5605 75.2583 62.0904
33 1 81.0965 77.0772 60.0036
34 1 80.4531 77.57 59.4376
32 1 81.52 76.8081 60.9442
171 1 81.3483 79.4077 60.2476
172 1 82.1539 78.8968 60.3048
245 1 78.6057 78.4718 60.9337
169 1 80.9153 79.391 59.282
170 1 80.6306 78.6751 59.7995
161 1 79.5544 80.5874 60.2195
166 1 82.1102 80.5186 61.2312
165 1 81.405 79.961 61.3881
164 1 80.6084 80.2786 60.8479
240 1 69.0586 -3.9972 66.1566
22 1 82.1077 76.1214 62.8768
23 1 82.7573 75.8236 62.3531
21 1 81.5765 75.3113 62.5773
248 1 80.5076 77.2146 61.4361
175 1 82.0404 78.2639 62.126
176 1 82.0647 77.3621 62.3878
174 1 82.5191 78.2875 61.3377
258 1 82.6478 77.3493 63.6606
247 1 80.3504 77.7532 60.6686
250 1 80.134 77.8468 62.5618
177 1 81.5305 77.5329 61.5941
246 1 79.3457 77.7038 60.8246
178 1 81.328 78.1325 60.7242
179 1 81.3362 78.7679 61.5844
242 1 80.1141 78.3805 61.6247
243 1 79.6375 78.7188 60.781
259 1 81.816 76.8059 63.901
260 1 82.1644 76.5998 64.6853
180 1 81.8009 79.2615 62.3491
244 1 78.942 79.2862 60.3236
163 1 80.4124 79.3951 61.0694
162 1 79.9552 79.6463 60.3311
233 1 67.2272 -3.97366 66.0926
221 1 67.0472 -1.98874 64.7852
238 1 68.7771 -2.9493 65.3941
239 1 69.5102 -3.17789 65.8894
257 1 83.2681 76.9396 62.8019
252 1 81.178 76.8929 62.4429
249 1 79.7224 77.0715 62.0824
254 1 81.9081 78.1166 63.194
256 1 83.0252 77.8854 62.6376
255 1 82.7775 78.8578 62.9362
251 1 80.5044 77.2213 63.1867
253 1 81.1948 77.8346 62.6397
241 1 79.5887 79.1083 61.8037
227 1 65.8197 -1.76974 65.9542
223 1 66.5474 -2.90809 63.9446
222 1 66.7623 -1.88026 63.8632
235 1 68.1538 -3.95875 65.3614
234 1 68.1586 -3.46297 66.2107
231 1 66.6121 -3.18907 67.687
226 1 65.6722 -2.60959 66.4347
228 1 66.6429 -1.67399 66.3946
232 1 67.1707 -3.38621 66.9268
237 1 68.0752 -2.27917 65.5258
229 1 67.4472 -2.1785 66.6558
236 1 67.6631 -3.09942 65.1243
225 1 66.3307 -2.71497 65.724
224 1 65.8735 -2.75375 64.8086
230 1 67.1268 -2.35355 67.4883
43 1 17.8256 43.7308 76.8665
42 1 18.7674 43.519 77.1694
60 1 16.0912 44.0394 78.4019
45 1 17.9258 43.3593 77.9893
57 1 16.7497 45.0644 77.2676
44 1 17.7138 44.3692 77.6336
46 1 18.3807 42.4826 77.9617
41 1 18.3747 42.7927 76.5364
52 1 16.8365 43.0167 78.5902
56 1 17.2972 44.7574 76.476
53 1 17.2204 42.7268 77.5953
54 1 16.9244 43.6924 77.7352
51 1 17.2988 42.062 78.6426
55 1 16.7825 43.9865 76.772
58 1 16.1815 44.8953 76.4831
59 1 16.0123 44.3532 77.4454
47 1 18.6597 41.6149 78.3992
48 1 17.8019 41.5577 77.8399
49 1 17.018 41.0309 77.4558
50 1 16.7476 41.8656 77.862
442 1 86.8294 -8.86768 78.5182
441 1 87.258 -9.71141 78.2154
447 1 85.3937 -10.1874 79.8947
444 1 86.3047 -9.56915 79.337
446 1 85.0098 -9.4002 79.5005
448 1 85.8765 -9.65034 80.5677
443 1 85.8355 -8.85199 78.7089
445 1 85.8511 -8.88986 79.8045
454 1 86.1219 -10.4435 81.5881
449 1 86.738 -10.1479 80.2074
450 1 86.2908 -10.9523 80.5008
457 1 87.7391 -10.7007 82.7749
456 1 87.5342 -11.3525 82.0085
459 1 86.4426 -11.7455 82.9662
451 1 86.6131 -11.4898 81.2551
455 1 86.8595 -10.692 82.1041
460 1 86.8063 -12.1064 82.1415
66 1 5.39502 72.5483 80.4592
67 1 5.49394 73.2229 81.1936
68 1 5.87864 73.3871 82.1229
75 1 7.02039 74.3863 80.3514
76 1 6.02081 74.4141 80.3483
77 1 5.72956 73.53 80.249
78 1 6.59309 73.7013 79.7341
453 1 85.4329 -11.1405 81.497
458 1 87.4403 -11.6403 83.2866
452 1 85.8191 -12.1248 81.2912
63 1 6.21095 72.1961 81.8552
62 1 6.87829 72.5507 82.3198
64 1 6.35819 72.6374 81.0769
65 1 6.32588 72.4995 80.0802
71 1 6.29579 74.4201 81.8712
72 1 6.89317 73.9464 82.3466
69 1 4.98803 73.8309 81.9956
70 1 5.48482 74.2226 81.1645
73 1 7.40015 73.9015 81.5234
74 1 6.5469 73.6664 80.9001
79 1 7.19581 72.8633 79.5166
80 1 7.30954 72.8598 80.5083
61 1 7.28168 72.5735 81.4726
ITEM: TIMESTEP
25000
ITEM: NUMBER OF ATOMS
500
ITEM: BOX BOUNDS pp pp pp
-3.3320528100689366e+01 9.3320528100689671e+01
-3.3320528100689366e+01 9.3320528100689671e+01
-3.3320528100689366e+01 9.3320528100689671e+01
ITEM: ATOMS id type x y z
296 1 36.9535 -21.3349 -23.4702
282 1 36.1626 -21.9647 -23.0258
281 1 36.4736 -21.2147 -22.5339
300 1 37.7637 -21.3233 -22.7055
284 1 36.6108 -22.0611 -24.1135
297 1 37.4315 -20.5155 -23.5098
298 1 38.4521 -20.6457 -23.2234
289 1 37.7073 -23.0634 -23.6171
293 1 35.4134 -21.9537 -23.9081
283 1 36.6749 -22.4964 -23.3898
295 1 36.1538 -20.9532 -23.9907
294 1 35.8657 -21.6009 -24.6833
292 1 35.8061 -22.7644 -24.1252
299 1 38.4932 -21.6422 -23.3284
288 1 37.7131 -22.0575 -23.7976
287 1 37.5239 -22.5664 -24.7519
290 1 37.4782 -23.641 -24.383
285 1 37.1801 -21.2532 -24.4394
286 1 37.3802 -21.7771 -25.2473
291 1 36.6903 -23.2345 -24.2839
143 1 56.1702 -17.7295 -3.98944
144 1 55.2848 -17.9354 -3.69866
145 1 55.1317 -16.9545 -3.88214
141 1 57.1758 -18.951 -3.13522
142 1 56.739 -18.0115 -3.18677
152 1 55.0372 -19.5363 -4.9927
146 1 55.3692 -17.3186 -4.77999
147 1 55.3724 -17.5091 -5.79286
151 1 54.6696 -18.8144 -4.40762
148 1 56.1178 -18.1411 -5.60715
109 1 21.8575 77.4619 -3.7231
156 1 56.3024 -19.4638 -3.39937
157 1 56.5501 -18.7232 -4.10931
158 1 57.4806 -18.4034 -4.06511
155 1 55.6026 -19.2463 -4.06188
149 1 55.5996 -18.3888 -4.82375
153 1 55.5307 -19.1372 -5.67616
154 1 56.0256 -19.4091 -4.86012
150 1 54.773 -18.4048 -5.37469
160 1 56.9025 -19.4868 -5.53655
159 1 57.2913 -18.7895 -4.99192
112 1 20.9666 78.1934 -5.00876
110 1 21.7236 78.2609 -4.21273
107 1 22.6802 78.3134 -3.89518
108 1 22.6737 77.6983 -3.14772
113 1 21.8069 77.9546 -5.33666
106 1 22.0883 78.5929 -3.10093
111 1 20.838 78.709 -4.16709
104 1 22.7222 79.4363 -3.44594
105 1 22.9746 78.7595 -2.69201
118 1 23.6734 79.214 -3.5431
119 1 23.0871 79.4117 -4.38856
116 1 23.597 77.834 -4.23635
115 1 23.0784 78.0503 -4.99822
114 1 22.4229 77.42 -4.66754
101 1 21.5949 79.1018 -5.21396
120 1 23.9482 78.7629 -4.40764
102 1 22.3187 78.8199 -4.7562
103 1 21.9518 79.3359 -4.03727
424 1 63.6557 -2.96654 0.0507682
423 1 64.2474 -3.59394 -0.615492
117 1 23.7771 78.2117 -3.34092
303 1 65.0249 -3.89467 2.268
304 1 63.9827 -4.18614 2.59818
440 1 63.4278 -4.71974 1.45943
436 1 62.8947 -3.98918 2.61749
306 1 64.4525 -4.39065 4.06755
305 1 63.518 -4.32761 3.53063
435 1 62.6947 -3.12831 2.1921
425 1 64.3782 -3.51186 0.608151
422 1 64.6592 -3.43001 -1.50898
426 1 63.6491 -2.84429 1.08271
421 1 63.7046 -3.0901 -1.68582
428 1 64.4999 -3.07345 1.57655
434 1 62.5897 -3.04065 1.19614
433 1 62.1819 -2.53985 0.583151
308 1 64.9286 -2.80065 3.53223
302 1 65.7673 -3.39795 1.75014
301 1 65.3427 -2.76583 2.46737
439 1 62.7071 -4.03747 1.36649
438 1 62.0308 -4.33176 1.97923
437 1 62.307 -4.74805 2.73511
314 1 62.4041 -2.61541 3.03005
307 1 64.6355 -3.77632 3.33464
427 1 63.6979 -3.72097 1.42741
319 1 64.4216 -2.19726 2.74931
320 1 64.3637 -3.17749 2.60382
429 1 64.9873 -2.35221 1.60541
315 1 62.0144 -2.19862 2.02176
317 1 63.6504 -1.52697 2.45597
316 1 62.649 -1.51757 2.28134
318 1 63.6036 -2.53161 2.24931
432 1 62.8531 -2.0679 1.37204
431 1 63.4235 -1.24118 1.34664
430 1 64.0941 -1.92982 1.1862
312 1 62.4425 -3.72617 3.569
313 1 61.7775 -3.42319 2.89798
310 1 63.5166 -3.19611 4.24781
311 1 63.2987 -3.35033 3.22641
309 1 64.0776 -2.67879 3.57898
19 1 83.0364 11.7938 30.8855
20 1 82.1699 12.0931 30.2939
18 1 83.3654 12.1249 29.9301
16 1 82.6278 11.4876 29.0851
11 1 83.5817 12.7889 30.7203
17 1 83.326 12.1763 28.9012
15 1 83.438 10.8744 29.1924
14 1 82.886 10.8881 29.9545
13 1 83.8061 11.1936 30.4295
8 1 83.1479 13.3122 28.693
7 1 82.5617 12.7697 29.4437
9 1 83.8416 13.0916 29.3709
1 1 84.0048 13.8526 27.6623
10 1 83.19 13.2571 30.0802
12 1 84.1743 11.9585 30.8719
4 1 82.612 14.2137 28.7241
3 1 83.5621 14.2695 28.6495
2 1 83.0561 14.1393 27.7757
5 1 82.9507 14.5314 29.575
6 1 82.313 13.71 29.8653
278 1 82.3563 70.9989 33.1065
277 1 81.3336 70.4645 33.3153
279 1 83.0709 70.3454 33.6432
280 1 82.7323 70.6231 34.3928
391 1 80.8849 71.5002 32.839
390 1 81.339 71.5729 33.7732
392 1 81.3523 72.3346 33.0429
262 1 79.0637 71.6877 33.2025
398 1 79.008 73.5366 33.2767
261 1 79.8512 72.2478 33.2407
393 1 82.228 72.7212 33.3712
269 1 78.4133 73.2768 35.3897
389 1 81.8023 72.1743 34.3932
276 1 80.4544 70.7236 33.6193
263 1 78.2764 72.07 32.7581
265 1 78.3557 72.3758 34.061
275 1 79.5325 70.9755 33.8182
274 1 79.6739 71.2946 34.7448
388 1 80.7996 71.9108 34.732
394 1 81.5593 73.2986 33.4665
264 1 78.0742 71.4957 33.7127
397 1 79.8166 73.3347 33.6778
396 1 80.7174 73.8369 33.3631
395 1 81.3464 73.6224 34.3354
399 1 79.3948 74.5779 33.3488
400 1 79.7756 74.336 34.3496
267 1 79.0266 71.5529 35.461
268 1 78.8612 72.48 35.8107
272 1 79.3817 72.5308 34.8342
266 1 78.6445 71.7775 34.7053
387 1 80.4987 72.5872 34.0828
271 1 78.9639 73.2223 34.33
270 1 78.845 74.001 34.9916
384 1 81.5195 72.5994 35.6394
273 1 79.4581 71.9364 34.1483
386 1 80.557 73.034 34.9096
385 1 80.8596 73.4479 35.8191
381 1 79.3381 73.5286 36.0389
383 1 80.6655 72.3068 36.2528
382 1 79.9555 72.7564 35.7099
462 1 87.1015 84.2876 46.0276
461 1 86.6319 83.6058 45.5948
358 1 87.015 83.4174 46.7276
357 1 87.5784 82.8656 46.1417
463 1 87.9254 83.9175 46.2245
331 1 85.1322 86.2225 48.0747
360 1 86.1701 84.141 46.9414
465 1 89.3816 83.9308 46.2822
464 1 88.6408 84.3568 45.7901
332 1 86.0632 85.8542 48.0802
420 1 84.6111 81.6228 48.7622
417 1 85.1082 81.773 47.0179
413 1 85.2613 80.8296 46.2045
415 1 85.3057 82.4802 46.1286
416 1 85.845 82.4009 46.9326
414 1 84.9408 81.7416 45.6802
409 1 87.6898 81.4058 46.7356
470 1 89.5777 81.2522 47.4874
401 1 89.3943 82.0082 46.2912
471 1 90.3842 81.254 47.9706
343 1 86.363 82.7768 47.8618
356 1 87.9969 82.4506 47.0013
469 1 89.1247 82.1675 47.3442
467 1 89.6339 83.2224 47.6159
468 1 90.0788 82.3947 47.2129
359 1 85.9491 83.3751 46.4449
355 1 88.7005 83.0694 46.9418
333 1 86.4562 86.6932 48.1623
354 1 88.5892 84.0816 47.0824
353 1 88.8679 84.9348 46.8419
466 1 89.8445 83.7092 46.9597
352 1 89.6966 84.9013 47.415
330 1 84.5384 85.4548 47.4425
329 1 84.2137 84.867 48.1515
83 1 88.6285 85.9088 48.7732
412 1 85.9959 81.4837 46.3319
419 1 84.2358 81.4559 47.8347
418 1 84.4628 80.8952 46.926
411 1 86.0403 81.4004 47.4209
408 1 86.9601 81.8913 46.3641
403 1 88.3561 81.1761 47.6448
407 1 86.8251 80.9045 46.2099
402 1 88.7584 81.3142 46.7052
473 1 91.2275 80.2775 49.2451
488 1 85.803 83.065 49.8244
489 1 85.5787 82.4064 49.1787
342 1 85.4354 82.7315 48.1551
410 1 87.0269 81.6157 47.3991
345 1 87.0417 82.2773 48.5109
348 1 88.2189 82.7898 48.8864
89 1 87.8358 84.2626 48.5707
472 1 90.5736 80.3115 48.4915
349 1 88.4509 82.9584 47.9566
344 1 86.252 82.849 48.695
341 1 84.8336 82.9501 48.7902
338 1 85.1324 84.1239 48.7294
339 1 85.408 84.3422 47.7601
88 1 86.9744 83.7868 48.334
201 1 87.7905 85.2869 48.5712
87 1 87.6065 83.9743 47.5201
202 1 88.4122 84.8093 49.2388
351 1 88.966 84.9553 48.2047
350 1 88.8463 83.9792 48.1723
340 1 85.1613 84.3109 46.5734
328 1 84.7553 85.5421 48.844
85 1 87.7144 85.733 47.6518
335 1 86.9088 85.4929 49.0286
334 1 87.2523 86.356 48.7438
81 1 89.7144 85.8094 48.7011
82 1 89.304 86.61 48.9986
86 1 88.1234 84.7566 47.6939
218 1 88.217 87.001 49.163
219 1 88.908 87.8875 49.4923
84 1 88.6738 86.0518 47.7595
380 1 85.0574 87.8118 48.7505
220 1 88.4607 88.5164 50.2131
379 1 85.356 87.4527 49.5372
406 1 86.9787 80.6347 47.2678
140 1 87.1551 77.861 49.3041
491 1 86.0058 81.3619 49.2708
492 1 86.9788 81.5621 49.265
405 1 87.3864 81.0145 48.0353
404 1 87.855 81.829 48.0631
195 1 88.7185 79.9507 48.8921
196 1 88.345 79.8043 49.8334
194 1 89.1222 80.4218 49.4285
474 1 90.9614 81.2531 48.9525
125 1 89.1774 79.3917 50.4398
475 1 91.0847 82.0349 48.3865
481 1 83.4351 85.9097 51.8749
490 1 86.0321 81.8837 48.4131
487 1 84.9458 83.2154 50.1751
346 1 87.0626 82.6038 49.6284
132 1 88.7705 81.187 48.7614
347 1 88.1212 82.5523 49.8962
131 1 88.6412 81.7219 49.5284
130 1 89.439 81.2668 49.8752
192 1 89.7616 81.4184 48.8172
193 1 89.4261 80.4863 48.4986
482 1 83.3573 85.959 50.8751
322 1 85.0189 86.1555 51.0231
337 1 85.8533 84.813 48.6352
483 1 84.1781 85.2962 51.1934
486 1 84.8461 83.1664 51.1908
336 1 86.7909 84.9266 48.1459
96 1 85.9794 84.0485 49.3659
95 1 86.7027 83.4859 49.366
90 1 88.4781 83.7861 49.0777
91 1 87.7294 83.8737 49.6656
92 1 88.1762 84.3364 50.4211
203 1 87.5059 85.1482 49.815
190 1 89.1954 82.3989 48.6068
191 1 89.9957 82.3962 48.2558
324 1 85.6005 86.7474 50.4009
323 1 84.5608 86.7793 50.6529
325 1 85.1438 86.104 49.8885
327 1 84.353 84.7176 49.1966
97 1 86.9637 84.485 49.1967
204 1 87.834 86.2618 49.6938
98 1 86.5798 85.0903 49.9611
217 1 87.327 87.4601 49.4076
214 1 88.8423 85.8056 49.8089
326 1 84.4507 85.3361 49.9326
377 1 86.8226 86.3786 49.706
376 1 86.9943 85.8802 50.3488
205 1 88.1945 86.2025 50.7066
216 1 87.8125 87.1365 50.2275
378 1 86.2185 87.1901 49.4531
121 1 88.036 77.2147 51.0067
122 1 87.7361 77.9096 50.3428
137 1 87.6639 80.0534 48.532
138 1 87.0551 79.2546 48.5109
139 1 87.4257 78.4872 48.5306
198 1 87.3126 79.3532 49.7986
199 1 86.8108 79.9609 50.4126
123 1 87.6103 78.7741 50.7542
124 1 88.4303 78.6335 50.1598
135 1 86.8209 80.2017 49.2783
136 1 86.602 80.3008 48.3738
197 1 88.0449 79.1792 49.0252
476 1 90.6341 83.0029 48.9185
126 1 89.2107 79.1165 49.5943
127 1 89.8128 79.5355 49.0433
477 1 91.1282 82.3227 49.5221
493 1 87.6313 81.578 50.0585
494 1 86.7052 81.9743 50.5037
133 1 87.867 80.9451 49.1447
134 1 87.5168 80.5142 49.8678
128 1 90.33 79.8238 49.9026
321 1 85.0058 87.0477 51.6677
485 1 84.7404 84.124 51.1001
497 1 85.8939 84.0705 50.6028
94 1 86.8394 84.015 50.2498
498 1 84.9656 84.3799 50.0721
369 1 87.4832 83.6975 52.0206
93 1 87.4925 83.7245 50.9016
129 1 90.1289 80.6415 49.437
187 1 88.8161 83.3421 50.2073
188 1 89.5996 83.9126 49.9167
189 1 89.4135 83.3947 48.9724
484 1 85.0831 85.0835 51.1897
500 1 85.8454 85.8316 49.1308
99 1 87.0225 84.7618 50.8638
499 1 85.4779 85.0125 49.6084
370 1 86.6875 83.4488 51.5932
211 1 88.0468 84.4244 51.5988
100 1 87.0752 85.1199 51.7374
213 1 89.04 84.8974 50.1708
212 1 89.004 84.6233 51.1532
374 1 86.0337 85.9425 51.8497
373 1 86.1114 85.3459 51.2056
375 1 86.864 86.1608 51.1887
209 1 87.5299 85.8436 52.9344
207 1 87.898 86.0882 51.7244
208 1 87.1627 86.5249 52.2507
206 1 88.0979 85.1708 51.0458
215 1 88.8759 86.8046 50.0313
479 1 89.6473 83.2691 50.8572
200 1 86.0341 80.3386 49.9358
182 1 87.707 80.6336 51.0611
181 1 87.2145 79.8515 51.4266
183 1 86.9422 81.2752 51.2736
184 1 87.6191 82.0851 51.386
478 1 90.1435 82.698 49.9806
480 1 89.19 82.2346 50.7929
496 1 86.133 83.1517 50.7839
495 1 85.8977 82.2105 50.4774
185 1 87.9826 82.8808 50.9466
363 1 85.7015 82.681 51.7265
186 1 88.6832 83.5163 51.2872
361 1 87.0882 82.7146 52.4014
362 1 86.5939 82.4018 51.5053
367 1 87.7779 83.5987 53.2302
366 1 86.7817 83.9074 52.9548
368 1 88.2215 84.0704 52.5719
371 1 85.6889 83.6743 51.933
372 1 86.2324 84.452 51.4701
210 1 87.8892 85.0464 52.3983
364 1 86.0899 82.4221 52.6094
365 1 86.1634 83.3132 52.7914
34 1 83.9727 77.6566 59.5706
35 1 83.3494 78.2818 59.85
36 1 82.5133 78.6891 59.4074
38 1 82.4561 79.6271 59.0276
37 1 81.6027 79.1169 59.1325
169 1 81.6417 78.5241 60.019
39 1 83.3243 78.9877 58.819
30 1 84.1341 76.7629 60.9621
31 1 84.3329 77.7615 61.4445
246 1 81.492 77.53 60.3633
247 1 82.1637 77.454 59.7597
33 1 84.7881 77.1196 60.01
32 1 84.8162 77.8653 60.5578
245 1 80.7919 77.0629 60.7136
244 1 80.2544 77.5806 61.3428
170 1 81.8956 79.5557 60.0355
243 1 81.1707 77.8712 61.4562
163 1 79.9161 79.2491 62.445
171 1 82.573 79.0055 60.3561
172 1 82.5112 79.8363 60.8335
178 1 83.3421 77.8169 61.963
161 1 80.3404 79.8954 60.9392
164 1 80.4502 79.892 63.1678
162 1 79.951 80.0406 61.8523
167 1 81.5481 79.9255 60.9805
168 1 81.4117 78.794 60.883
40 1 83.2051 79.7068 58.2296
27 1 81.4578 76.7118 61.6802
29 1 83.1287 76.8405 61.3519
28 1 82.2107 76.251 61.2999
26 1 80.9599 76.7623 62.6606
24 1 82.2753 77.8982 63.6222
25 1 81.6365 77.2192 63.1155
23 1 83.1611 77.4595 63.1803
248 1 82.4973 77.9063 60.4875
249 1 82.1408 77.479 61.3024
176 1 83.5059 79.2534 62.4752
177 1 83.1157 78.4099 62.667
252 1 81.3575 78.3597 63.2544
242 1 80.867 78.7985 61.881
241 1 79.9853 78.8932 61.2587
175 1 83.1899 79.9892 61.8532
179 1 83.5348 78.4375 61.2443
180 1 82.472 78.5763 61.4055
173 1 83.3373 79.798 60.3285
174 1 83.8422 79.4269 61.288
166 1 81.8025 79.6683 61.7964
165 1 80.8296 79.8386 62.2227
222 1 69.1206 -2.8439 66.8581
22 1 83.3544 76.9959 62.5584
21 1 83.6192 76.2719 62.0724
250 1 81.9074 77.6315 62.2005
251 1 80.9364 77.8616 62.6289
259 1 82.5706 79.6882 62.5976
253 1 81.9224 78.7898 62.534
258 1 82.4118 80.0576 63.4706
257 1 82.3463 81.0743 63.1213
256 1 82.2498 80.63 62.2303
254 1 81.4653 79.4614 63.0794
255 1 81.3716 80.4369 62.7877
223 1 68.9177 -2.10731 66.2233
224 1 68.2639 -2.28607 65.7197
236 1 69.2585 -4.90523 67.7078
221 1 68.7841 -3.48571 66.118
260 1 82.5977 79.0589 63.3107
233 1 68.132 -3.29963 67.174
240 1 67.9119 -4.87871 68.0506
235 1 68.3865 -5.10094 67.0438
226 1 67.5877 -2.94203 66.3027
225 1 67.2549 -2.14091 65.6965
238 1 68.6214 -4.11029 67.911
239 1 68.6883 -4.6796 68.6423
234 1 67.9984 -4.13718 66.6221
227 1 67.8171 -2.13894 67.065
228 1 68.1931 -1.25458 67.2062
237 1 69.3546 -4.07359 67.1921
229 1 68.7214 -1.95989 67.9216
231 1 67.7279 -3.57274 68.5713
232 1 67.3821 -3.4685 67.5529
230 1 68.227 -2.82263 68.2492
41 1 16.1366 42.0319 77.6776
58 1 20.6376 45.2163 80.0951
56 1 19.6331 44.2124 79.6963
49 1 16.5926 43.1495 78.1118
50 1 17.0591 43.6377 77.4764
46 1 16.3608 42.5849 78.9143
48 1 15.8785 43.6329 78.6006
53 1 17.9779 43.9344 78.3225
54 1 18.5465 43.1038 78.2659
55 1 18.8943 43.8019 78.9642
43 1 17.6483 42.6795 77.5771
45 1 16.9916 43.1147 79.3612
42 1 16.7494 42.6509 77.1089
57 1 19.7014 45.1705 80.1594
59 1 21.1209 44.6744 79.405
44 1 17.4941 42.7668 78.5725
444 1 89.8358 -9.49894 82.1035
441 1 90.2714 -8.51708 82.9101
443 1 90.0364 -10.0463 82.9031
442 1 90.8283 -9.29001 82.798
51 1 16.7337 44.2666 78.1439
47 1 15.4472 42.6991 78.4956
60 1 21.7901 45.4038 79.487
52 1 17.3441 44.0683 78.9578
447 1 88.1709 -10.2845 81.8408
448 1 88.7932 -9.93403 82.5795
450 1 89.6273 -11.5751 82.3687
449 1 88.9066 -10.8927 82.3832
446 1 89.0597 -10.1472 81.4674
445 1 89.8656 -10.3908 81.8025
66 1 5.76544 72.76 81.3146
77 1 5.40228 73.9139 79.8838
78 1 4.48528 73.9744 80.2851
65 1 6.6123 72.7945 81.5742
79 1 4.9535 73.1386 80.5154
80 1 4.6884 72.5609 81.1246
75 1 5.88695 74.9093 79.9732
76 1 5.73463 74.3127 80.7675
453 1 88.0512 -11.4138 81.1698
452 1 88.745 -11.2016 80.5726
456 1 88.7678 -12.6317 79.6317
451 1 89.0816 -11.5509 81.43
460 1 87.9598 -12.1854 80.3569
454 1 88.4378 -12.3658 81.3215
455 1 88.9986 -12.3134 80.6388
63 1 6.36677 73.6449 80.3921
67 1 5.19806 73.694 81.5789
68 1 6.04826 73.6731 82.1804
64 1 7.01196 73.5949 81.1649
74 1 6.5645 74.8693 80.4832
61 1 6.12361 73.9079 79.0169
69 1 6.23341 74.5077 81.6161
70 1 5.36183 74.6925 81.7671
71 1 5.17037 75.3045 81.0302
73 1 6.93303 75.8905 80.9182
459 1 87.5601 -11.9806 79.4478
458 1 87.9333 -11.0747 79.93
457 1 88.7041 -11.6398 79.6339
62 1 6.87482 74.0312 79.7699
72 1 5.99251 75.727 80.7045
ITEM: TIMESTEP
26000
ITEM: NUMBER OF ATOMS
500
ITEM: BOX BOUNDS pp pp pp
-3.3726679160647770e+01 9.3726679160648416e+01
-3.3726679160647770e+01 9.3726679160648416e+01
-3.3726679160647770e+01 9.3726679160648416e+01
ITEM: ATOMS id type x y z
286 1 36.8874 -22.637 -22.8827
290 1 38.2498 -22.2585 -24.1354
292 1 36.8754 -21.1444 -23.5706
291 1 37.7029 -21.4454 -24.176
289 1 37.6415 -22.9602 -24.331
288 1 36.7924 -23.1926 -23.8691
287 1 37.6593 -23.1095 -23.3693
293 1 36.5709 -21.462 -22.7218
284 1 36.9092 -22.2051 -24.0397
295 1 35.8909 -22.6195 -23.9212
294 1 36.1245 -21.9183 -23.4246
285 1 37.5647 -22.0066 -23.2431
297 1 37.2523 -22.1007 -25.0124
283 1 36.2079 -21.6074 -24.5314
296 1 36.325 -22.6233 -24.8756
282 1 35.3448 -21.553 -24.976
281 1 36.0383 -21.688 -25.6742
300 1 36.9386 -21.1213 -25.3466
298 1 37.5354 -21.9206 -26.0265
299 1 38.0548 -21.1978 -25.4473
160 1 55.9614 -19.5363 -4.19158
150 1 57.02 -19.8377 -4.42678
148 1 57.1162 -18.7839 -4.61758
153 1 56.4678 -18.6493 -3.33707
147 1 57.7097 -18.1628 -4.11285
113 1 21.7625 78.8299 -4.4723
101 1 21.921 80.2282 -4.70341
152 1 57.4199 -19.1206 -3.54828
155 1 56.414 -17.918 -5.02691
154 1 56.498 -17.9049 -3.99577
151 1 56.8602 -19.9408 -3.49079
157 1 55.1627 -19.1052 -4.6687
149 1 57.8056 -19.4384 -4.48153
158 1 55.5291 -18.5031 -3.94812
159 1 55.6047 -19.3984 -3.3461
145 1 58.935 -18.1543 -4.88882
143 1 57.9082 -18.3321 -5.37759
146 1 58.4764 -18.6363 -4.28217
114 1 21.3536 77.9321 -4.75367
116 1 21.8534 77.5438 -5.80751
112 1 22.3764 78.2672 -3.71705
111 1 22.7483 79.1328 -4.13897
110 1 23.2948 78.9562 -4.96707
107 1 21.9104 78.5522 -5.65383
102 1 22.4739 80.3817 -5.63675
115 1 20.9624 77.9704 -5.71676
120 1 20.8449 78.825 -5.17683
103 1 22.3127 79.4867 -5.36657
119 1 21.3041 79.596 -5.58925
156 1 56.0296 -18.8986 -5.01187
144 1 58.5753 -18.9978 -5.29965
141 1 56.8408 -18.6284 -5.78823
142 1 57.5127 -19.3956 -5.7116
109 1 23.268 78.2747 -4.32497
108 1 22.5492 78.1679 -5.08719
106 1 22.689 78.5964 -6.18435
105 1 22.0341 79.2606 -6.45334
118 1 21.0807 78.8883 -6.25163
117 1 21.5139 78.0993 -6.5759
104 1 22.9196 79.7102 -6.20541
421 1 63.2225 -4.25246 -0.0941405
422 1 63.6061 -3.96727 0.743162
424 1 62.7755 -4.21281 1.7492
423 1 63.0439 -4.82673 1.06606
440 1 63.8427 -4.32072 1.82875
439 1 63.407 -4.618 2.69205
433 1 61.6516 -3.28011 1.81823
426 1 63.0492 -3.19494 1.87439
434 1 62.2908 -3.44177 2.64343
427 1 63.6306 -2.38596 1.93837
425 1 62.4826 -3.3299 1.21316
428 1 63.7195 -2.78717 1.06173
302 1 65.4692 -2.51567 1.44748
432 1 61.8744 -2.48978 1.28386
431 1 62.1185 -1.63638 1.42615
429 1 62.9139 -2.29361 1.1234
430 1 62.2865 -1.99471 0.503608
438 1 64.4801 -4.4043 2.76085
437 1 64.3021 -3.71708 3.36157
436 1 63.6867 -3.54046 2.7141
303 1 64.8339 -3.18107 0.816994
304 1 64.427 -3.34736 1.80092
313 1 62.083 -1.062 4.20978
435 1 62.9583 -3.66546 3.3264
314 1 61.6712 -1.00226 3.2833
318 1 62.5288 -2.37672 2.15328
311 1 62.6127 -2.84295 3.8426
320 1 63.276 -1.28789 1.75187
301 1 64.6996 -2.06275 0.950266
315 1 61.6447 -1.17836 2.36573
317 1 61.9677 -2.09484 2.9726
316 1 61.3611 -2.18898 2.12084
319 1 62.6936 -1.48491 2.45226
305 1 64.6852 -3.06558 2.62687
306 1 64.1458 -2.31434 2.89889
307 1 63.2026 -2.28113 3.02993
312 1 62.633 -1.76405 3.83858
310 1 62.5175 -2.72694 4.82532
308 1 63.6807 -2.88307 3.71517
309 1 63.5596 -2.86185 4.57865
2 1 82.9747 13.3001 28.5902
1 1 83.0813 12.4152 28.5925
16 1 81.4327 13.2586 30.9222
15 1 80.9183 13.3135 31.7529
14 1 81.5984 14.0104 31.9016
18 1 80.4167 14.1724 30.1529
17 1 80.4944 13.3315 30.6436
7 1 82.4563 12.3526 29.4841
9 1 81.7132 12.3213 30.4078
8 1 81.3618 12.3085 29.4204
4 1 83.6086 12.2842 29.4595
5 1 83.1224 12.1203 30.3101
6 1 82.8029 11.4021 29.8461
3 1 83.2052 13.1568 29.6819
13 1 82.2951 13.5032 32.2423
19 1 80.1049 14.5859 30.9629
20 1 81.1583 14.4044 30.8419
11 1 82.1979 13.9173 30.9004
12 1 82.8989 13.3921 31.4175
10 1 82.3177 13.1198 30.3633
263 1 79.8214 71.9237 34.584
276 1 80.5176 71.1704 36.6942
277 1 80.6171 72.2285 36.622
279 1 81.7609 71.941 36.561
262 1 79.7638 72.3961 33.6363
264 1 80.2165 71.2183 33.942
275 1 80.7073 70.407 35.8842
273 1 81.6416 70.8027 36.72
391 1 81.5983 71.7739 34.0746
390 1 81.7662 72.6837 34.5142
278 1 81.1912 71.7734 37.289
398 1 82.9152 73.9687 32.2813
265 1 81.2096 71.0672 33.4175
261 1 80.403 71.786 33.1198
397 1 82.3593 73.273 32.9953
387 1 80.1614 72.7583 35.3956
392 1 82.2826 72.2813 33.5109
394 1 82.567 73.1253 35.2852
393 1 82.7651 72.911 34.1907
399 1 81.9022 74.2895 32.7174
396 1 81.8745 73.6674 33.8937
280 1 81.7699 72.2982 35.769
267 1 81.3939 70.1619 34.3508
266 1 80.7992 70.0734 33.497
274 1 80.8761 70.1736 36.7956
389 1 81.5832 73.1639 35.2512
388 1 80.8965 73.222 35.8132
269 1 80.2448 71.0142 35.0622
271 1 81.0238 71.5273 35.7532
272 1 82.0109 71.0644 35.7132
386 1 80.6036 72.5726 34.5562
395 1 82.3102 73.8158 34.651
270 1 80.185 71.6602 35.6148
400 1 81.1949 73.8034 33.0391
268 1 80.2656 70.2754 34.4098
381 1 79.8857 73.6084 34.6289
383 1 80.482 74.5369 34.7058
382 1 80.1303 74.133 35.4773
384 1 80.4883 74.1619 33.8736
385 1 80.8833 73.1795 33.9922
413 1 86.0994 82.8848 46.9087
414 1 85.2169 83.3046 47.259
412 1 86.8735 83.5376 46.7643
409 1 87.2295 82.2047 45.4174
408 1 86.7601 82.3197 46.3323
407 1 86.9585 81.5079 46.8519
402 1 89.8269 83.0221 46.3947
401 1 89.9186 82.7105 47.398
415 1 85.084 82.278 47.0736
359 1 88.8812 84.6421 45.672
358 1 88.6243 84.3273 46.5439
357 1 88.8252 83.4953 46.2856
340 1 84.2317 83.18 47.7495
462 1 90.0367 83.8138 45.7482
461 1 89.2525 83.2314 45.359
463 1 89.9347 84.3673 46.4312
464 1 90.3153 83.9513 47.3096
465 1 90.5232 84.543 48.0129
353 1 90.2008 85.1393 48.7122
406 1 87.8473 81.7611 47.2135
419 1 86.1844 81.92 47.3934
418 1 86.4017 82.3582 48.2591
417 1 85.9129 83.1303 48.3846
411 1 87.7439 83.5388 46.476
410 1 87.5106 83.1865 45.7423
405 1 87.9326 82.4032 46.6022
403 1 89.0303 82.3688 46.6451
404 1 88.612 82.888 47.1605
470 1 91.6149 82.5767 48.3994
471 1 90.6801 82.2296 48.0436
416 1 85.4426 82.4076 48.0175
342 1 85.6993 84.0741 46.4579
343 1 85.9994 83.9874 47.5238
356 1 89.2641 83.7113 47.099
355 1 89.3596 84.5356 47.4722
349 1 88.2241 84.0821 47.607
469 1 91.3697 82.8813 49.3386
467 1 90.879 84.1579 49.0832
468 1 91.5668 83.643 48.7612
191 1 89.0032 82.439 47.924
329 1 84.9148 87.2046 50.6329
360 1 88.1236 84.242 45.0339
339 1 84.7166 82.8598 48.493
87 1 87.6134 84.9527 47.3563
354 1 89.3322 85.2762 48.1476
350 1 88.8107 83.5196 48.0975
86 1 88.4289 85.4865 47.5895
466 1 90.5865 83.5776 48.2347
330 1 85.7802 87.3788 50.1247
331 1 85.7136 86.5055 49.5175
332 1 86.1204 85.5988 49.4219
336 1 84.4287 85.5766 49.5718
351 1 89.6713 83.9419 48.256
85 1 89.0385 85.2801 46.6635
84 1 88.9829 86.1379 46.2505
352 1 89.799 84.4505 48.9775
333 1 85.5539 85.1849 48.8126
140 1 86.2579 80.0602 47.6092
138 1 87.5832 80.7033 48.7361
139 1 87.314 80.3641 47.8195
197 1 87.6718 78.6339 49.8099
126 1 88.327 80.3359 49.9008
137 1 87.0711 79.945 48.7475
135 1 86.8608 81.2425 47.8867
136 1 86.5195 80.8775 48.5928
195 1 87.9495 79.5547 48.2808
194 1 88.9422 79.8517 47.7665
193 1 88.4182 80.6716 47.4975
127 1 89.2936 80.3747 49.6433
129 1 88.8863 79.8193 48.8323
473 1 89.6517 81.6002 47.4915
472 1 90.6161 81.3688 47.5451
420 1 85.795 81.0034 47.4563
491 1 86.7691 83.5033 49.0992
490 1 86.1368 82.6607 49.2459
492 1 87.2426 82.6535 48.7842
132 1 88.07 81.7147 49.4639
131 1 89.0388 81.3245 49.1927
133 1 88.2179 82.3576 48.6482
192 1 88.4542 81.41 48.1665
474 1 89.3235 80.7996 47.7732
475 1 89.8252 80.7354 48.6697
341 1 85.6656 84.8624 46.965
489 1 85.9572 81.728 49.1107
344 1 86.7711 83.3097 47.9079
345 1 87.154 82.5716 47.3714
346 1 87.7308 82.9482 47.9776
348 1 88.5387 84.5134 48.3342
190 1 89.5105 83.0218 48.6414
189 1 90.3353 82.9285 49.2257
476 1 90.419 81.296 49.4049
477 1 89.6671 82.0933 49.509
327 1 84.1251 86.4119 50.6208
338 1 84.9701 83.926 48.7295
337 1 84.5381 84.6853 49.2132
96 1 86.1791 85.5686 50.4706
88 1 86.8768 84.4791 47.3021
95 1 86.2181 84.5484 50.514
97 1 86.3366 86.4331 50.822
89 1 86.2477 84.958 47.8848
202 1 89.2612 85.296 50.4971
90 1 86.0342 84.4206 48.4919
91 1 86.8467 85.0062 48.8635
328 1 84.0639 87.4602 50.7107
500 1 84.8846 83.3154 49.8306
499 1 84.6765 84.1604 50.5338
335 1 85.2416 85.1751 49.875
83 1 88.1377 86.1164 46.8018
201 1 88.7964 85.5823 49.6664
81 1 87.0945 86.8543 46.5146
379 1 86.2467 87.2486 52.8798
378 1 85.487 87.4032 52.2312
334 1 85.8166 84.4952 49.44
217 1 88.2149 86.5646 50.284
218 1 87.8039 87.4458 50.0796
82 1 88.0246 86.5356 45.9193
380 1 86.6624 87.9299 52.209
219 1 87.562 86.663 49.4177
121 1 86.6844 79.3738 50.6861
123 1 87.2191 80.1086 51.5289
122 1 86.4113 79.6508 51.5258
124 1 88.0345 80.222 50.9105
200 1 87.0705 81.0605 49.5777
198 1 86.8817 79.2462 49.6071
199 1 86.9193 80.3002 49.7514
134 1 87.4674 81.7537 48.3981
196 1 87.9155 79.4546 49.304
182 1 87.7777 82.1076 50.4315
125 1 87.5724 79.6637 50.2907
128 1 89.0588 79.4838 49.8562
493 1 88.0146 82.8263 49.463
494 1 87.1734 82.8153 49.8204
130 1 88.5224 80.6463 48.7936
488 1 85.2717 81.9582 49.7181
487 1 84.4949 82.0529 50.4303
496 1 86.0133 81.9854 50.4659
495 1 86.7207 82.0449 49.8199
347 1 87.8778 83.6673 48.4447
187 1 89.93 83.9917 50.5971
185 1 88.945 83.9509 49.3707
479 1 89.6204 81.8176 50.6146
478 1 90.3778 82.1459 50.2189
480 1 89.2355 81.0595 50.3148
497 1 85.9723 83.0002 50.4763
498 1 85.2641 83.5975 50.8412
94 1 87.0821 84.0875 50.325
93 1 87.6399 84.2351 49.4946
99 1 87.111 85.7349 51.2568
92 1 87.7633 84.8438 48.9516
188 1 90.546 83.2348 50.2323
482 1 84.4479 85.452 51.1202
326 1 85.1392 86.1403 50.7118
322 1 86.6241 86.2068 53.4555
325 1 85.3705 86.1646 51.5992
203 1 88.0551 85.2283 50.31
98 1 87.1191 85.9401 50.277
376 1 87.2902 86.9653 52.0841
204 1 88.2956 85.0154 51.4238
214 1 88.9728 86.3299 51.0795
205 1 87.9893 85.3627 52.3425
213 1 89.3162 85.7756 51.6555
206 1 88.208 85.9843 53.1824
323 1 85.8929 85.7145 53.2625
324 1 85.8034 85.6588 52.3467
377 1 86.1743 86.6651 52.055
216 1 87.7218 86.9756 51.0961
215 1 88.1266 86.3031 51.6793
220 1 87.5829 85.8312 49.3153
181 1 87.745 81.2562 50.7712
183 1 88.8097 82.2349 50.2842
486 1 84.0588 82.8289 50.3424
363 1 89.3746 82.672 51.3375
370 1 86.4944 82.7301 51.5254
184 1 89.0338 82.9737 49.5682
361 1 88.0285 83.3041 50.4034
362 1 89.0479 83.3462 50.7986
485 1 83.6924 83.8237 50.1322
371 1 86.3212 83.5848 51.4163
372 1 86.0082 84.304 52.163
369 1 87.2591 83.1441 51.0318
211 1 88.3916 84.4411 52.4391
212 1 89.1025 85.0024 52.4809
186 1 88.8816 84.2183 50.3561
481 1 85.4062 85.1685 51.3088
483 1 83.6603 85.4464 51.2527
484 1 83.6255 84.463 50.9957
374 1 86.8881 85.3893 52.2716
373 1 86.4355 84.8749 52.9537
100 1 86.6916 84.6631 51.4008
375 1 87.3681 86.2226 52.5775
207 1 87.9381 85.1932 54.0181
210 1 87.478 84.1448 52.0496
321 1 87.3753 86.1724 54.2123
208 1 87.3067 85.2074 53.2625
364 1 88.4282 82.6734 51.1969
365 1 87.7769 83.0573 51.8722
366 1 88.6123 83.4073 52.2608
367 1 88.9487 84.1252 51.5243
368 1 87.9764 84.0863 51.1271
209 1 87.552 84.197 53.1133
37 1 82.395 78.83 58.6838
36 1 82.1176 78.3555 59.5822
39 1 83.3955 78.4652 59.0596
38 1 82.6257 77.8389 58.7885
40 1 84.3862 78.6573 59.2093
246 1 82.3216 77.1867 60.9861
245 1 82.2204 76.6432 60.1216
247 1 83.2126 77.6305 60.6933
34 1 83.5573 77.3087 59.1583
30 1 84.5487 77.4651 61.7809
33 1 83.9619 77.8278 59.8087
169 1 82.0282 79.2289 60.2992
168 1 81.4368 79.5093 60.9498
35 1 82.7951 77.6747 59.8132
171 1 83.4695 79.8151 59.9974
248 1 82.5845 78.3723 60.7217
32 1 83.6522 78.5667 60.4872
161 1 81.323 76.4284 60.8256
170 1 82.8154 79.0987 59.7132
172 1 82.7277 80.1359 60.4196
173 1 82.2689 80.3851 61.0359
28 1 84.0511 78.0187 62.736
21 1 83.7222 78.9812 62.2589
244 1 81.6264 77.532 60.3638
27 1 84.4847 77.0721 62.7276
250 1 82.945 77.5652 61.7703
29 1 84.5542 78.4058 62.0648
249 1 83.1717 78.5397 61.4884
31 1 84.068 78.0428 61.1212
241 1 79.5665 77.3327 59.7034
243 1 80.9595 76.9478 59.8244
242 1 80.1313 76.4396 59.8164
178 1 84.4382 79.2615 61.0695
180 1 82.5369 79.4154 61.2151
179 1 83.5566 79.7855 61.3462
162 1 80.7284 76.6142 61.7367
167 1 81.6459 78.6512 61.2685
166 1 80.7212 78.7827 61.1921
165 1 81.0841 78.4578 60.286
175 1 84.1506 80.4145 60.9499
256 1 82.1082 79.735 62.1585
174 1 83.2149 80.7558 61.135
26 1 83.5941 76.8899 62.9881
25 1 82.79 77.2328 62.7125
23 1 83.2215 78.7365 63.5091
22 1 83.7704 79.5108 63.1261
163 1 81.2824 77.2761 61.3235
252 1 81.6672 78.707 62.2689
251 1 82.1424 77.7263 61.8856
253 1 82.0408 78.1167 62.9052
24 1 83.2822 77.8317 63.3213
177 1 85.1842 79.4395 61.4137
260 1 82.6715 80.9195 63.4544
164 1 80.6126 77.611 60.4896
254 1 82.7819 78.6489 62.4652
255 1 82.3728 79.3997 62.9498
259 1 81.8488 80.2294 63.4784
258 1 81.5458 80.4869 62.6719
176 1 84.9971 80.1681 60.8275
257 1 81.2483 79.8999 61.877
226 1 69.875 -1.86952 67.698
221 1 71.198 -2.07337 67.3787
225 1 70.2673 -2.37517 66.8736
223 1 70.5085 -2.3147 68.4782
224 1 70.6217 -2.97414 67.6774
236 1 68.0294 -5.05224 68.3975
235 1 67.9466 -4.65018 67.5214
238 1 66.8339 -3.94515 67.9589
234 1 68.9106 -4.62335 67.0953
237 1 67.6174 -4.17239 68.5625
232 1 68.9892 -4.48289 68.8095
222 1 71.4273 -1.78172 68.3794
233 1 68.76 -4.11242 67.9594
227 1 69.5307 -2.78867 67.7759
228 1 68.5105 -2.59391 67.8623
229 1 68.0283 -3.18548 68.4539
240 1 66.6397 -4.39399 68.9979
239 1 66.1591 -3.69849 68.6689
231 1 69.2984 -3.51118 68.6154
230 1 68.5875 -3.29418 69.196
41 1 17.87 43.5266 79.0925
42 1 17.7586 44.3529 79.4701
50 1 19.4907 43.8815 78.2683
43 1 17.9586 45.0608 80.1608
46 1 19.0799 45.2402 78.8873
48 1 18.5479 44.7154 77.6822
47 1 19.0951 45.5078 77.9779
49 1 18.5816 44.2432 78.5635
53 1 18.9289 43.2463 79.1755
54 1 18.3388 43.3699 80.0632
44 1 18.0424 45.9328 79.7462
52 1 18.8737 44.2579 79.5903
55 1 19.3739 43.3734 80.3666
51 1 19.767 44.0308 79.2635
61 1 6.39879 72.7018 80.1808
456 1 91.1622 -10.4684 81.0827
455 1 91.5472 -9.75068 80.4755
459 1 91.144 -9.55645 81.7748
452 1 90.2135 -10.6217 80.5196
460 1 91.0102 -8.87769 81.0293
458 1 90.3015 -9.97195 82.2407
457 1 90.3515 -10.0332 81.2534
45 1 18.3171 45.7438 78.8394
56 1 19.7179 42.6433 79.547
57 1 19.1481 42.1681 78.8449
58 1 18.33 41.5553 78.8465
59 1 18.0737 42.3804 79.5106
60 1 18.8387 42.1592 79.9024
79 1 4.96845 73.958 79.0225
78 1 4.74633 74.5949 79.676
77 1 4.19318 75.3531 79.5856
75 1 5.66977 76.5174 79.9376
63 1 5.09539 72.552 79.5584
74 1 5.39395 75.5152 80.045
62 1 5.39282 72.9746 80.3495
454 1 91.3013 -10.4248 79.7938
453 1 90.3607 -10.0696 79.7478
451 1 90.9784 -11.2938 80.442
447 1 90.3569 -11.4057 82.6591
446 1 91.2071 -10.8995 82.3459
445 1 90.9477 -11.4284 81.5835
66 1 5.53645 73.9174 79.9508
80 1 4.576 73.4502 79.7995
65 1 6.00636 73.2889 79.5509
64 1 6.03159 72.572 79.0799
76 1 4.79531 76.0993 79.3415
67 1 5.83334 74.7118 79.6912
70 1 6.62805 73.5781 80.6499
69 1 7.00972 74.2792 80.0133
71 1 6.65765 74.2843 81.1425
72 1 6.29817 75.1189 80.5164
73 1 5.6748 75.9172 80.8159
449 1 90.098 -11.643 80.9862
450 1 91.0523 -12.1438 80.8474
448 1 89.9412 -10.9602 81.7447
444 1 90.2955 -12.1624 81.8943
443 1 91.0718 -12.7929 81.8466
441 1 92.0007 -11.5197 81.2913
442 1 91.8043 -12.024 82.1024
68 1 6.51242 74.2078 79.2186
ITEM: TIMESTEP
27000
ITEM: NUMBER OF ATOMS
500
ITEM: BOX BOUNDS pp pp pp
-3.4307866455074560e+01 9.4307866455075001e+01
-3.4307866455074560e+01 9.4307866455075001e+01
-3.4307866455074560e+01 9.4307866455075001e+01
ITEM: ATOMS id type x y z
291 1 35.6477 -22.3875 -26.1197
292 1 36.48 -21.7336 -26.0332
285 1 37.5036 -21.8944 -26.1136
289 1 36.2778 -23.4099 -25.1965
290 1 35.4983 -23.0046 -25.4883
288 1 37.2232 -23.3989 -25.0364
283 1 36.0392 -22.1597 -25.0947
284 1 36.9438 -22.5059 -25.5
297 1 36.8747 -22.5392 -24.5195
286 1 37.638 -21.7897 -25.0825
287 1 37.8538 -22.624 -24.9863
295 1 36.6693 -21.3588 -24.5516
294 1 37.443 -20.7546 -24.6455
293 1 37.1268 -20.9582 -25.6359
298 1 36.717 -23.3876 -24.0558
282 1 35.8304 -22.8279 -24.3974
281 1 36.4125 -22.463 -23.6218
299 1 37.5878 -22.8796 -23.8319
296 1 37.2967 -21.8179 -23.8518
300 1 38.6008 -22.5826 -23.765
110 1 21.6612 77.4607 -7.55735
112 1 22.1465 78.5095 -8.05228
111 1 22.5609 77.8928 -7.49942
113 1 22.0631 79.4592 -7.59066
102 1 21.0892 80.1182 -7.59736
109 1 21.5712 78.4441 -7.1473
108 1 20.9146 79.2403 -7.12625
107 1 21.6476 79.4886 -6.64232
114 1 22.584 78.8382 -6.84515
120 1 22.5503 79.7384 -6.16752
103 1 20.2205 80.1839 -7.07302
104 1 21.0709 80.3424 -6.45554
119 1 22.0354 80.5364 -6.06647
101 1 21.7902 80.5564 -7.13034
146 1 56.6442 -19.313 -5.64263
147 1 57.3282 -20.0289 -5.37643
148 1 57.6157 -19.1066 -5.38545
156 1 58.7149 -19.4168 -5.11832
144 1 56.8925 -18.1862 -5.73938
145 1 56.4108 -18.6988 -4.94875
142 1 58.205 -18.3763 -4.78109
143 1 57.9191 -18.156 -5.66762
116 1 21.4645 78.7296 -5.21048
115 1 22.0062 78.7153 -6.02248
105 1 20.2779 80.0939 -5.8432
118 1 21.6533 79.7363 -5.50063
106 1 20.821 79.2742 -5.9864
117 1 22.2714 79.1481 -4.96017
151 1 57.3052 -20.5158 -4.09618
153 1 58.6528 -20.8195 -3.89458
152 1 57.9598 -20.3765 -3.42316
154 1 59.2614 -20.299 -4.4631
150 1 57.0876 -19.5583 -3.73541
149 1 57.3625 -18.9323 -4.4008
141 1 58.3795 -19.0673 -4.11015
155 1 58.2814 -20.109 -4.61438
157 1 59.4697 -19.2519 -4.42677
159 1 59.5881 -18.83 -3.32808
160 1 59.0351 -19.5985 -3.40955
158 1 59.321 -18.3475 -4.25091
424 1 61.8148 -3.68888 0.843228
425 1 62.5041 -2.8678 0.707525
426 1 61.964 -1.93374 0.716253
427 1 61.5763 -1.19419 0.885257
432 1 61.3532 -3.61175 2.11388
423 1 62.2777 -4.00602 1.69936
303 1 63.7802 -3.83327 1.17376
302 1 64.5013 -3.45127 1.68779
430 1 61.3764 -2.06368 1.63062
431 1 60.769 -2.88381 1.66142
433 1 61.9724 -2.9143 1.65142
308 1 62.8609 -2.16577 1.79025
304 1 63.2719 -3.20291 1.66429
306 1 64.2221 -2.43028 1.98365
307 1 63.7609 -1.88769 1.25746
429 1 61.2421 -1.03777 1.94618
428 1 62.2035 -1.29837 1.61033
309 1 62.9887 -1.34837 2.35367
422 1 62.8926 -3.88767 2.54151
435 1 62.3045 -3.51947 3.40734
421 1 63.2153 -4.28872 3.45383
301 1 64.3648 -4.18993 2.50808
437 1 64.1305 -3.58914 3.30664
439 1 65.5566 -3.51252 2.83214
318 1 61.3683 -2.38033 2.63238
317 1 61.6747 -2.77172 3.39708
434 1 62.3755 -3.00526 2.54599
436 1 63.1718 -3.08122 3.38974
311 1 62.5367 -2.09152 3.0128
305 1 63.4811 -2.71098 2.55064
440 1 65.5222 -2.99003 3.67073
438 1 64.697 -3.01442 2.77452
319 1 61.6948 -1.46783 2.76239
313 1 61.7703 -1.01796 3.74767
320 1 61.9568 -0.687106 2.61648
312 1 62.6618 -1.21479 3.69761
310 1 63.4389 -1.74897 3.06368
316 1 62.2109 -3.00778 4.34831
315 1 62.6784 -2.28336 4.90461
314 1 62.0107 -1.82199 4.13926
8 1 80.0997 13.5154 30.6126
18 1 80.8217 13.7089 29.4387
19 1 80.7873 12.9741 29.8769
20 1 81.7643 12.8622 29.9148
17 1 80.3521 14.3588 30.0784
12 1 81.343 14.1235 30.5041
7 1 79.8681 13.5619 31.582
9 1 80.6908 12.9518 30.868
10 1 81.3461 12.4669 31.4021
4 1 81.7765 13.4411 32.1035
11 1 81.8956 13.3306 30.9161
15 1 81.012 13.7555 31.4209
16 1 80.5167 14.5645 31.1089
14 1 81.5725 14.6974 31.4756
13 1 82.2566 14.3969 30.8263
1 1 80.6255 11.977 33.1766
2 1 80.6535 12.1756 32.1666
3 1 81.4898 12.6907 32.5343
5 1 81.2501 13.8833 32.8763
6 1 80.4779 14.0835 32.1897
261 1 82.2633 69.4826 33.4144
262 1 82.1064 70.1016 32.7727
383 1 81.569 71.552 33.4272
263 1 82.4904 71.0321 33.3826
382 1 81.3397 72.436 33.2053
381 1 81.9975 72.0077 32.5223
384 1 81.403 71.6003 34.3484
264 1 82.4034 71.1174 34.3309
385 1 80.75 72.1232 34.7042
398 1 82.6889 72.4644 34.3376
400 1 83.9241 72.7004 33.5639
399 1 83.571 72.0635 34.2611
387 1 80.2798 73.8362 34.8311
397 1 83.1487 73.3291 34.256
265 1 82.2082 71.6455 35.1603
270 1 82.8868 71.4226 36.3169
276 1 81.7636 71.4617 36.1221
386 1 80.6914 73.0291 34.9639
277 1 81.3765 72.2192 35.6959
266 1 82.896 72.1836 35.3604
268 1 84.3889 71.728 35.4833
267 1 83.7473 72.5197 35.2634
392 1 83.4646 73.0415 36.1497
269 1 83.7004 72.0464 36.2042
388 1 80.6911 74.3868 35.5778
389 1 81.5344 73.7763 35.2393
278 1 80.9459 73.2187 36.0172
391 1 82.5345 73.1242 35.93
390 1 82.2505 73.1825 35.03
395 1 82.5546 74.0533 35.8087
396 1 83.1635 73.7098 35.1051
394 1 83.5758 74.0921 36.111
274 1 80.2579 71.5125 36.964
273 1 80.9207 70.7944 36.8599
272 1 81.8476 71.0202 37.0838
275 1 81.1335 71.8875 36.7997
279 1 81.3973 72.9992 36.7917
271 1 82.2003 71.9668 36.9852
280 1 81.9102 73.329 37.5037
393 1 83.1247 73.636 36.8048
195 1 88.0645 80.8603 46.1015
407 1 87.9348 82.4376 45.9061
194 1 88.8004 81.8212 45.9257
410 1 87.2105 83.1969 46.0882
409 1 87.9777 84.0117 45.9916
408 1 88.2739 83.2227 45.5369
401 1 89.4569 83.7239 45.504
140 1 85.5441 80.5115 46.8351
139 1 86.3904 80.2478 46.8432
197 1 87.4505 80.5902 47.5778
196 1 87.7866 81.1678 47.0099
420 1 85.8167 82.1403 47.4057
411 1 86.8052 82.9601 46.8344
406 1 88.4255 82.9145 46.6488
192 1 88.4773 82.0599 47.0994
193 1 89.3893 82.2716 46.4964
191 1 89.1405 82.6004 47.604
413 1 85.0499 83.5505 47.3541
412 1 86.02 83.3521 47.2822
346 1 87.0787 84.0412 47.4621
405 1 88.0952 83.6878 47.014
403 1 89.0083 84.1786 47.3248
402 1 89.3248 84.2408 46.3008
341 1 86.207 85.4704 47.3421
360 1 88.4998 85.1275 46.7877
359 1 88.2212 85.6474 47.4774
345 1 87.2946 84.9942 47.2186
357 1 89.5154 85.2886 47.2086
356 1 90.4154 84.8297 47.6309
465 1 91.2169 85.6542 47.6301
467 1 91.7352 84.72 47.4799
82 1 88.3709 86.686 47.1123
83 1 89.1819 87.2094 47.0799
81 1 88.8925 86.2265 46.5152
84 1 88.1642 87.7208 47.1016
138 1 86.1522 80.6694 47.6967
137 1 85.8824 81.1807 48.4681
129 1 88.6087 80.9612 48.6013
198 1 87.3675 80.3472 48.4372
130 1 89.4151 81.4848 48.4383
419 1 85.787 82.5706 48.2451
418 1 84.8513 82.16 48.4728
417 1 84.8588 82.9364 49.0683
136 1 86.603 81.7536 48.3534
135 1 86.8055 82.5954 48.7653
133 1 87.2827 82.8605 47.9467
132 1 87.7191 81.9445 48.1767
131 1 88.6004 82.1354 48.4049
183 1 87.8517 82.8711 48.8011
471 1 91.2271 81.8484 47.7682
472 1 91.108 81.8143 48.8068
470 1 90.3367 82.2171 48.3172
416 1 84.0612 83.3235 48.6907
415 1 84.4769 84.1661 48.6015
414 1 85.3465 83.8796 48.3428
134 1 86.4429 83.3506 48.2512
490 1 86.3726 84.1135 48.9038
404 1 88.5767 83.5185 47.7082
347 1 87.2726 83.8656 48.4106
190 1 89.6128 83.4185 47.8233
184 1 88.7449 83.1695 48.6869
189 1 89.8207 83.8202 48.6745
468 1 91.2347 83.7085 47.6911
469 1 90.8869 83.0304 48.4145
342 1 85.7263 84.7179 47.7922
338 1 85.2953 85.7826 48.4737
343 1 86.6436 84.7969 48.206
337 1 86.0814 85.3542 48.8915
88 1 88.2022 85.7183 48.554
344 1 87.4469 85.326 48.0354
349 1 88.2437 84.5462 47.8438
348 1 87.7651 84.6703 48.725
355 1 89.8227 85.2445 48.2575
350 1 88.8622 84.9608 48.5043
466 1 91.2361 84.9849 48.3795
331 1 86.6334 86.1166 48.3687
332 1 87.0042 87.0288 48.4473
330 1 85.846 86.4926 49.0466
87 1 88.3406 86.6356 48.7998
89 1 87.6004 86.3445 47.9478
90 1 87.3899 86.2651 49.0291
86 1 88.6276 87.0182 47.9791
358 1 89.0938 86.0377 47.7255
462 1 91.2657 86.1385 48.7554
463 1 90.2847 85.9875 48.9803
464 1 90.3855 86.2014 48.0335
85 1 88.9492 87.91 47.7744
121 1 87.1407 79.9541 49.6256
122 1 88.1194 79.4583 49.7733
199 1 86.9094 81.0873 49.1065
486 1 86.0249 81.3927 50.4676
125 1 88.3229 81.5826 50.4888
128 1 88.1107 80.6569 49.3724
126 1 88.6529 80.7077 50.3173
124 1 87.5178 81.2197 50.4773
127 1 89.0597 80.3766 49.619
200 1 86.2153 81.8367 49.3494
488 1 86.1647 82.7653 49.8614
494 1 87.2831 82.4117 50.1137
182 1 88.305 82.5044 49.7536
181 1 87.9343 81.7961 49.2543
474 1 89.1578 81.7717 49.5565
475 1 89.9444 81.681 50.2171
473 1 90.146 81.6728 49.1893
476 1 90.2691 82.6467 49.7292
500 1 84.0346 83.7742 50.1973
499 1 85.0697 83.9274 50.0916
492 1 87.1671 83.3591 49.3187
489 1 85.8967 83.3621 49.2168
491 1 86.9875 84.1357 49.6969
493 1 87.635 83.276 50.1919
185 1 88.3799 83.5859 49.4885
186 1 89.3473 83.2874 49.6374
187 1 89.6358 84.0245 50.1972
188 1 90.3371 83.8408 49.5344
340 1 84.7966 85.0416 49.2147
335 1 86.4276 85.5634 49.8673
336 1 86.995 85.156 49.2453
91 1 87.8924 85.6636 49.6383
93 1 88.373 84.5867 50.3231
92 1 88.5227 84.9935 49.4334
351 1 89.2761 85.6358 49.3045
354 1 89.9708 84.8855 49.2449
352 1 89.3278 84.9957 50.1004
461 1 90.9895 85.2629 49.3039
353 1 90.3524 84.9677 50.1722
339 1 84.8086 86.0189 49.3655
329 1 85.7167 86.6585 50.0756
333 1 86.4617 87.1654 49.3706
334 1 86.7526 86.4186 49.867
202 1 89.2761 86.093 50.3535
219 1 90.3719 86.1319 50.4323
220 1 91.3322 86.3762 49.9821
328 1 85.3352 87.4438 49.6418
485 1 85.7395 81.172 51.3516
123 1 87.6725 80.2031 50.5187
483 1 87.4168 81.3415 51.8639
487 1 86.1853 82.3479 50.6179
496 1 87.1376 82.9056 51.4546
484 1 86.4043 81.676 51.7646
495 1 87.4204 82.2084 50.9743
362 1 88.4339 82.5927 50.7975
480 1 89.9859 82.0553 51.7488
479 1 89.3228 82.5047 51.1102
478 1 90.2314 82.4847 50.7504
498 1 85.3037 83.6063 50.8537
322 1 84.8694 84.1363 51.6198
321 1 85.6799 84.0702 51.8257
497 1 86.3523 83.4646 51.0164
371 1 87.5922 84.3094 51.8137
363 1 88.3789 83.3481 51.5468
361 1 88.7118 83.345 50.6417
368 1 89.8894 83.5837 51.2
477 1 90.7748 83.2137 50.5568
367 1 90.6926 83.1375 51.7334
324 1 85.3987 85.178 51.0293
323 1 84.624 85.1502 51.713
96 1 86.5447 85.5654 50.9166
373 1 86.1473 85.0811 51.8125
370 1 88.46 84.5398 51.3461
95 1 87.45 85.5398 50.6431
94 1 87.3904 84.564 50.699
204 1 88.6094 85.6778 51.4576
201 1 89.8221 85.4792 51.0527
369 1 89.4999 84.5267 51.2991
214 1 90.252 84.94 51.9043
326 1 85.452 87.1268 51.2539
325 1 85.5621 86.1269 51.0182
98 1 86.549 85.9789 51.8852
97 1 86.9093 86.5483 51.0221
203 1 88.4423 86.1677 50.5118
99 1 87.5809 85.8675 51.6647
217 1 90.0383 86.7551 51.275
205 1 88.8521 86.6216 51.7441
218 1 90.9157 86.3863 51.2508
327 1 85.458 87.8667 50.621
481 1 87.4595 81.8685 53.2585
482 1 87.2596 82.2211 52.3015
372 1 86.7631 84.3679 51.9472
376 1 86.164 84.3655 52.8855
364 1 88.1581 83.4843 52.5119
365 1 89.1993 83.7102 52.2015
366 1 90.1649 83.6105 52.4868
374 1 85.3467 84.9444 52.5394
377 1 87.0485 84.7187 53.0278
375 1 86.128 85.4122 52.9684
100 1 87.5252 85.6934 52.5035
211 1 88.3464 84.4802 52.866
213 1 89.7914 85.0859 52.7366
212 1 88.9512 84.9533 52.3874
208 1 88.282 86.3145 53.1127
215 1 90.0555 85.8814 52.0172
206 1 89.1294 86.1302 52.6154
216 1 90.4685 86.5473 52.1803
379 1 86.5913 84.4136 54.6627
378 1 87.1396 84.3601 53.9322
380 1 86.2905 85.0456 53.9222
210 1 88.4161 84.8009 53.7745
209 1 87.729 85.4498 53.6098
207 1 89.0171 85.5853 53.4629
241 1 85.2271 76.9974 57.9712
242 1 84.5906 77.6904 58.4643
37 1 82.7086 76.8497 59.7823
36 1 83.284 76.9105 59.0808
244 1 84.3858 77.0472 59.8436
38 1 82.6205 77.7254 59.6167
39 1 82.9555 78.57 59.8826
40 1 82.4119 78.7327 59.1837
35 1 83.6503 77.8261 59.3314
246 1 83.5457 77.3527 60.3187
243 1 84.7642 77.8516 59.3826
171 1 82.2162 79.4608 59.8744
34 1 83.8965 78.8626 59.1091
177 1 83.681 79.2159 60.2406
33 1 84.7575 79.0366 59.0811
32 1 84.5382 78.8452 60.0401
172 1 82.4423 80.4012 60.214
174 1 83.2948 81.0412 60.0423
163 1 80.887 76.4096 61.4492
162 1 81.9104 76.2885 61.2637
245 1 84.1579 76.6018 60.7064
250 1 84.1159 77.0974 61.6169
166 1 81.0903 78.1989 61.4788
167 1 80.614 78.0003 60.6817
169 1 82.1777 78.0491 61.4281
168 1 81.6417 77.6527 60.6676
247 1 84.355 77.8359 60.5009
248 1 83.7067 78.3923 60.9472
249 1 84.2623 77.9529 61.7244
251 1 83.2425 77.5376 61.4576
31 1 85.2978 78.4524 60.48
30 1 85.1711 78.3282 61.5674
170 1 81.7402 78.8426 60.5849
180 1 82.2061 79.6674 60.9704
179 1 82.7703 78.8899 60.8478
178 1 83.6406 79.4893 61.2328
175 1 83.4118 80.1617 60.5679
176 1 84.3316 79.9227 60.6936
29 1 85.1104 79.2518 61.2603
173 1 83.0634 81.0927 60.8646
21 1 83.7478 80.9434 61.5164
164 1 81.3027 76.5136 62.3409
165 1 81.3712 77.3069 61.861
161 1 82.3929 77.1125 61.848
259 1 81.365 78.6673 62.9
253 1 82.4829 78.1301 62.5261
252 1 83.4808 77.8843 62.4566
256 1 82.9824 79.0046 61.8725
258 1 82.0048 79.2313 62.9957
257 1 82.1148 79.1152 62.0492
27 1 84.0616 79.3459 62.8646
254 1 83.1774 78.8243 62.9435
255 1 83.0934 79.7345 62.4167
22 1 84.0639 80.0382 61.8964
28 1 84.4207 78.9563 61.9545
26 1 84.9243 79.6964 62.8916
23 1 83.9539 80.5946 62.6639
25 1 85.0653 80.7366 62.7144
24 1 84.5347 81.504 62.6802
260 1 80.7598 79.3428 63.244
235 1 68.9969 -4.78486 68.3107
239 1 68.2104 -3.83959 68.6862
236 1 69.3294 -3.94415 67.8261
228 1 70.12 -3.36138 67.8394
237 1 69.9182 -4.248 68.5226
226 1 70.7544 -3.59872 68.6717
240 1 67.8607 -3.16804 68.0116
229 1 69.4018 -2.76838 68.2094
227 1 70.2534 -2.71079 68.7285
224 1 70.0177 -4.65458 69.5965
234 1 68.9784 -4.58813 69.3771
238 1 69.1272 -3.64296 68.9182
233 1 68.9425 -3.93187 70.1596
223 1 69.9838 -3.5467 69.8464
225 1 70.7274 -4.57913 69.111
232 1 68.5847 -3.1171 69.9561
231 1 69.0747 -2.34845 70.1876
230 1 69.2852 -2.60159 69.2006
222 1 70.1817 -3.06524 70.6431
221 1 71.2869 -3.00454 70.6953
50 1 19.1959 44.2685 78.6226
49 1 19.9527 43.6049 78.7272
68 1 4.32755 74.2822 78.1995
71 1 5.88556 74.3045 78.4134
77 1 3.65488 75.343 78.6902
69 1 4.43912 75.3 77.9075
70 1 5.27083 74.9129 78.1086
72 1 6.60312 74.9141 78.4439
459 1 91.9737 -12.3521 80.059
48 1 19.4901 42.9752 79.4735
45 1 20.4409 42.7795 79.972
52 1 17.8116 43.4736 79.8102
51 1 18.8012 43.8629 79.4244
59 1 19.5301 44.7061 79.8094
42 1 20.0717 43.7795 79.887
60 1 20.1244 44.7045 79.0088
44 1 20.9729 43.469 79.4014
57 1 18.6657 45.9663 80.0209
56 1 19.2968 45.5627 79.2547
55 1 18.5402 44.998 79.6293
67 1 4.53546 73.9519 79.1781
63 1 6.58617 73.5052 79.0006
64 1 5.69651 73.2937 79.3044
65 1 6.11489 74.2552 79.4355
62 1 6.40101 73.219 80.049
78 1 4.10359 75.196 79.6807
76 1 4.67877 75.7632 78.8105
66 1 5.26702 74.6658 79.1473
74 1 6.06525 75.3755 79.6885
73 1 6.48128 75.8334 78.8264
75 1 5.42578 76.0204 79.5684
458 1 91.3819 -11.7595 80.6487
460 1 92.7551 -12.2239 80.6079
457 1 91.7289 -12.4735 81.1756
453 1 93.2862 -12.1381 81.5469
455 1 92.3548 -11.5743 81.2721
443 1 92.7284 -10.4196 80.4224
446 1 92.009 -10.6254 81.3108
444 1 93.644 -10.7877 80.6453
445 1 92.9889 -10.621 81.3484
447 1 92.0583 -9.64606 81.5713
441 1 93.8788 -8.95301 81.3362
442 1 93.3782 -9.74071 80.8938
47 1 19.2236 43.4174 80.3964
46 1 20.228 43.2808 80.8703
53 1 17.7192 43.7262 80.7155
54 1 18.2838 44.4423 80.341
41 1 19.8039 44.3123 80.6702
43 1 20.9001 44.0102 80.2393
58 1 19.2528 45.3003 80.4848
61 1 6.21083 73.0021 80.9713
80 1 5.32899 73.8629 80.1903
79 1 5.04782 74.7839 80.1854
456 1 91.7281 -11.7571 81.9673
452 1 94.27 -11.8875 81.74
451 1 -34.1875 -10.9524 81.7005
454 1 92.8163 -11.3896 82.1085
449 1 92.9606 -10.4313 82.7012
448 1 92.7665 -9.65406 82.0834
450 1 93.8023 -10.2393 82.0023
ITEM: TIMESTEP
28000
ITEM: NUMBER OF ATOMS
500
ITEM: BOX BOUNDS pp pp pp
-3.5611322505112582e+01 9.5611322505113023e+01
-3.5611322505112582e+01 9.5611322505113023e+01
-3.5611322505112582e+01 9.5611322505113023e+01
ITEM: ATOMS id type x y z
291 1 36.1727 -23.0158 -24.8203
292 1 36.8911 -22.2357 -25.0614
285 1 35.337 -22.9777 -26.6022
289 1 37.0291 -23.724 -24.7823
290 1 36.0971 -24.0145 -24.6254
288 1 36.6772 -24.2861 -25.4742
283 1 36.7022 -23.183 -25.6458
284 1 35.8571 -22.7026 -25.7511
297 1 38.205 -23.5708 -26.5129
286 1 35.6915 -23.7611 -26.0148
287 1 36.7114 -23.9443 -26.3091
295 1 36.395 -22.8456 -26.8269
294 1 37.0581 -22.178 -26.629
293 1 37.3642 -21.7423 -25.7007
298 1 38.5761 -23.502 -27.4834
282 1 37.7223 -23.1795 -25.5726
281 1 38.1238 -22.5053 -26.1273
299 1 37.6343 -23.6629 -27.6262
296 1 37.4007 -23.1239 -26.728
300 1 36.6532 -23.7645 -27.5228
110 1 21.2368 78.5983 -7.71096
112 1 20.1233 79.4324 -7.51514
111 1 20.4601 78.6786 -8.19331
113 1 20.5828 80.2701 -7.84304
102 1 20.5439 81.4844 -8.12807
109 1 21.2509 79.5215 -8.07123
108 1 21.3969 79.9273 -7.22069
107 1 21.6067 80.9038 -7.495
114 1 19.7843 80.3702 -8.35498
120 1 20.4887 80.8122 -9.04306
103 1 21.3818 81.9739 -7.9636
104 1 22.3204 81.5983 -8.2514
119 1 21.2841 81.4379 -8.97667
101 1 20.6449 81.2642 -7.20834
146 1 59.9659 -19.6999 -4.94136
147 1 60.1586 -20.2009 -4.09096
148 1 60.108 -20.7521 -4.89158
156 1 58.0417 -19.4971 -4.3037
144 1 61.0048 -20.1262 -4.95863
145 1 60.8106 -19.2163 -4.5139
142 1 59.9987 -19.9782 -6.63561
143 1 60.53 -20.3232 -5.82027
116 1 21.1895 79.3102 -9.09511
115 1 20.4719 79.767 -8.76664
105 1 22.55 80.998 -9.07467
118 1 21.6154 80.5294 -9.39269
106 1 21.9557 80.5657 -8.34409
117 1 20.8226 79.954 -9.83352
151 1 60.2911 -21.9146 -5.15789
153 1 58.8962 -20.9765 -4.78384
152 1 59.5196 -21.315 -5.56406
154 1 59.2484 -20.6848 -3.84765
150 1 59.7051 -21.6133 -4.46692
149 1 60.5739 -21.3329 -4.17041
141 1 59.5103 -20.1936 -5.7626
155 1 59.0589 -19.7916 -4.43115
157 1 57.7762 -19.4276 -5.25841
159 1 58.2979 -20.4551 -5.4942
160 1 57.8304 -20.5152 -4.56907
158 1 58.0783 -19.7085 -6.14667
424 1 62.873 -4.33616 1.88588
425 1 62.0731 -4.44327 2.3123
426 1 62.0556 -3.5897 2.05778
427 1 61.4041 -4.27091 1.38029
432 1 62.0023 -3.02316 3.90491
423 1 63.0921 -5.1671 2.4285
303 1 63.9821 -2.28754 1.53952
302 1 64.5899 -1.93133 0.881645
430 1 61.4813 -2.93659 2.78292
431 1 61.9363 -3.77792 3.16955
433 1 62.6474 -3.07625 3.11816
308 1 62.4615 -2.57921 2.14388
304 1 63.4502 -3.11227 1.89966
306 1 61.76 -2.70415 1.48491
307 1 62.5699 -2.14727 1.20558
429 1 60.8968 -3.68994 2.8635
428 1 60.9697 -3.58047 1.85997
309 1 63.3475 -2.13915 2.42419
422 1 63.5531 -5.18672 1.52909
435 1 63.8921 -3.785 2.80078
421 1 62.6636 -5.23722 1.15261
301 1 64.1228 -2.71512 0.494895
437 1 64.695 -3.08921 1.55035
439 1 64.9487 -2.10107 2.73571
318 1 61.8333 -1.94463 2.72337
317 1 61.8206 -1.95327 3.62496
434 1 62.9315 -4.03024 2.921
436 1 64.1392 -3.95996 1.79945
311 1 63.2512 -1.16074 3.16195
305 1 62.5781 -3.3135 1.22304
440 1 64.9872 -1.20434 3.33934
438 1 64.3901 -2.76895 2.37747
319 1 61.2806 -1.92115 1.9692
313 1 62.9599 -0.196485 2.44995
320 1 60.4001 -2.25568 2.14834
312 1 62.5353 -1.12106 2.50777
310 1 62.8034 -1.94242 3.2914
316 1 62.0208 -0.958222 3.86414
315 1 61.8158 -0.0473743 3.96444
314 1 62.6455 -0.188396 3.38633
8 1 79.8606 14.3466 32.8823
18 1 80.9857 13.1929 31.104
19 1 81.6236 13.9935 31.1352
20 1 82.5751 14.0191 31.7409
17 1 80.4434 12.6306 31.6469
12 1 81.1639 13.4937 33.2635
7 1 79.4268 13.7728 32.4556
9 1 80.8894 14.4221 32.917
10 1 81.5413 14.0609 32.2784
4 1 79.3152 14.4203 31.2212
11 1 81.0644 13.217 32.2643
15 1 81.5262 11.6766 32.7876
16 1 81.1937 12.0904 32.0293
14 1 80.9461 12.4048 33.0478
13 1 80.2432 13.0247 33.055
1 1 80.7815 14.8177 31.5544
2 1 79.7026 14.9965 32.0361
3 1 78.8354 14.5734 32.0845
5 1 79.9587 13.536 31.1251
6 1 80.2911 14.0141 31.9824
261 1 83.0044 71.7868 35.8545
262 1 83.2517 72.3512 36.6546
383 1 83.2523 71.4425 34.5329
263 1 83.9864 71.9064 36.2954
382 1 84.2789 71.7222 34.6458
381 1 84.2521 72.6903 34.5637
384 1 83.0309 70.5204 34.0154
264 1 84.8497 71.5851 35.8641
385 1 83.8533 71.0608 33.7605
398 1 85.6424 74.3816 34.8235
400 1 86.5814 73.2924 36.1542
399 1 86.2845 74.1357 35.5407
387 1 82.4519 72.1043 34.0144
397 1 85.2028 75.2368 34.5565
265 1 85.2379 72.3066 35.3626
270 1 84.0869 74.0672 37.4852
276 1 81.9231 70.7542 37.2768
386 1 83.2944 71.9685 33.5323
277 1 82.3605 71.4835 36.6557
266 1 85.5951 73.3326 35.381
268 1 85.7162 73.8349 36.8355
267 1 85.1497 73.888 35.9764
392 1 84.7237 73.1872 36.8251
269 1 84.8332 74.464 36.9064
388 1 82.8706 72.3554 34.9037
389 1 83.7541 72.4449 35.4059
278 1 82.2273 72.3081 36.4076
391 1 84.5083 73.097 35.8056
390 1 83.511 73.136 36.044
395 1 83.9085 74.3323 34.9433
396 1 84.687 74.9209 35.4083
394 1 83.6475 74.4644 35.8948
274 1 82.1093 71.8842 37.8283
273 1 82.5809 72.6662 37.4372
272 1 83.1776 73.2851 37.0284
275 1 81.2343 71.6322 37.3421
279 1 82.1295 73.2898 36.4473
271 1 82.9661 74.0668 37.252
280 1 82.4109 73.4255 35.5063
393 1 84.1179 73.9239 36.3809
195 1 88.7298 82.9822 46.9435
407 1 86.3115 86.6976 47.1589
194 1 89.1498 83.6622 46.2814
410 1 86.3586 85.9665 48.2837
409 1 86.4789 85.3003 47.6152
408 1 85.5125 85.9738 47.5198
401 1 89.0117 84.8124 46.237
140 1 86.576 84.0597 46.598
139 1 85.9886 83.8597 47.4431
197 1 89.2413 82.4221 47.9091
196 1 89.157 81.9192 46.9712
420 1 87.6278 81.8615 48.31
411 1 85.4665 85.6363 48.6978
406 1 87.234 86.368 47.3109
192 1 90.0206 84.3284 46.9255
193 1 89.0236 84.2198 47.1937
191 1 89.6469 85.037 47.4451
413 1 85.0353 84.261 48.6158
412 1 85.2419 85.0062 47.9114
346 1 87.7271 86.5401 48.2888
405 1 87.8134 85.9679 46.5852
403 1 88.6357 85.319 47.0294
402 1 88.0275 84.6467 46.823
341 1 86.7438 89.0766 47.8652
360 1 88.2459 87.4089 48.7806
359 1 88.8781 86.8195 48.1516
345 1 87.5991 87.3235 47.8484
357 1 89.9297 86.4601 47.8416
356 1 90.8698 86.4099 48.1498
465 1 92.9096 86.4991 49.9593
467 1 92.9585 84.9942 50.3235
82 1 91.2097 88.5868 49.0069
83 1 92.232 88.2936 48.9738
81 1 91.162 88.0085 49.8901
84 1 91.684 87.4587 49.155
138 1 86.4708 83.5749 48.2265
137 1 86.8993 83.346 47.319
129 1 90.2545 83.1991 47.6636
198 1 88.896 81.7217 48.2018
130 1 89.4625 83.5001 48.0345
419 1 87.0802 82.5858 48.6236
418 1 86.5551 82.8992 49.2861
417 1 86.8101 83.813 49.3342
136 1 87.8707 83.619 47.3173
135 1 88.3508 82.9974 48.0162
133 1 87.0202 84.3664 47.8205
132 1 87.979 84.5888 47.8369
131 1 88.7009 83.9473 48.0877
183 1 89.4427 84.0499 48.9581
471 1 92.4997 83.6203 48.9851
472 1 91.6818 83.3491 48.4313
470 1 92.2984 84.4365 48.5746
416 1 86.0573 83.5728 49.9505
415 1 85.8025 84.5733 49.6941
414 1 86.0606 84.6608 48.7221
134 1 87.57 83.5654 48.2429
490 1 86.898 84.9635 49.7404
404 1 88.4308 86.0914 47.5467
347 1 88.1583 85.6587 48.5162
190 1 90.1118 84.3121 48.1432
184 1 89.171 84.8483 48.4911
189 1 90.6336 85.208 48.3043
468 1 92.308 85.1202 49.6267
469 1 92.9535 84.4635 49.3954
342 1 87.6331 88.3282 47.82
338 1 86.0151 85.9744 49.4903
343 1 86.6928 87.8701 48.1131
337 1 86.7702 86.6102 49.7422
88 1 90.1875 87.5614 50.1898
344 1 86.8708 87.0923 48.7349
349 1 89.2163 85.7989 48.208
348 1 88.8552 86.2957 48.9923
355 1 91.7752 86.8876 48.1419
350 1 90.055 85.9936 48.8652
466 1 93.3596 85.5807 49.7085
331 1 86.9021 88.5492 49.713
332 1 87.6921 88.5676 50.2097
330 1 86.6565 87.5708 49.9751
87 1 89.4978 87.8106 49.6346
89 1 89.2015 87.0772 50.2245
90 1 89.1595 86.2586 50.7985
86 1 90.2832 88.5299 49.4325
358 1 89.5006 87.1202 47.272
462 1 91.7723 87.1613 50.2956
463 1 92.5949 87.4206 49.8167
464 1 92.6822 86.8474 50.7733
85 1 90.7664 87.7133 49.0322
121 1 89.0378 81.8017 50.1551
122 1 88.8192 82.7656 50.264
199 1 89.0938 82.4676 49.1091
486 1 87.0084 82.6646 50.4984
125 1 90.4568 82.2778 50.3331
128 1 90.782 82.8018 48.1861
126 1 90.0472 82.2303 49.4624
124 1 90.0261 81.8141 51.057
127 1 90.1445 83.0545 48.8042
200 1 89.1269 81.3712 49.2204
488 1 87.608 83.1367 49.6711
494 1 88.7461 84.35 49.8691
182 1 90.4784 83.9923 49.0675
181 1 89.9757 83.7501 49.8431
474 1 91.4769 83.046 49.8274
475 1 92.295 82.9733 50.0407
473 1 91.4971 83.809 49.1225
476 1 92.078 83.9574 49.9871
500 1 87.4462 85.1418 50.6615
499 1 86.6398 84.3302 50.5079
492 1 87.8857 84.3343 48.994
489 1 87.5224 84.08 49.9659
491 1 87.098 84.9596 48.7096
493 1 88.0134 85.148 49.6469
185 1 89.5478 85.2011 49.4897
186 1 90.4028 85.0843 49.6051
187 1 91.3299 85.5411 49.6862
188 1 91.4408 84.9935 48.9758
340 1 85.7864 86.956 50.0079
335 1 88.1069 86.0857 50.3511
336 1 87.6687 86.5133 49.7996
91 1 88.9686 85.5912 50.2453
93 1 88.9678 84.2344 51.2602
92 1 89.4451 84.7706 50.4587
351 1 89.8398 86.8928 49.3373
354 1 91.6613 86.4637 48.8564
352 1 90.1516 86.4455 50.3044
461 1 91.8857 86.1447 50.3728
353 1 90.7765 86.5747 49.5413
339 1 85.6722 86.8487 49.0823
329 1 87.178 87.21 50.7195
333 1 87.9671 87.7124 50.2179
334 1 88.2822 86.9895 50.8155
202 1 90.0018 86.9426 51.2163
219 1 92.2314 84.2997 51.3147
220 1 91.6075 85.08 50.9685
328 1 86.2195 87.3455 51.0743
485 1 87.9101 82.4982 50.58
123 1 89.3736 82.6732 51.0635
483 1 87.4816 83.4718 52.2666
487 1 87.2456 82.2591 49.6779
496 1 88.3946 83.6639 50.588
484 1 88.0135 83.1552 51.472
495 1 88.6106 83.5658 49.361
362 1 89.6637 83.5272 51.4933
480 1 91.1847 82.625 51.1305
479 1 91.3136 83.5439 51.665
478 1 90.5179 83.5919 50.9298
498 1 86.9803 83.5925 50.7907
322 1 86.7524 84.0463 51.7864
321 1 85.9588 84.4937 51.963
497 1 87.6477 84.1337 51.1175
371 1 89.7203 85.3118 51.3734
363 1 89.0946 83.4463 52.084
361 1 90.3089 82.6687 51.6754
368 1 90.5952 85.3307 51.8464
477 1 91.234 84.226 50.4297
367 1 90.1674 84.5762 52.2522
324 1 86.6024 85.2621 52.3094
323 1 87.422 84.6128 52.0352
96 1 87.8775 85.7699 52.4748
373 1 88.4298 84.8797 52.1943
370 1 90.4958 85.4953 50.8987
95 1 87.9975 85.7116 51.4637
94 1 88.6028 85.1489 51.0243
204 1 88.8524 86.8184 52.023
201 1 90.7289 87.4195 51.6031
369 1 90.4438 84.5187 51.2797
214 1 89.4574 84.5724 53.4351
326 1 85.7688 85.6057 51.6252
325 1 86.8554 85.7041 51.7031
98 1 87.8117 87.5868 52.6987
97 1 87.8667 86.7912 51.9954
203 1 89.1514 87.3237 51.319
99 1 88.1706 87.7168 51.6804
217 1 91.4431 84.8577 52.2196
205 1 89.417 86.6648 52.6524
218 1 92.0633 83.9948 52.2639
327 1 86.2218 86.3103 51.1351
481 1 87.5977 82.2913 52.4458
482 1 87.1885 82.5899 51.7399
372 1 89.2846 85.4402 52.1888
376 1 86.8038 84.3827 52.8433
364 1 88.3448 83.8325 52.5527
365 1 89.0241 83.4997 53.0295
366 1 89.261 84.3802 52.3365
374 1 88.3662 84.6497 53.2126
377 1 86.1852 83.6908 53.1991
375 1 87.5287 84.508 53.5569
100 1 87.5336 88.1009 51.1037
211 1 91.2316 86.7407 53.5456
213 1 89.8205 85.5662 53.3364
212 1 90.369 86.2807 53.5068
208 1 91.0738 86.9674 52.3564
215 1 90.5302 84.6022 53.6964
206 1 90.2069 86.3595 52.0451
216 1 90.8211 85.2128 52.979
379 1 86.0846 82.6569 53.757
378 1 85.7989 83.5969 54.1414
380 1 87.0571 82.9265 53.5913
210 1 92.0385 86.7327 52.7254
209 1 91.1308 86.112 52.6503
207 1 91.1547 86.4401 51.6189
241 1 87.0186 78.0613 60.9483
242 1 86.4284 78.5077 60.0187
37 1 85.4093 77.8294 58.4964
36 1 84.8872 78.5832 59.0838
244 1 85.7831 77.2233 60.762
38 1 85.9941 78.3517 59.0561
39 1 85.8673 77.331 59.3606
40 1 85.5002 77.9944 59.9796
35 1 84.6555 78.9169 59.9443
246 1 85.5551 78.8549 60.5997
243 1 86.5101 77.5989 60.1736
171 1 83.8673 78.3115 60.5499
34 1 84.2802 79.8267 59.6433
177 1 84.4989 80.1606 61.5923
33 1 85.0822 80.1544 60.0764
32 1 86.1056 80.4512 60.366
172 1 83.0398 78.8475 60.9517
174 1 82.8305 79.3934 60.1555
163 1 82.9592 76.613 61.5203
162 1 83.7265 76.9288 61.6819
245 1 85.914 78.186 61.1339
250 1 85.4354 78.2165 62.1929
166 1 83.1912 78.2451 62.8438
167 1 83.6125 78.3528 61.9031
169 1 84.4405 78.8982 61.4471
168 1 84.5976 77.9092 61.5666
247 1 86.1432 79.5302 61.1785
248 1 85.4543 79.3541 61.7998
249 1 85.9455 79.0067 62.5149
251 1 85.3929 77.7334 63.002
31 1 85.5342 81.2654 60.075
30 1 84.7621 81.1531 60.4702
170 1 83.9359 79.24 60.6782
180 1 83.007 80.9594 61.412
179 1 83.502 80.4579 61.9923
178 1 84.2622 80.2171 62.548
175 1 83.1359 80.1345 60.7739
176 1 84.0691 80.3858 60.848
29 1 85.4229 80.9296 61.2427
173 1 82.3831 79.5556 61.0819
21 1 84.6271 82.1868 59.8455
164 1 83.0736 76.5454 62.5334
165 1 83.3815 77.2945 63.0641
161 1 84.5441 76.3097 61.4659
259 1 82.4091 80.0517 62.1111
253 1 84.1766 78.4524 63.3557
252 1 84.4818 77.4471 63.2653
256 1 83.4801 79.4283 61.6539
258 1 82.3238 79.4537 62.9555
257 1 82.5428 78.9684 62.1827
27 1 85.3337 81.5428 62.1511
254 1 83.3413 79.0703 63.4856
255 1 83.3784 79.5582 62.6164
22 1 83.8769 81.5677 59.7269
28 1 85.2663 80.5619 62.2527
26 1 85.4802 82.3333 61.6098
23 1 83.8109 81.7923 60.6348
25 1 84.6749 81.7027 61.276
24 1 83.9023 81.8129 61.7058
260 1 81.6572 80.3453 61.3868
235 1 70.5718 -4.39526 71.2469
239 1 70.5754 -3.8431 69.1363
236 1 69.6944 -4.05375 70.8924
228 1 72.1932 -3.57359 70.5498
237 1 69.9665 -4.4961 70.1491
226 1 71.6617 -4.27212 70.9996
240 1 71.1239 -2.88304 69.0441
229 1 71.7907 -3.53407 69.7348
227 1 72.7428 -4.18757 71.0636
224 1 70.229 -5.36493 70.7493
234 1 70.8871 -3.80516 71.9671
238 1 70.7939 -3.97246 70.0034
233 1 70.8528 -3.24827 71.0278
223 1 69.6491 -5.63855 71.5136
225 1 70.9398 -4.90311 70.4496
232 1 69.9738 -3.02818 70.4837
231 1 70.3689 -2.24523 70.1683
230 1 71.2652 -2.63278 70.1311
222 1 68.9263 -6.29434 71.6351
221 1 69.0387 -6.27406 70.5398
50 1 18.915 44.9892 79.904
49 1 19.2608 45.9288 79.5836
68 1 3.67132 75.6136 79.0209
71 1 3.85687 75.2657 77.9309
77 1 5.51016 76.6631 79.1571
69 1 2.75034 75.0685 79.2052
70 1 3.06708 74.6212 78.2768
72 1 4.79491 75.5436 77.3722
459 1 -34.8178 -10.6555 82.6223
48 1 19.3679 45.7372 80.5272
45 1 18.8493 45.7723 81.7997
52 1 20.5704 44.2587 79.9016
51 1 19.9523 44.9798 79.8681
59 1 20.3016 43.422 81.1293
42 1 19.3932 44.0722 81.8191
60 1 19.882 44.3613 80.7136
44 1 18.4302 45.0965 81.1666
57 1 21.296 42.8055 81.6137
56 1 20.8702 43.5763 81.9726
55 1 21.2051 44.5369 82.1574
67 1 4.15655 74.9354 79.5458
63 1 6.04254 75.1506 78.49
64 1 5.45243 74.5741 78.8869
65 1 5.94108 74.7997 79.8012
62 1 6.2621 75.7366 79.2183
78 1 5.55676 76.0254 80.0564
76 1 5.20444 75.6424 79.1581
66 1 4.91228 74.5723 79.8192
74 1 4.52115 76.0378 78.3242
73 1 5.38085 76.1916 77.9235
75 1 4.68089 75.0437 78.3902
458 1 -34.4766 -9.85188 82.9592
460 1 -35.2576 -10.9979 81.85
457 1 -34.9711 -9.77328 82.1505
453 1 94.3037 -11.9292 81.0528
455 1 95.247 -10.2388 81.7299
443 1 -35.3822 -11.8498 83.2093
446 1 94.4587 -12.1771 82.1662
444 1 94.9212 -11.4306 83.0253
445 1 94.6655 -12.4465 83.0895
447 1 94.9148 -12.8132 81.4738
441 1 -34.6393 -12.2052 81.599
442 1 -34.5137 -11.7324 82.412
47 1 19.4702 45.17 81.1973
46 1 19.8319 45.9889 81.7575
53 1 21.0285 44.366 80.7332
54 1 21.6396 44.0514 81.378
41 1 20.1561 44.6182 81.6816
43 1 18.5598 44.1589 81.285
58 1 21.1964 43.1873 80.7436
61 1 7.09285 75.2109 79.4236
80 1 3.73208 75.7415 80.243
79 1 4.71516 75.5468 80.17
456 1 -35.4306 -9.59996 81.3363
452 1 94.919 -11.6362 80.3142
451 1 95.6201 -11.8846 81.0499
454 1 94.7095 -11.2285 81.6397
449 1 -35.4884 -12.7565 82.6191
448 1 -35.5422 -13.2463 81.8063
450 1 95.5147 -11.9294 82.0163
ITEM: TIMESTEP
29000
ITEM: NUMBER OF ATOMS
500
ITEM: BOX BOUNDS pp pp pp
-3.7589658901712795e+01 9.7589658901713264e+01
-3.7589658901712795e+01 9.7589658901713264e+01
-3.7589658901712795e+01 9.7589658901713264e+01
ITEM: ATOMS id type x y z
299 1 37.4909 -25.5243 -25.7733
300 1 37.488 -24.4662 -26.1834
298 1 36.8263 -26.1482 -25.9284
285 1 36.2544 -24.0367 -28.0081
286 1 36.1848 -23.103 -27.6587
287 1 36.7688 -23.7447 -27.0544
296 1 37.7979 -25.0527 -27.1816
297 1 37.1422 -25.7726 -26.8307
284 1 36.632 -24.1135 -28.8993
295 1 36.7766 -24.7688 -27.1974
294 1 36.8894 -25.4226 -27.9777
281 1 37.0135 -25.963 -29.2194
291 1 37.2909 -24.436 -29.6789
290 1 37.6803 -23.7278 -28.9616
289 1 37.1999 -23.3478 -28.1829
288 1 37.3295 -22.9261 -27.2682
283 1 37.3669 -24.4521 -28.2481
282 1 37.5691 -25.1357 -28.8498
292 1 36.4098 -25.0381 -29.7674
293 1 36.2497 -25.1331 -28.7707
117 1 19.3454 82.2707 -9.58364
116 1 20.1274 82.0762 -9.11306
120 1 20.5539 82.5547 -10.2056
119 1 19.6095 83.0017 -10.4282
118 1 18.989 82.2572 -10.5513
105 1 19.5236 83.0106 -11.5097
110 1 20.3805 81.1253 -9.65632
112 1 21.7384 81.5089 -10.6102
111 1 21.2025 80.9223 -10.1425
115 1 21.0454 82.0468 -8.62829
109 1 19.658 81.3857 -10.1332
113 1 21.463 82.2482 -10.0225
102 1 21.3113 81.7628 -11.7587
114 1 21.604 81.5203 -9.3769
107 1 20.5934 81.4497 -10.818
106 1 19.9003 82.0984 -11.1396
103 1 21.2065 82.4309 -11.0261
104 1 20.466 83.0242 -11.204
158 1 61.9379 -21.8772 -3.49366
142 1 60.4154 -21.5949 -7.12242
108 1 20.1424 80.6061 -10.5066
101 1 20.3414 81.3477 -11.9205
151 1 60.175 -22.1321 -5.97222
153 1 60.7692 -20.856 -6.17718
159 1 61.4342 -21.027 -3.78715
148 1 61.0315 -22.3483 -6.46588
152 1 60.4364 -21.4267 -5.4507
141 1 61.4246 -21.459 -6.87887
144 1 60.7542 -23.3856 -7.3142
143 1 60.0707 -22.6189 -7.12148
157 1 62.1081 -21.7842 -4.47162
146 1 61.9409 -22.4413 -7.04568
150 1 60.7007 -22.699 -5.43986
160 1 61.9808 -20.2862 -3.47501
147 1 61.9154 -22.7301 -6.03475
154 1 61.4812 -21.508 -5.89694
149 1 60.9628 -23.3241 -6.24242
156 1 61.2276 -21.948 -4.89631
155 1 61.5002 -20.945 -5.1382
145 1 61.1372 -22.4295 -7.58901
301 1 64.4772 -2.58618 1.01981
302 1 64.0575 -3.36779 0.488529
423 1 63.8951 -3.70375 1.46533
421 1 64.7583 -5.0471 0.444998
422 1 64.0212 -4.55631 0.861594
427 1 62.2513 -4.90811 2.38065
428 1 62.4052 -4.75058 3.35702
424 1 62.8447 -3.70372 1.55559
425 1 63.1807 -3.56747 2.53
426 1 62.1911 -3.9315 2.43328
305 1 62.6793 -4.1037 0.545719
436 1 64.2548 -2.55016 2.17197
319 1 62.6093 -2.69097 3.37754
320 1 62.7324 -3.60749 3.46478
308 1 61.8384 -3.63614 1.08705
306 1 62.021 -4.68507 0.048068
307 1 61.8461 -4.46647 1.07105
303 1 63.5047 -2.75519 0.478947
304 1 62.5565 -3.2088 0.350691
309 1 62.0054 -3.03459 1.88241
438 1 65.2532 -3.74705 2.45315
437 1 64.3256 -3.42125 2.56312
313 1 62.1336 -1.24975 1.82616
429 1 63.1264 -5.1893 3.92092
431 1 63.7447 -3.34992 3.72701
434 1 63.355 -2.63104 1.55051
435 1 63.9038 -1.87565 1.77897
430 1 63.5247 -4.34906 3.65348
433 1 62.8512 -2.57339 2.37608
318 1 61.8123 -3.1502 3.06944
317 1 61.1057 -2.40874 2.94043
310 1 61.7104 -2.24516 1.36918
439 1 64.9632 -3.28463 1.61928
312 1 62.9034 -1.44577 1.43248
316 1 61.9358 -2.07867 2.54317
311 1 62.5807 -2.31025 1.04168
440 1 65.7688 -3.90306 1.54
314 1 61.7173 -0.908363 2.66645
432 1 63.6191 -2.66671 2.93613
315 1 62.631 -1.51032 2.60544
16 1 80.2458 13.7469 33.5949
5 1 80.4007 13.599 32.0563
18 1 79.902 12.7744 33.1932
17 1 80.9232 12.9679 33.2502
4 1 80.4487 13.2326 31.1687
2 1 80.6713 12.5352 32.2642
3 1 81.0115 12.4082 31.4085
1 1 81.5231 13.0401 32.3737
6 1 79.5878 13.884 32.8254
19 1 80.3784 12.8279 34.2129
20 1 79.5152 12.378 34.6014
15 1 79.9996 14.5992 33.9295
12 1 81.8732 13.613 33.8286
11 1 81.2869 13.8716 33.0388
14 1 81.0059 14.7871 34.139
13 1 81.0904 13.7993 34.1515
8 1 80.9751 14.4562 32.198
7 1 80.3068 14.7709 32.8933
9 1 81.9208 14.4639 32.3264
10 1 81.542 14.7455 33.0998
383 1 86.7856 72.7888 36.247
384 1 87.6414 72.6456 36.9033
385 1 87.1944 71.7172 37.0474
387 1 86.5077 71.8018 35.7685
388 1 86.0337 72.4089 34.9921
382 1 87.3769 73.5063 36.5794
381 1 87.5606 73.2076 35.6508
386 1 87.4412 72.0068 36.0833
398 1 86.7601 74.6941 36.4964
397 1 87.776 74.8321 35.7889
264 1 86.5331 73.7339 38.231
261 1 85.9508 72.035 37.93
263 1 86.4603 73.3241 37.3652
389 1 85.6732 73.1267 35.4069
265 1 87.3166 73.6447 38.7184
280 1 83.6494 73.1305 35.3225
390 1 85.0043 73.7491 35.427
395 1 86.5253 75.0769 35.5602
266 1 88.0314 74.2164 38.4002
267 1 87.4338 74.4754 37.5397
391 1 85.6298 73.8956 34.6541
400 1 85.9099 76.1055 35.7733
399 1 86.2478 75.5448 36.5191
394 1 85.597 74.6613 35.6711
396 1 87.2463 74.8638 34.9035
276 1 84.3595 73.8919 37.5635
277 1 83.6632 74.5478 37.206
275 1 85.349 73.8527 37.4127
278 1 83.4125 74.5988 36.2383
273 1 84.1513 73.5864 36.5186
262 1 86.0574 72.5622 37.0529
279 1 83.4334 74.1355 35.3322
270 1 85.6091 74.6461 36.8142
272 1 84.5748 74.2319 36.1852
271 1 84.6991 74.8386 36.8012
393 1 86.1823 73.8917 35.9915
268 1 86.8612 75.1498 37.4535
392 1 86.469 73.7622 35.0585
269 1 86.0013 74.9039 37.654
274 1 85.2516 73.5113 36.5113
196 1 91.3023 86.0454 46.6039
140 1 87.4634 85.297 48.6879
139 1 87.818 86.1526 48.3492
137 1 88.9105 86.0345 47.9765
136 1 89.6234 85.4802 48.0026
195 1 90.8339 86.9581 47.0983
194 1 89.7785 86.6409 47.1823
193 1 90.0536 87.5785 47.7059
409 1 86.7837 87.407 48.5077
402 1 90.9128 90.5638 49.0413
401 1 91.5103 89.8452 48.6107
191 1 90.5968 86.7686 49.1583
403 1 90.0458 90.6123 48.4471
192 1 90.754 87.4813 48.4703
408 1 87.8423 87.1583 48.7767
407 1 88.5274 87.5262 48.3276
406 1 88.9165 88.1157 47.5657
405 1 89.5832 88.8311 47.914
404 1 90.0059 89.6902 47.9448
358 1 89.568 89.3209 48.9256
419 1 88.5964 83.6548 47.7869
420 1 88.8376 84.5653 47.9138
197 1 91.0047 85.2798 45.9042
198 1 90.4175 84.4744 46.4427
128 1 91.7686 85.6059 48.8249
413 1 87.2701 87.0011 49.8534
138 1 88.7208 86.4305 48.8389
135 1 89.6327 84.7386 48.5547
134 1 90.2387 84.851 49.387
130 1 90.9846 86.4911 48.1991
131 1 89.8914 86.4927 48.3381
183 1 90.427 84.0937 50.1469
129 1 91.9068 86.6093 48.6375
190 1 90.9485 86.2268 49.7263
127 1 91.1407 84.8531 48.625
471 1 93.0914 85.7027 49.2951
472 1 93.2093 84.8155 49.8223
411 1 86.1514 87.4893 49.3181
412 1 86.3891 86.5552 49.6105
133 1 89.3124 85.4916 49.1451
414 1 88.0396 86.4679 49.652
491 1 89.9807 85.9055 49.8244
132 1 90.3364 85.8012 48.8135
347 1 89.5013 87.0538 49.2254
492 1 90.4523 85.9556 50.7744
184 1 90.9475 84.8354 50.3808
189 1 91.9116 86.2325 49.6839
470 1 93.0903 86.7652 49.3897
188 1 92.6166 85.835 50.1302
410 1 86.5291 88.2256 48.815
344 1 87.3842 88.3306 49.9651
346 1 89.1109 87.7106 49.6448
359 1 89.4335 89.0908 49.8285
357 1 90.3997 88.6433 48.727
349 1 90.216 87.8796 49.4785
348 1 89.6534 87.9147 48.6924
356 1 91.0154 88.5642 47.8815
350 1 91.3809 87.9594 49.4817
355 1 91.7302 87.9696 48.2899
354 1 92.6366 88.2011 48.083
343 1 88.296 88.8891 50.1257
360 1 89.885 89.5994 50.5942
345 1 88.1796 87.7497 49.9803
342 1 88.46 88.4961 49.0791
85 1 91.5174 90.3987 50.6337
83 1 90.4838 91.0321 50.9666
341 1 88.2521 88.7131 48.0225
82 1 90.6776 90.1055 51.329
200 1 89.8707 84.6001 47.3212
418 1 88.3857 83.5145 48.7913
487 1 88.6197 85.104 50.2098
121 1 90.427 83.9003 48.9209
122 1 90.4464 83.6015 48.0711
199 1 90.2442 85.3801 46.8439
125 1 91.249 84.0761 47.8432
126 1 90.9611 84.9503 47.5815
417 1 89.1074 84.0732 49.1415
416 1 88.3042 84.6226 49.0882
488 1 89.5779 84.8684 50.1115
489 1 89.5152 85.5806 50.6754
495 1 90.3791 83.4972 51.738
182 1 90.2958 83.1159 50.4751
181 1 91.3108 83.6561 50.7982
477 1 92.6163 84.5238 51.4579
474 1 92.2602 84.8168 49.3796
475 1 92.5199 83.985 50.0556
473 1 93.1285 84.526 48.9157
476 1 92.4494 84.8958 50.5524
415 1 88.2374 85.5564 49.4221
490 1 89.0217 86.0721 49.8989
493 1 90.4801 85.3005 51.5689
494 1 90.4374 84.3245 51.2073
185 1 91.5924 85.5576 50.4322
91 1 91.9771 87.2389 51.2594
92 1 91.2302 87.4646 51.8129
186 1 91.5204 86.4616 50.7737
187 1 92.3641 86.2841 51.0873
468 1 94.4308 86.1556 50.6557
467 1 94.4645 86.1596 51.6971
469 1 93.9451 86.3941 49.8082
466 1 94.7523 87.1119 51.9948
339 1 88.1901 87.286 51.1296
338 1 88.8069 86.9716 50.3612
337 1 89.7188 86.844 50.6275
340 1 87.5309 86.5279 50.8433
335 1 90.5619 87.6503 51.0853
336 1 90.5085 87.2198 50.2279
89 1 91.4233 88.4527 50.3407
351 1 92.2201 87.4924 49.0715
352 1 93.0158 87.9197 49.5181
353 1 93.3066 87.7423 48.6267
461 1 92.3896 87.9916 50.6309
465 1 93.7116 87.0535 52.024
331 1 89.1081 89.2476 52.6091
330 1 89.9128 89.7847 52.4853
333 1 90.1741 88.5848 51.3481
87 1 90.8027 89.2326 50.8474
81 1 90.898 89.4022 51.986
88 1 91.907 89.2471 50.9043
86 1 91.1323 89.5616 49.9318
84 1 90.4793 90.4454 50.2051
462 1 92.5529 87.2012 50.3011
463 1 93.3372 86.9339 50.9654
332 1 89.4742 88.3583 52.0066
486 1 88.8785 84.1475 50.3197
485 1 87.8657 84.5009 50.0236
482 1 88.4908 83.7154 51.5917
123 1 90.5496 83.2365 47.1794
124 1 91.3149 83.0689 47.6148
480 1 92.7542 86.472 52.0132
361 1 91.8532 85.4524 52.4853
498 1 88.8346 85.1855 51.284
322 1 88.7217 85.4209 52.3997
496 1 89.4707 83.4769 51.005
484 1 87.3787 84.9321 50.759
497 1 89.3419 84.5073 51.4433
93 1 90.8786 88.3485 52.2228
362 1 91.5437 85.6183 51.501
479 1 93.3454 85.9499 51.5806
478 1 93.2603 85.03 51.0638
219 1 93.3126 86.5642 53.5246
499 1 88.1385 85.6455 50.8576
326 1 89.372 87.7516 50.9449
325 1 89.5086 87.1325 51.6799
500 1 89.0012 86.3191 51.1061
95 1 90.3757 88.1385 53.7387
371 1 91.1017 87.32 52.8746
94 1 90.2176 87.9772 52.6924
368 1 91.5495 85.4126 54.4563
370 1 91.7831 86.7101 52.9872
369 1 91.7093 86.0916 53.7186
220 1 94.3802 86.8234 53.3842
327 1 89.2162 88.5466 50.7433
334 1 90.3063 88.4781 50.3699
90 1 91.4708 87.5021 50.5483
202 1 92.1031 89.0465 51.8915
207 1 92.0203 87.6168 53.4008
464 1 93.575 87.778 51.3527
328 1 88.8938 89.3869 50.993
329 1 89.7867 89.5198 51.6012
99 1 91.7075 90.1811 52.5821
100 1 91.8087 89.241 52.9523
203 1 91.7855 88.3434 51.4048
201 1 92.6013 88.033 51.9111
481 1 88.2709 83.2059 50.6663
377 1 89.832 84.0938 52.394
483 1 87.9724 84.4514 51.0489
364 1 91.559 83.8977 52.0528
363 1 91.5334 84.6968 51.3952
365 1 90.7868 84.6021 52.3063
218 1 93.7982 86.0223 54.0914
321 1 88.7192 86.31 52.5371
324 1 90.1184 86.3793 51.7258
376 1 89.7672 84.9927 52.4766
323 1 89.4767 85.715 51.882
373 1 89.7631 86.2464 52.754
374 1 89.6698 85.6615 53.4788
372 1 90.6016 86.4025 53.2496
366 1 90.7222 85.6319 52.5845
367 1 91.3546 85.157 53.3319
216 1 92.5197 86.9892 53.943
217 1 92.8706 86.1663 54.4289
96 1 89.4298 88.3949 53.5705
97 1 90.0759 89.1468 53.2773
204 1 91.8279 87.9973 52.4495
205 1 91.2463 88.4194 53.2368
208 1 92.7862 87.9394 53.0338
206 1 91.5287 87.9942 54.195
209 1 92.2357 88.6441 53.6562
210 1 93.0984 88.5298 54.1241
98 1 90.8298 89.8202 53.0996
379 1 88.6451 84.4759 52.9886
378 1 89.04 83.6774 52.7284
380 1 88.2143 84.6932 52.0098
375 1 89.8382 84.5749 53.4307
214 1 93.0503 87.2671 54.8187
213 1 92.598 87.5551 55.5812
215 1 93.3301 87.553 53.889
211 1 92.4643 88.7201 54.8547
212 1 93.2091 88.2493 55.5092
37 1 88.5706 80.575 59.3953
36 1 87.6632 80.4279 59.802
40 1 87.3611 81.0052 60.6347
242 1 88.338 79.5239 62.4062
38 1 88.7172 80.3197 60.2218
39 1 87.9092 80.2131 60.7635
243 1 88.8492 79.5305 61.5941
174 1 84.9072 80.9401 61.9014
34 1 86.6274 81.0268 59.8804
35 1 86.7477 80.0179 59.9899
33 1 85.7879 80.8017 60.5422
31 1 86.533 81.5805 60.9996
22 1 84.8593 81.4141 60.2978
21 1 83.9127 81.2941 60.3264
163 1 85.8413 78.6692 63.8487
162 1 85.4354 79.2558 64.527
161 1 84.3795 79.5717 64.4127
244 1 88.4144 79.2161 60.8729
171 1 85.2648 79.09 61.1714
168 1 86.4207 78.7088 61.252
241 1 88.3878 80.2705 63.0106
245 1 87.842 78.898 61.4998
173 1 84.5149 80.7173 61.0101
172 1 84.9403 79.8486 60.5102
170 1 85.3919 80.0548 61.3899
256 1 85.6405 78.4816 62.1584
246 1 87.1831 79.7253 61.3966
169 1 86.1368 79.5976 60.8641
247 1 87.2818 80.5644 61.8776
260 1 85.1743 79.6878 63.1821
180 1 84.7384 80.5011 63.8546
175 1 84.2842 81.6941 61.5506
176 1 85.2762 81.8094 61.398
177 1 85.7106 81.6589 62.4175
30 1 85.8379 82.1034 60.3932
29 1 86.7854 82.4996 60.249
32 1 86.3027 80.736 61.2359
23 1 84.795 82.3158 59.9775
24 1 84.015 82.7157 60.4815
26 1 84.737 82.7578 61.8041
25 1 84.1154 83.2513 61.3153
164 1 86.6095 78.4995 63.3066
166 1 86.8087 79.0199 62.3494
167 1 86.5916 78.1729 61.9546
165 1 87.261 79.2756 63.0823
250 1 86.5261 81.6918 62.9626
251 1 86.8782 80.8445 63.1956
259 1 84.7885 78.8305 63.2612
258 1 84.7572 78.1283 62.5561
257 1 85.6385 78.0224 62.9303
255 1 85.5593 79.4238 62.2396
248 1 87.6356 81.4303 62.0272
249 1 86.7355 81.7392 61.9839
179 1 85.1611 80.7988 63.1293
178 1 85.9049 80.8 62.4895
28 1 86.699 82.6935 61.2349
27 1 85.6872 82.926 61.466
253 1 86.2798 79.7707 63.2288
252 1 86.6504 80.3977 64.0687
254 1 86.4077 79.8871 62.2564
237 1 70.9012 -3.8632 72.1669
239 1 72.2666 -4.79062 71.3461
238 1 71.7847 -4.27607 72.0199
229 1 72.6595 -5.15646 73.9928
240 1 73.1232 -5.4362 71.1672
231 1 73.2483 -4.61061 73.3029
230 1 73.5719 -5.24267 74.1244
222 1 71.2659 -5.28058 71.871
221 1 71.3363 -5.95259 72.589
223 1 71.2086 -6.08895 71.4119
224 1 71.1728 -7.04256 71.7493
225 1 71.9586 -6.76176 71.827
236 1 71.6895 -3.34505 72.6734
235 1 72.281 -3.25906 73.3232
233 1 72.831 -3.93384 72.343
228 1 72.6936 -5.59482 73.0738
226 1 72.3933 -5.93772 71.8122
227 1 72.0727 -5.23819 72.5532
232 1 73.1671 -4.8056 72.3274
234 1 72.1813 -4.19737 73.118
71 1 2.94863 76.782 79.9497
70 1 3.31762 76.1551 80.4929
72 1 3.53453 77.0798 79.1994
75 1 5.43589 77.7358 79.3489
63 1 4.23437 76.4755 78.7079
74 1 4.61798 77.8909 79.8326
73 1 3.91661 77.2081 80.2147
52 1 19.6025 44.469 83.0182
50 1 20.4547 45.2127 81.8159
49 1 20.6111 44.4013 81.2241
51 1 19.7521 44.5014 81.9324
68 1 3.96353 75.2943 80.4875
69 1 4.36004 76.2366 80.3537
67 1 3.99349 74.9115 79.6309
76 1 4.89208 77.0122 79.2739
66 1 4.11749 74.9881 78.6508
64 1 4.10746 75.9466 79.3812
65 1 3.2901 75.8442 78.8654
62 1 4.28226 75.8 77.9665
61 1 5.07028 75.4867 78.4134
77 1 4.51024 77.5336 78.6783
78 1 4.06437 78.2894 78.8649
451 1 -35.5323 -10.9874 83.014
453 1 -36.4858 -12.311 83.2763
447 1 -36.5183 -10.7016 82.8883
452 1 -35.9436 -11.6191 83.6481
456 1 -36.5285 -13.4559 84.7654
58 1 21.1483 45.8098 82.6134
43 1 21.1118 44.778 83.8108
59 1 20.691 45.7481 83.5312
60 1 20.0795 46.3682 84.0526
53 1 19.2683 45.3835 83.4314
54 1 19.9567 45.3763 82.7498
48 1 21.2803 43.5795 81.4288
44 1 20.7172 44.6752 82.9826
47 1 20.677 43.9004 82.128
80 1 3.54968 78.6946 79.747
79 1 3.10359 78.1627 79.1005
448 1 -36.309 -11.5983 82.4699
441 1 -36.0059 -13.6119 81.5598
442 1 -36.2255 -13.4983 82.5246
449 1 -35.5738 -12.0757 82.3448
446 1 -37.0495 -11.4413 83.2642
450 1 -35.0377 -11.7543 83.0946
459 1 -36.1531 -13.8059 83.7126
460 1 -36.9693 -13.271 83.4289
455 1 -36.2196 -12.7441 84.1503
454 1 -35.6567 -12.9118 83.2847
457 1 -35.9967 -14.1427 85.1376
57 1 21.2804 46.903 82.8338
42 1 20.1373 44.8863 84.014
41 1 20.3855 43.9351 83.876
56 1 20.255 46.7693 82.5398
55 1 19.4024 46.253 82.685
45 1 21.5993 45.0675 82.8995
46 1 21.5489 44.4858 82.032
443 1 -36.5109 -12.5964 82.053
445 1 -37.5228 -11.141 82.4317
444 1 -37.3491 -12.0676 82.4113
458 1 -35.5485 -13.9572 84.356
ITEM: TIMESTEP
30000
ITEM: NUMBER OF ATOMS
500
ITEM: BOX BOUNDS pp pp pp
-3.9382978002597611e+01 9.9382978002598108e+01
-3.9382978002597611e+01 9.9382978002598108e+01
-3.9382978002597611e+01 9.9382978002598108e+01
ITEM: ATOMS id type x y z
300 1 36.4168 -26.7939 -32.2437
299 1 36.6508 -26.0831 -31.39
286 1 35.9384 -25.6431 -29.9367
296 1 37.555 -25.8121 -29.9311
297 1 36.7371 -26.2957 -30.1829
298 1 37.4553 -26.2943 -30.8076
285 1 36.7149 -25.1676 -30.2157
294 1 37.7144 -24.2973 -29.8071
295 1 37.7445 -25.0866 -30.5373
281 1 37.0341 -27.6611 -28.634
282 1 36.9918 -26.9994 -29.4168
287 1 36.1803 -26.2286 -29.2422
283 1 37.3415 -26.1329 -28.9301
288 1 36.5114 -25.7514 -28.4087
292 1 38.1322 -25.3806 -28.6639
284 1 36.8342 -25.2623 -29.2331
293 1 38.0191 -24.3976 -28.7793
291 1 37.4774 -25.4692 -27.9334
290 1 37.7068 -26.2809 -27.9542
289 1 36.8451 -26.6138 -28.0823
113 1 19.3543 82.4945 -13.4991
103 1 19.4631 83.4043 -12.8887
112 1 20.3231 82.8331 -13.265
115 1 20.1487 83.9529 -13.4761
114 1 19.6807 83.2677 -14.0094
117 1 21.2883 83.2417 -13.4213
116 1 21.069 84.3047 -13.5683
110 1 20.1198 82.2295 -11.5547
102 1 18.9699 82.7509 -12.4068
101 1 18.4356 83.4342 -12.0307
107 1 19.4493 83.4811 -11.7916
111 1 20.0493 82.6368 -12.4319
119 1 20.6042 83.3977 -11.5953
120 1 20.2775 83.9274 -12.3642
118 1 21.0172 83.274 -12.5184
105 1 18.8807 84.4943 -11.6328
104 1 19.2565 84.3138 -12.5095
106 1 19.8315 84.3666 -11.5212
109 1 19.7847 82.4829 -10.581
108 1 19.0867 82.7837 -11.2388
160 1 62.4371 -23.9026 -8.62519
157 1 62.3861 -24.6674 -7.29551
158 1 63.188 -24.8339 -7.88081
159 1 63.4066 -24.0489 -8.32933
155 1 63.6315 -23.2328 -7.27034
147 1 62.1254 -24.0233 -6.11239
145 1 61.2573 -22.7153 -6.44623
144 1 62.1251 -22.9242 -6.01728
146 1 61.787 -23.5012 -6.95498
156 1 62.9017 -23.8125 -6.97531
141 1 63.0459 -22.7263 -6.55081
148 1 63.0444 -23.6665 -5.79071
154 1 64.0528 -23.6061 -6.55715
153 1 64.3938 -22.6678 -6.45573
142 1 62.7295 -21.8582 -6.12834
149 1 62.6133 -24.2734 -5.12419
151 1 62.9182 -22.7372 -5.42105
150 1 62.249 -23.3345 -5.02495
143 1 61.8262 -22.0621 -5.63456
152 1 63.8632 -22.4939 -5.57723
301 1 62.3829 -3.07317 -0.379342
303 1 63.0171 -4.2725 -0.335608
302 1 63.4771 -3.36769 -0.216609
440 1 64.4108 -4.17799 -0.21886
422 1 63.7173 -4.99957 0.0666408
421 1 64.4775 -5.06621 0.647516
312 1 61.4637 -2.96244 0.864072
304 1 62.3063 -3.72418 0.401077
424 1 63.2897 -3.31411 0.984775
423 1 63.6219 -4.26145 0.757476
439 1 65.0274 -4.10338 0.538751
436 1 64.6355 -3.13229 0.941346
313 1 62.3389 -2.62146 0.855607
434 1 63.5814 -2.30042 1.14195
435 1 64.6816 -2.06258 1.02897
308 1 62.4184 -4.97904 1.87842
309 1 62.8498 -4.48214 2.57351
306 1 63.5649 -4.84546 1.72839
307 1 63.1596 -5.64855 1.70586
438 1 65.234 -4.44694 1.4638
305 1 62.7765 -4.22814 1.2905
310 1 61.9682 -4.00014 2.14105
311 1 61.6794 -3.86663 1.27359
315 1 62.1639 -3.10457 2.63134
314 1 62.5817 -3.19499 1.68062
425 1 63.431 -3.63304 1.99527
432 1 65.0931 -3.04572 1.92596
437 1 64.4672 -3.9219 1.45006
431 1 64.6139 -3.8906 2.51978
316 1 61.332 -2.8475 2.24646
320 1 62.0362 -1.81295 2.19461
433 1 64.0243 -2.87143 1.77111
430 1 65.1394 -4.63277 3.02869
427 1 63.2386 -3.93213 3.81099
426 1 63.1879 -3.53582 2.96246
428 1 64.0455 -3.16376 3.55541
429 1 64.7591 -3.84718 3.50101
317 1 61.4476 -2.17717 3.05857
318 1 62.1141 -2.66059 3.81635
319 1 62.4923 -2.24303 2.99537
20 1 79.0045 13.1016 33.4926
9 1 81.0901 13.0987 33.2554
15 1 81.4193 13.8574 32.3995
18 1 79.6939 14.0245 33.1019
17 1 80.0668 14.3583 32.2019
16 1 80.7374 14.3344 32.8522
13 1 81.7755 14.8198 33.3448
14 1 81.9734 14.7306 32.2979
1 1 78.7182 13.4093 34.4557
3 1 80.0012 13.2057 34.742
19 1 80.0409 13.2542 33.541
10 1 80.84 13.665 34.0847
8 1 81.5559 12.8817 34.1631
12 1 82.3443 14.7971 34.0131
11 1 81.7322 13.9383 33.8458
2 1 79.1937 13.2923 35.3489
4 1 80.2966 13.7419 35.4689
5 1 80.7649 12.9446 35.9379
6 1 80.8821 12.4967 35.0682
7 1 81.443 13.4124 35.0089
278 1 85.7378 74.1732 35.7655
273 1 87.6879 75.2667 36.306
398 1 88.1287 74.1701 35.8107
400 1 87.1635 74.5747 35.8645
399 1 87.5403 74.2077 35.0464
397 1 89.1747 74.4624 35.8976
280 1 85.5469 75.6363 36.2822
271 1 86.6385 75.6772 35.8302
272 1 87.5558 76.1575 35.8196
277 1 86.5007 73.9894 36.4129
389 1 88.1136 73.2875 37.5597
275 1 87.3253 73.7142 37.1223
390 1 88.657 73.7711 36.8241
391 1 89.1962 73.0673 36.7511
385 1 89.3315 73.754 37.5775
392 1 89.7359 73.9513 36.6512
393 1 90.3662 74.0228 37.429
279 1 86.0981 74.9122 36.3493
274 1 87.9345 74.483 36.9089
276 1 86.8608 74.4064 37.1889
267 1 86.9539 75.5188 37.162
396 1 89.2061 75.2147 36.5788
384 1 89.0702 74.6576 37.5142
381 1 88.3465 75.4168 37.3039
395 1 90.0413 75.1087 36.3391
394 1 90.7973 74.3565 36.4367
270 1 86.4626 76.3286 36.4869
268 1 86.6286 76.4113 37.6872
269 1 87.3381 76.514 36.8003
388 1 88.4887 72.737 38.1521
387 1 88.3657 73.4186 38.8118
386 1 89.2586 73.9054 38.4961
263 1 87.6899 74.852 38.8015
264 1 88.0992 74.1897 38.0674
266 1 87.5101 74.9947 37.7975
265 1 87.0821 74.2211 38.1646
262 1 88.7057 74.8034 38.7316
261 1 89.7288 74.8851 38.8073
383 1 89.0594 75.7543 37.9612
382 1 88.18 75.8682 38.1106
123 1 93.2369 86.6727 47.3918
124 1 92.4496 86.892 46.8017
125 1 92.6181 87.5635 47.4083
126 1 93.5905 87.8242 47.085
200 1 91.772 88.9935 46.7668
198 1 92.2565 90.8649 47.1372
199 1 91.7968 90.0202 46.5316
420 1 92.1604 84.6002 48.2742
419 1 92.995 84.6383 48.8828
135 1 91.9375 86.4622 47.7285
140 1 91.6615 85.9951 48.8374
418 1 93.3626 85.6104 48.8832
134 1 92.6103 86.1775 48.3068
122 1 93.8585 86.6395 48.2548
137 1 91.0531 88.078 47.8703
136 1 91.5692 87.3453 47.5561
138 1 91.1545 87.658 48.7695
129 1 92.1484 87.9131 48.2088
128 1 93.0333 87.3651 48.3759
470 1 95.2994 86.9077 48.4449
407 1 89.6033 89.2765 48.8068
195 1 92.1628 89.3645 48.3168
130 1 92.6599 88.2532 48.9023
127 1 93.2728 88.2852 48.0039
406 1 89.7167 89.8388 48.1197
405 1 90.4932 89.7775 48.6554
196 1 91.6909 90.2359 48.7287
197 1 92.1998 90.6432 48.0487
415 1 90.8784 85.2626 49.6561
416 1 91.8536 84.8914 49.592
486 1 88.9872 86.084 50.1729
139 1 90.9459 86.766 49.015
414 1 90.3569 85.5559 48.9989
488 1 90.1892 86.3929 50.2814
413 1 89.9761 86.3359 49.1319
417 1 92.612 85.4215 49.3956
121 1 93.5909 86.598 49.1836
133 1 92.5358 86.6326 49.2675
183 1 92.4016 86.581 50.2588
181 1 93.9154 85.6823 50.0031
469 1 94.6645 86.1604 49.0349
411 1 89.3496 87.1373 49.8963
484 1 88.7134 87.9583 50.2379
412 1 89.7493 87.2805 48.9709
410 1 89.7706 88.0517 50.2483
490 1 90.5886 87.6313 49.733
131 1 92.053 87.9464 49.6397
491 1 91.2275 87.5815 50.2784
132 1 93.0693 87.3997 49.8168
473 1 94.2843 87.0127 49.8148
471 1 95.0681 87.7101 49.078
353 1 94.5902 88.0741 49.9824
472 1 94.0766 87.592 49.0069
468 1 95.2706 86.768 49.4637
467 1 95.4453 87.2466 50.1936
409 1 89.8655 89.0446 50.149
194 1 91.8834 89.0431 49.1973
193 1 91.0672 88.5942 49.1442
192 1 91.3954 88.6378 50.18
351 1 93.1388 89.1602 49.768
352 1 93.6149 88.3295 49.8431
354 1 94.5039 88.8796 49.3871
404 1 90.6882 90.4811 49.1958
408 1 89.6261 89.8269 49.623
349 1 91.9985 90.011 49.7653
348 1 91.0895 89.6105 49.7525
350 1 92.8657 89.9594 49.4828
356 1 93.9325 90.2723 50.293
355 1 94.1329 89.7183 49.6744
403 1 91.1608 91.2954 49.1007
402 1 91.8979 91.0656 49.5918
401 1 92.6854 91.1024 48.9424
362 1 93.2684 84.1393 51.5473
487 1 89.663 85.792 50.9131
497 1 90.3942 86.5836 51.6716
496 1 90.9777 85.7489 51.4059
492 1 91.0906 86.7527 50.8953
495 1 91.4727 85.8487 50.3858
494 1 92.0151 85.7927 51.3974
493 1 91.7395 86.6842 51.5993
182 1 93.1581 85.978 50.7781
475 1 94.5103 86.3436 50.6158
476 1 94.1221 85.8827 51.351
485 1 88.5298 86.9283 50.6561
489 1 90.3063 87.4042 50.7682
185 1 92.0664 87.3943 51.0069
474 1 93.7339 86.8023 50.3654
189 1 92.675 88.1077 50.6249
184 1 92.748 86.8882 51.1323
188 1 93.0526 88.024 51.5051
479 1 93.6799 86.9989 51.481
462 1 93.8509 87.7248 50.7141
463 1 94.5806 88.1281 51.3155
220 1 94.7346 86.9497 51.5156
466 1 95.7026 87.7655 50.8275
483 1 89.1906 88.1875 51.1347
340 1 88.6488 89.3942 51.4188
337 1 90.0893 88.6596 51.2552
191 1 92.2536 88.9827 50.3666
336 1 91.0066 88.2077 51.3977
357 1 93.5554 89.5523 50.6513
190 1 92.7308 89.0172 51.117
461 1 93.7103 88.6355 50.9889
464 1 94.7522 89.122 51.1296
465 1 95.7044 88.6989 50.7004
347 1 90.5984 89.7677 50.6744
346 1 90.5621 89.8805 51.5435
359 1 92.2245 90.7844 50.5707
360 1 91.7024 89.9575 50.9845
358 1 92.7028 89.9245 50.5495
87 1 93.2374 90.787 51.5158
88 1 94.0637 90.2765 51.3433
85 1 91.5665 91.2741 51.2117
378 1 90.3278 85.2226 52.6873
363 1 92.7133 84.9896 51.9737
361 1 93.8493 84.6479 52.13
380 1 89.5414 86.6673 52.2848
379 1 89.8593 86.1052 52.9863
377 1 91.1022 85.7865 52.5295
364 1 92.0996 85.5263 52.4142
376 1 90.9878 86.5289 53.1121
369 1 92.1582 86.5449 52.8725
367 1 93.3289 86.2834 52.878
368 1 92.6867 86.3467 52.0576
478 1 94.0299 86.4965 52.2304
477 1 94.7519 85.9256 51.9993
481 1 88.8046 87.2085 51.7937
482 1 88.8246 87.922 52.2136
499 1 90.1314 87.1474 52.9435
500 1 89.8225 87.8738 52.1331
498 1 90.8269 87.3617 52.2709
186 1 92.166 87.6305 51.813
92 1 92.1752 88.1647 52.864
187 1 92.9293 87.591 52.3482
213 1 93.6433 87.2317 52.9519
480 1 94.3594 87.5781 52.287
219 1 95.6091 87.2095 51.7562
217 1 95.6401 87.493 53.1218
218 1 96.3006 87.6819 52.2872
343 1 88.8424 89.3701 52.9017
339 1 89.4941 89.0155 52.1426
338 1 90.3569 88.8223 52.099
335 1 91.2403 88.2754 52.2573
334 1 91.7607 89.0135 51.7277
203 1 92.0027 89.3423 52.7469
90 1 93.7733 88.4768 52.203
89 1 93.5991 89.4571 51.849
91 1 92.8401 88.7241 52.5184
208 1 94.5353 88.9519 53.031
344 1 88.8801 90.2733 52.422
345 1 89.5882 90.1642 51.741
326 1 89.8186 90.3161 52.8704
84 1 90.8273 90.7734 51.847
332 1 90.7643 90.0124 53.112
86 1 92.2491 90.9611 51.8638
83 1 91.205 90.8404 52.6752
333 1 91.3573 89.9338 52.1434
202 1 92.4244 89.7782 51.9763
201 1 92.6451 90.3841 52.7324
81 1 90.6092 91.9642 52.7203
82 1 91.534 91.6957 52.338
365 1 92.3625 85.0904 53.3258
375 1 91.1239 86.6282 54.1868
366 1 93.3732 85.461 53.3678
215 1 94.7117 86.2333 53.6265
373 1 90.6154 87.5563 54.2893
374 1 90.1777 86.8291 53.9872
321 1 89.6005 87.818 54.0423
93 1 91.7613 88.1446 53.7782
371 1 91.5629 87.186 53.4271
372 1 90.9836 87.6878 53.3371
370 1 92.5038 87.26 53.3273
212 1 93.7542 88.0795 53.465
216 1 94.7953 87.1467 53.1363
214 1 93.8177 86.8685 53.6805
341 1 88.4435 89.1045 54.0858
342 1 88.8248 88.4974 53.4007
322 1 90.1184 88.2244 53.1576
323 1 90.5407 88.4919 53.9399
325 1 89.9812 89.2761 53.1925
330 1 90.1158 89.2293 54.4132
324 1 91.0048 88.9602 53.2336
95 1 91.915 89.2047 54.5227
94 1 91.4182 88.4137 54.4143
207 1 93.701 89.2076 53.2335
206 1 92.6321 89.018 53.7285
209 1 94.9142 88.2955 53.4809
210 1 94.9417 89.0818 54.0875
211 1 93.9819 88.8535 54.1204
329 1 89.8084 90.1878 54.1776
331 1 90.8879 89.7311 53.879
204 1 91.7648 90.2049 53.2549
97 1 90.9931 90.7089 54.0375
205 1 92.3841 89.881 53.8581
327 1 89.8948 91.1845 53.4792
328 1 89.6824 91.1081 54.2952
98 1 90.6903 91.6371 54.3143
99 1 91.6699 91.5372 54.0626
100 1 92.4365 91.3969 53.3083
96 1 91.5571 90.1904 54.5778
24 1 86.1466 82.0929 60.0204
39 1 87.6682 81.8837 60.0994
40 1 87.0358 82.2599 59.6335
173 1 86.4891 79.6019 61.215
174 1 86.5288 79.6883 60.1454
22 1 85.1461 80.8719 60.8175
175 1 86.6331 80.5265 60.459
172 1 87.3739 79.8053 60.6223
171 1 87.536 80.0831 61.5319
170 1 87.5462 80.7528 60.9082
168 1 88.894 80.9062 61.4119
23 1 85.3541 81.751 60.2167
21 1 85.9763 81.2937 61.2882
33 1 88.0191 82.2224 61.178
176 1 86.8207 81.4832 60.5656
177 1 87.0753 81.6194 61.4708
35 1 89.3491 81.7505 61.515
34 1 88.5921 81.6353 60.7803
26 1 85.4216 82.9211 60.2566
25 1 86.4479 82.9245 60.3668
27 1 85.8332 83.0047 61.2153
38 1 87.986 82.8893 60.2006
30 1 87.2367 83.61 61.4068
29 1 86.9682 82.6369 61.171
37 1 88.6358 83.1878 60.9701
179 1 85.7484 81.0383 62.6338
255 1 87.8419 80.3097 62.8032
166 1 88.7476 80.7271 62.4751
167 1 88.5211 80.0831 61.7603
244 1 89.8789 80.9533 62.8657
28 1 86.2353 82.2834 61.896
178 1 86.7464 81.4803 62.4618
169 1 87.9983 81.2098 61.9325
251 1 87.5283 82.2372 62.6978
245 1 89.4639 81.7452 62.6446
246 1 88.5649 82.0164 62.4846
31 1 86.9517 83.013 62.2496
32 1 87.8985 82.8496 61.9039
36 1 88.8604 82.5889 61.6685
248 1 89.1162 82.9546 62.7154
249 1 88.4268 83.5309 62.453
256 1 87.8781 79.3039 63.0266
257 1 88.6793 78.9973 63.6567
180 1 86.2802 80.9272 63.5654
260 1 87.282 80.725 63.8917
259 1 88.1892 80.2123 63.8839
165 1 89.0405 80.7799 63.4987
241 1 90.8589 80.0079 63.9046
254 1 88.0193 81.3234 63.1387
253 1 87.8813 81.8467 63.9283
252 1 86.939 82.2291 63.5684
247 1 88.855 82.2968 63.4479
243 1 90.1154 81.2506 63.7798
250 1 87.9288 83.0213 63.2311
258 1 87.9476 79.466 64.3933
161 1 87.5744 80.7498 64.9677
164 1 89.212 80.4152 64.4203
163 1 88.4227 81.0463 64.4762
162 1 88.5011 80.3862 65.2745
242 1 90.5491 80.7133 64.5053
240 1 75.8673 -6.07876 72.4223
227 1 73.8637 -7.24957 74.1199
226 1 74.358 -7.16814 73.1629
223 1 72.1848 -6.25391 73.7002
224 1 72.9476 -6.60337 73.2791
225 1 73.8611 -6.24187 73.5265
238 1 75.4529 -6.75341 74.0731
239 1 75.0596 -6.22883 73.2314
221 1 73.2136 -5.46582 74.0237
228 1 72.8919 -7.09915 74.1954
229 1 73.1733 -6.35323 74.854
237 1 74.5308 -6.5407 74.2659
222 1 72.3345 -5.64794 74.3387
232 1 72.4302 -4.60561 75.2495
231 1 73.3182 -4.52755 75.4214
235 1 73.9792 -4.8345 74.5863
236 1 74.2449 -5.69736 74.8751
233 1 72.2546 -3.78171 74.6923
234 1 73.1766 -4.3307 74.3958
230 1 73.0226 -5.55918 75.5894
77 1 3.27981 78.7648 77.8144
68 1 3.39473 76.5243 79.431
62 1 2.20662 77.1646 79.3572
79 1 3.18352 78.3058 78.8031
69 1 3.73583 77.4243 79.1794
70 1 4.67187 77.2331 79.1459
78 1 2.6272 79.1254 78.3775
80 1 2.20806 78.5311 79.2081
76 1 3.85092 79.2561 78.5126
75 1 3.21965 79.5149 79.1833
74 1 3.86994 78.7012 79.4377
63 1 2.63678 76.6456 80.0814
66 1 3.74836 76.3013 80.7124
67 1 4.22984 76.2128 79.788
61 1 2.16632 77.7312 80.0591
65 1 3.03402 76.9699 81.0143
72 1 3.76011 78.2567 80.4529
64 1 3.36632 77.3041 80.1645
71 1 4.51896 77.7568 80.0801
73 1 3.01494 78.759 80
456 1 -37.2839 -13.532 82.4871
457 1 -36.4242 -13.067 82.1781
458 1 -37.0546 -12.3896 82.2921
460 1 -37.9249 -12.9282 83.3463
455 1 -37.1101 -13.6608 83.457
441 1 -36.1047 -13.3534 83.135
459 1 -37.0208 -12.6556 83.2375
442 1 -35.9239 -12.6875 83.8989
55 1 20.8809 44.3278 83.8174
56 1 21.9585 44.2686 83.8443
44 1 20.0555 45.6031 83.9434
53 1 21.4634 45.1328 83.4493
48 1 20.5861 47.1309 83.2384
49 1 20.9304 46.2548 83.2497
450 1 -36.9887 -14.415 85.0567
449 1 -36.0783 -14.599 84.9094
453 1 -37.5539 -13.1853 84.5985
454 1 -36.6248 -13.4968 84.2367
445 1 -36.8162 -13.1255 85.2259
448 1 -35.6455 -13.7394 84.5224
447 1 -35.0147 -13.6707 85.3025
444 1 -36.6601 -12.5164 84.5464
443 1 -35.7579 -12.3333 84.8854
58 1 21.1138 43.8635 85.2775
57 1 21.6996 44.0428 84.5646
43 1 20.1952 45.5071 84.9442
52 1 21.9642 45.6641 84.0849
54 1 20.957 45.25 84.2821
60 1 22.1906 44.9447 85.1585
50 1 20.8244 46.3548 84.2939
46 1 20.08 46.9962 84.9359
47 1 20.579 47.4542 84.2055
45 1 19.8066 46.5357 84.063
51 1 21.6708 46.6204 83.9671
41 1 21.5512 46.3222 85.1374
451 1 -37.0854 -14.1012 85.9409
452 1 -37.6343 -13.6061 85.6197
446 1 -35.9745 -13.5132 85.5873
42 1 20.8777 45.9802 85.4844
59 1 21.1552 44.8941 85.5034
ITEM: TIMESTEP
31000
ITEM: NUMBER OF ATOMS
500
ITEM: BOX BOUNDS pp pp pp
-4.0493207301534895e+01 1.0049320730153541e+02
-4.0493207301534895e+01 1.0049320730153541e+02
-4.0493207301534895e+01 1.0049320730153541e+02
ITEM: ATOMS id type x y z
300 1 38.4676 -26.6344 -29.3753
299 1 38.1223 -26.0492 -28.791
286 1 36.9334 -25.3963 -30.9068
296 1 37.477 -25.7816 -29.6642
297 1 37.9248 -24.993 -29.9208
298 1 38.5006 -25.6181 -29.5047
285 1 36.1901 -26.0147 -30.3978
294 1 37.0554 -27.5477 -29.9243
295 1 37.4444 -26.8245 -29.4262
281 1 37.0584 -27.8262 -31.9821
282 1 37.0069 -27.308 -31.1271
287 1 37.3866 -26.0463 -31.3935
283 1 37.8411 -26.9576 -30.806
288 1 36.4595 -26.3664 -31.5222
292 1 36.0346 -27.1899 -30.5482
284 1 37.0558 -26.5965 -30.4067
293 1 36.3224 -26.9851 -29.6357
291 1 35.7607 -27.5255 -31.4247
290 1 36.1503 -27.4394 -32.3219
289 1 37.0322 -26.852 -32.2403
113 1 18.0507 84.3835 -13.1327
103 1 19.3183 84.3488 -13.3204
112 1 18.3554 83.3822 -12.9759
115 1 17.4115 84.7329 -14.0462
114 1 18.2993 85.0784 -13.9422
117 1 18.1595 84.5203 -15.0674
116 1 18.0657 84.0377 -14.1241
110 1 19.0413 83.4871 -13.9584
102 1 20.1858 84.3251 -13.6033
101 1 21.1173 83.7169 -13.6415
107 1 21.0556 84.6316 -14.4988
111 1 19.3581 83.1168 -13.0916
119 1 19.6406 84.0648 -15.1998
120 1 19.2885 84.4697 -14.3685
118 1 18.764 83.7482 -15.0035
105 1 20.5901 85.385 -13.4358
104 1 19.561 85.2823 -13.5871
106 1 20.2031 85.1616 -14.3747
109 1 19.9645 83.1831 -14.176
108 1 20.4802 83.9418 -14.5479
160 1 62.9064 -24.754 -5.87017
157 1 62.5269 -23.0279 -6.43332
158 1 62.7735 -22.8617 -5.46084
159 1 63.0315 -23.8756 -5.48743
155 1 63.2574 -23.9531 -6.63978
147 1 64.1112 -23.5388 -6.02752
145 1 65.7036 -23.8118 -6.81508
144 1 65.1072 -24.4481 -6.39842
146 1 64.8825 -23.3663 -6.6161
156 1 63.5181 -22.9839 -6.68937
141 1 64.5937 -24.2181 -7.25553
148 1 64.1423 -24.4677 -6.20649
154 1 63.6023 -24.5482 -7.31612
153 1 63.8668 -23.9417 -8.08163
142 1 65.1545 -24.6224 -7.95985
149 1 64.3972 -25.2076 -6.80468
151 1 64.638 -25.6195 -8.24553
150 1 64.25 -25.9661 -7.35786
143 1 65.6205 -24.8738 -7.06478
152 1 64.1679 -24.7702 -8.36623
301 1 62.3457 -3.78016 1.30277
303 1 62.2698 -5.25764 0.825724
302 1 62.2492 -4.35913 0.418845
440 1 64.3094 -2.99632 -1.67096
422 1 63.6034 -4.39994 0.0705163
421 1 62.9706 -5.14246 -0.133896
312 1 62.1396 -5.01664 2.59096
304 1 63.0593 -5.88965 0.928889
424 1 64.1019 -3.35672 0.97348
423 1 63.3067 -3.97106 0.928373
439 1 64.2113 -3.57755 -0.804181
436 1 62.6309 -3.27975 0.225315
313 1 61.6875 -4.38535 1.98524
434 1 63.8763 -2.32315 1.18755
435 1 63.0399 -2.56535 0.810367
308 1 64.0612 -4.38078 1.66428
309 1 64.4446 -4.37816 2.54814
306 1 63.5822 -5.33558 2.22278
307 1 63.0759 -4.78232 1.651
438 1 63.7952 -3.08788 -0.166411
305 1 62.8024 -5.83893 1.92614
310 1 63.9104 -4.56691 3.17555
311 1 62.9563 -4.68389 2.98337
315 1 61.6506 -3.27557 2.13641
314 1 62.4465 -3.94035 2.39297
425 1 63.5799 -3.19239 1.72713
432 1 64.6458 -3.38513 2.49527
437 1 63.0504 -3.61094 -0.623234
431 1 64.2506 -3.13395 3.19284
316 1 62.4192 -2.87231 1.82661
320 1 62.1962 -1.94354 1.38432
433 1 64.2707 -2.44177 2.09644
430 1 63.507 -3.55238 3.80436
427 1 63.1821 -2.86296 2.63877
426 1 63.5189 -3.76871 2.64393
428 1 63.7569 -2.01361 2.93737
429 1 63.1903 -2.53569 3.69264
317 1 62.1719 -2.54295 2.82584
318 1 62.5893 -1.7609 2.54193
319 1 63.185 -2.13263 1.89242
20 1 79.1464 14.3208 36.216
9 1 79.7319 13.1397 36.0587
15 1 80.385 11.9695 34.1257
18 1 79.5939 13.7332 34.6462
17 1 79.2851 12.9988 34.796
16 1 79.8556 12.2101 34.9738
13 1 80.8031 13.4452 33.8496
14 1 80.2876 12.9 34.3111
1 1 81.0087 15.3007 34.1495
3 1 80.0799 14.2181 33.5642
19 1 79.2061 14.3817 35.2115
10 1 80.3273 13.215 35.3199
8 1 80.09 14.0031 36.1937
12 1 81.1824 13.6786 34.8211
11 1 80.9845 13.8116 35.7132
2 1 80.3982 15.0102 33.478
4 1 79.4226 14.6671 34.0436
5 1 79.9108 15.3658 34.5421
6 1 80.4305 14.5279 34.5992
7 1 80.1699 14.6366 35.4611
278 1 88.0879 73.879 36.434
273 1 89.5305 75.0086 36.8648
398 1 89.7442 73.2719 36.4966
400 1 89.1494 72.3989 36.6194
399 1 88.9473 73.3423 36.8585
397 1 89.5238 74.0074 37.418
280 1 89.3408 73.8128 35.4146
271 1 89.1052 74.9009 35.6279
272 1 89.3573 74.37 36.3618
277 1 87.9028 73.1717 37.0767
389 1 90.0695 74.9836 39.2704
275 1 88.5339 74.3085 37.2033
390 1 90.6465 74.8928 38.71
391 1 91.1446 75.1816 39.5714
385 1 90.5404 75.8385 38.7686
392 1 91.5799 75.7408 38.9419
393 1 91.0923 75.5804 37.9605
279 1 88.536 73.4728 35.6898
274 1 88.6613 75.2608 36.8909
276 1 88.6662 73.551 37.95
267 1 89.3326 77.0722 37.6385
396 1 90.3704 74.3087 37.8126
384 1 89.7219 75.5756 38.1901
381 1 90.389 76.5993 37.776
395 1 90.5061 74.1845 36.6907
394 1 90.9216 74.9335 37.1589
270 1 88.9243 75.8283 36.0046
268 1 89.554 77.5736 36.8261
269 1 89.5365 76.7195 35.9712
388 1 89.5938 75.8407 39.6991
387 1 90.625 75.8464 40.1458
386 1 90.6624 76.57 39.3851
263 1 89.0588 74.8221 37.9874
264 1 88.2266 75.0016 38.0533
266 1 89.3207 76.0845 37.4151
265 1 88.4386 75.887 37.9794
262 1 88.9358 75.1125 38.8605
261 1 88.0406 74.3413 38.9322
383 1 89.2872 76.2556 38.6236
382 1 89.9929 77.134 38.5402
123 1 92.5184 85.853 48.6812
124 1 93.4491 86.3103 48.4503
125 1 94.3244 86.7581 48.7736
126 1 94.5182 87.7719 48.9204
200 1 94.3782 90.7473 48.8046
198 1 93.3605 91.0767 49.6096
199 1 93.6105 90.3556 49.047
420 1 89.5925 87.8865 49.1265
419 1 89.5299 87.0331 49.3864
135 1 93.3094 89.4677 48.5693
140 1 91.4151 86.6647 48.4938
418 1 90.3166 86.8091 48.9426
134 1 93.5674 88.7496 49.3425
122 1 92.7584 86.6846 49.3244
137 1 92.1502 88.3355 49.3167
136 1 92.7169 88.729 48.7367
138 1 92.3703 87.6354 48.6781
129 1 94.846 90.2031 49.5972
128 1 94.3964 89.5095 48.998
470 1 96.7517 87.6276 50.4076
407 1 89.6293 89.6407 50.1591
195 1 93.011 91.1457 48.3299
130 1 94.5097 89.5399 50.2518
127 1 94.2544 88.5748 48.4917
406 1 90.2896 90.3572 49.8729
405 1 91.1334 90.7641 49.6646
196 1 93.619 91.7991 48.3411
197 1 93.2093 92.0341 49.2428
415 1 90.1588 87.6302 49.9899
416 1 90.7097 86.8037 49.9226
486 1 89.8116 88.4877 52.4129
139 1 91.6077 87.2747 49.4335
414 1 89.7705 87.0127 50.4581
488 1 90.2783 87.0636 52.1316
413 1 89.5564 88.1694 50.6167
417 1 90.1353 86.0522 49.5908
121 1 93.3731 87.6746 49.4611
133 1 92.8502 88.6194 50.097
183 1 94.0056 88.6295 50.7778
181 1 93.6989 86.781 50.2636
469 1 97.3402 88.28 50.7827
411 1 90.7659 88.6537 51.187
484 1 89.0852 89.4488 51.9516
412 1 90.2339 88.7295 50.4149
410 1 90.8534 88.7996 52.2148
490 1 91.1828 87.6954 51.7968
131 1 93.8325 90.2974 50.1027
491 1 90.699 87.4582 50.8722
132 1 93.4582 89.4999 50.5222
473 1 94.433 88.5883 49.7514
471 1 95.9937 88.2832 49.8073
353 1 93.6009 93.1137 50.4442
472 1 95.2964 88.9315 49.7907
468 1 96.5759 88.5728 51.4032
467 1 96.0463 88.8591 50.6851
409 1 90.1605 89.3078 51.7547
194 1 92.5184 90.3454 48.6578
193 1 92.7523 89.9315 49.5616
192 1 92.6231 90.4024 50.461
351 1 94.6949 91.9821 50.834
352 1 94.5115 93.0886 50.8538
354 1 93.3725 93.5516 51.3119
404 1 91.6132 91.1617 48.8984
408 1 90.3177 89.6399 50.8343
349 1 93.2595 92.1346 50.5317
348 1 92.6936 91.4552 50.5492
350 1 93.8235 91.4078 50.5211
356 1 93.929 91.9874 51.7175
355 1 93.8639 92.9027 51.8813
403 1 92.209 90.9585 49.5593
402 1 91.6951 91.2262 50.6057
401 1 91.4696 91.9767 49.9093
362 1 93.81 84.0255 51.6601
487 1 90.1454 87.8091 51.6446
497 1 91.4969 86.4937 51.5698
496 1 91.5318 86.8299 50.6025
492 1 91.2072 87.9658 50.0874
495 1 92.2462 87.5316 50.5524
494 1 91.6948 88.2103 50.9623
493 1 91.5861 88.7313 50.0772
182 1 93.7859 87.7873 50.4912
475 1 94.9174 87.99 50.6998
476 1 95.889 87.8247 50.913
485 1 88.964 88.4222 51.7758
489 1 90.7104 87.7511 52.655
185 1 93.4591 87.7864 51.9942
474 1 94.8721 87.7383 49.7964
189 1 93.3252 90.6904 51.1593
184 1 93.0486 88.3244 51.3148
188 1 93.8666 89.919 51.573
479 1 94.919 89.0625 52.3087
462 1 94.9026 90.881 50.7667
463 1 95.5301 90.0536 50.8247
220 1 97.4191 88.1876 52.3506
466 1 96.4534 89.4297 50.0756
483 1 89.2049 90.2503 51.2941
340 1 90.6847 91.0896 50.9072
337 1 92.2664 89.211 50.7544
191 1 92.0679 90.346 51.3764
336 1 92.2131 88.9293 51.6937
357 1 94.5703 92.1829 52.4202
190 1 92.8267 89.8611 51.7062
461 1 94.8964 91.1538 51.6693
464 1 96.3382 89.9247 51.4991
465 1 96.9508 89.9297 50.6492
347 1 91.9934 92.1164 50.9327
346 1 91.1893 92.1143 51.1228
359 1 93.2725 92.1085 52.5858
360 1 92.69 92.5932 51.932
358 1 93.9856 91.985 53.2758
87 1 94.0893 91.1807 52.4072
88 1 94.4801 90.3362 52.898
85 1 92.7052 91.3573 53.0529
378 1 93.0264 84.0632 50.5542
363 1 93.916 84.6609 52.4059
361 1 94.2256 83.2842 51.207
380 1 94.1883 84.0061 50.0876
379 1 93.3289 83.7337 49.7051
377 1 92.8552 84.5543 51.5046
364 1 94.6872 84.4871 51.953
376 1 92.5681 85.3779 51.0389
369 1 93.4014 86.49 52.061
367 1 93.9307 86.1024 51.1045
368 1 94.1367 86.9121 51.5228
478 1 95.1006 88.4998 51.628
477 1 95.4224 87.599 51.6617
481 1 90.0142 90.2651 52.2601
482 1 89.4193 91.0386 52.0346
499 1 91.6557 87.0744 53.2463
500 1 91.9655 86.6936 54.0605
498 1 91.4271 86.6047 52.4975
186 1 94.062 88.3576 52.3452
92 1 91.8389 88.7345 52.7595
187 1 93.52 89.0481 51.8102
213 1 94.1549 87.437 52.6541
480 1 94.7006 89.3817 51.3568
219 1 97.5053 87.3866 51.8239
217 1 96.0377 86.893 52.5245
218 1 96.5087 87.6564 51.9614
343 1 91.4578 90.9665 52.1525
339 1 90.8556 90.2569 51.4579
338 1 91.3963 89.6887 50.7425
335 1 91.8657 89.6519 52.3241
334 1 92.2722 89.6288 53.1645
203 1 93.347 89.743 53.8856
90 1 93.2142 89.5216 52.739
89 1 94.0965 89.4823 52.8897
91 1 92.736 88.6717 52.5149
208 1 94.7941 88.708 53.3166
344 1 92.0905 91.5039 51.851
345 1 91.4053 92.2854 52.1102
326 1 91.3484 89.5511 54.0265
84 1 91.6682 91.5252 53.0372
332 1 92.1773 90.5962 53.7412
86 1 93.0719 91.0821 52.1366
83 1 92.1537 92.3891 52.9674
333 1 92.2486 90.5662 52.8086
202 1 93.5773 90.5975 53.5846
201 1 94.4612 90.8766 54.0534
81 1 92.5209 91.4559 54.171
82 1 92.9479 92.2352 53.523
365 1 94.7361 85.5113 52.0372
375 1 92.5743 86.393 51.2373
366 1 94.1746 85.286 51.4474
215 1 95.1889 86.3535 53.1722
373 1 92.2836 87.7004 51.9573
374 1 92.9175 87.2273 51.2723
321 1 89.4788 89.4044 53.2763
93 1 92.303 87.8878 53.2019
371 1 92.8648 86.312 53.2881
372 1 92.6828 87.0174 52.7175
370 1 93.3365 85.6256 52.5535
212 1 93.4025 88.0242 53.0007
216 1 95.1986 86.6178 52.1473
214 1 94.2349 86.4613 52.6263
341 1 90.7103 92.0738 52.791
342 1 90.6219 91.0153 52.7754
322 1 89.9603 88.526 53.461
323 1 90.6914 88.7932 53.2326
325 1 91.6516 88.8476 53.6968
330 1 90.7633 90.3903 54.3827
324 1 91.2191 87.9795 53.6232
95 1 92.4639 89.2893 54.3268
94 1 92.8425 88.5378 53.6194
207 1 95.0996 88.5513 54.0752
206 1 95.081 89.2758 54.6948
209 1 95.7501 88.438 53.1835
210 1 95.0862 87.7839 53.0402
211 1 94.152 87.9076 53.6229
329 1 90.6814 91.4097 53.9297
331 1 91.5635 90.9343 54.2648
204 1 93.9342 89.0433 53.7547
97 1 91.962 90.5152 55.6711
205 1 94.1997 89.8233 54.4294
327 1 91.0156 90.2073 53.3857
328 1 90.1386 90.6118 53.5349
98 1 92.066 91.281 55.1672
99 1 91.6813 92.1444 55.0093
100 1 91.7879 92.8508 55.548
96 1 91.8407 89.9152 54.7891
24 1 86.5663 80.8753 60.8185
39 1 89.4877 83.5354 59.9964
40 1 90.0336 82.8082 59.402
173 1 89.0657 82.0752 60.7565
174 1 88.5025 82.1184 59.7552
22 1 87.3667 80.819 62.2342
175 1 88.4335 81.2798 60.3302
172 1 88.8282 81.9932 61.6885
171 1 88.7531 81.0136 61.5973
170 1 89.3816 80.9668 62.4012
168 1 90.6081 81.1156 62.9836
23 1 87.1925 80.6276 61.4731
21 1 86.6762 80.7127 62.8388
33 1 89.0008 83.5404 61.9525
176 1 87.7502 80.8623 60.1612
177 1 88.3934 80.3769 60.8863
35 1 90.2727 84.7992 61.3299
34 1 89.3382 84.2845 61.4487
26 1 86.256 81.1311 61.9869
25 1 86.89 81.5864 61.3281
27 1 86.992 81.6845 62.5153
38 1 88.9073 83.5545 60.8335
30 1 87.7182 82.1502 60.8024
29 1 87.8313 81.6396 61.7226
37 1 89.5396 83.023 61.3212
179 1 87.9846 79.8836 61.7027
255 1 89.5009 80.3444 63.8183
166 1 89.6114 82.1738 63.4147
167 1 89.7071 81.3564 63.3125
244 1 90.2016 83.4193 62.5853
28 1 87.0629 82.4166 61.8746
178 1 88.8324 79.5778 61.241
169 1 90.0249 80.2535 62.6766
251 1 87.8158 81.3566 63.1548
245 1 89.8452 83.1933 63.3841
246 1 88.9886 83.2259 62.8836
31 1 87.5673 83.1475 61.0489
32 1 88.2982 82.8784 61.7065
36 1 90.0572 83.8797 60.8583
248 1 87.9191 82.9691 63.8802
249 1 87.9239 82.3761 63.0863
256 1 88.4834 80.472 64.1829
257 1 89.0777 80.8902 64.7989
180 1 87.6033 79.5082 62.595
260 1 88.7204 81.5746 63.6822
259 1 87.9338 81.8652 64.3396
165 1 89.6283 82.5859 62.2886
241 1 91.1785 83.5591 63.1355
254 1 89.1573 79.8036 63.2304
253 1 88.4649 80.3538 62.6619
252 1 87.8032 80.3939 63.3874
247 1 88.4665 83.7248 63.6641
243 1 90.7409 83.0399 61.7486
250 1 88.4795 81.7794 62.5886
258 1 88.2914 81.5431 65.1604
161 1 88.9721 82.6312 64.2159
164 1 90.5587 82.3417 62.7635
163 1 90.7098 82.6077 63.8619
162 1 89.8263 82.7333 64.3026
242 1 91.295 83.8203 62.1499
240 1 76.4888 -7.93737 76.7203
227 1 74.5824 -6.44623 74.9221
226 1 74.1402 -6.82904 74.2878
223 1 73.9825 -5.68585 74.3101
224 1 73.6512 -6.35867 73.5891
225 1 73.1991 -6.39619 74.4699
238 1 75.8215 -7.5651 75.7313
239 1 75.6367 -8.28763 76.3587
221 1 75.0656 -4.65581 73.2251
228 1 74.033 -5.8801 75.4113
229 1 72.9712 -5.77391 75.3489
237 1 75.7225 -6.62726 75.6662
222 1 74.8435 -5.30736 73.8794
232 1 73.8123 -6.06435 77.1914
231 1 73.1777 -5.83711 76.6008
235 1 75.5613 -5.76807 76.2475
236 1 75.756 -6.67914 76.6457
233 1 74.7291 -5.98219 77.071
234 1 75.5191 -5.4061 77.147
230 1 73.2996 -6.65968 75.8044
77 1 2.50939 79.1309 78.5118
68 1 2.42397 77.9892 78.7326
62 1 3.34909 78.4685 81.0776
79 1 0.96497 78.4279 78.6368
69 1 1.92526 77.8852 79.7608
70 1 2.91131 78.1995 80.0202
78 1 1.78514 78.7231 79.0089
80 1 1.71754 78.109 77.916
76 1 1.68307 79.2517 78.0375
75 1 2.43546 79.249 77.3804
74 1 3.19084 79.7044 77.929
63 1 3.91898 77.746 80.8555
66 1 3.34335 77.6406 79.2373
67 1 3.24114 78.5463 78.9284
61 1 3.04257 79.1499 80.4314
65 1 3.98287 77.3353 79.8907
72 1 4.05858 79.388 79.3418
64 1 3.13603 77.2965 80.5109
71 1 3.79036 78.692 79.9594
73 1 3.96996 79.072 78.3138
456 1 -36.8825 -13.623 85.5267
457 1 -36.1167 -13.666 85.9852
458 1 -35.7862 -14.5675 86.0429
460 1 -37.2226 -14.6038 85.7122
455 1 -37.0556 -13.8475 84.5163
441 1 -34.3745 -14.3906 85.1567
459 1 -36.3536 -14.431 85.2614
442 1 -34.9267 -13.8902 85.8871
55 1 21.2084 46.893 85.5689
56 1 20.5096 47.6224 85.7754
44 1 22.4723 46.5112 86.1834
53 1 21.6336 47.1015 84.3122
48 1 22.9622 44.9596 84.9696
49 1 22.8859 44.446 85.656
450 1 -37.2362 -12.2545 83.6723
449 1 -37.1906 -13.2367 83.6386
453 1 -37.9817 -13.2659 84.7124
454 1 -37.8009 -14.1688 84.9602
445 1 -36.0044 -14.4055 84.1931
448 1 -36.3057 -13.1643 83.1468
447 1 -35.4866 -13.3428 83.7518
444 1 -35.4262 -14.876 85.0073
443 1 -35.5244 -13.7894 85.0339
58 1 19.2693 46.4262 85.8841
57 1 19.5881 47.2995 85.6388
43 1 22.4223 45.5473 86.5412
52 1 21.6996 46.1515 84.0884
54 1 21.0251 47.6564 84.8986
60 1 19.7102 45.5101 85.3984
50 1 22.0907 45.0074 85.62
46 1 23.6283 45.1627 85.6635
47 1 23.9348 45.0673 84.7002
45 1 22.9681 45.9473 85.6376
51 1 22.0315 45.8722 84.9864
41 1 21.0991 45.3457 85.3582
451 1 -36.4231 -12.5074 84.1422
452 1 -37.1148 -12.6226 84.7989
446 1 -35.6353 -14.2212 83.2179
42 1 21.6146 45.8903 86.046
59 1 20.28 46.3162 85.6933
ITEM: TIMESTEP
32000
ITEM: NUMBER OF ATOMS
500
ITEM: BOX BOUNDS pp pp pp
-4.1139400976968545e+01 1.0113940097696906e+02
-4.1139400976968545e+01 1.0113940097696906e+02
-4.1139400976968545e+01 1.0113940097696906e+02
ITEM: ATOMS id type x y z
290 1 38.13 -26.3953 -29.8622
289 1 37.7878 -27.3652 -29.8518
281 1 37.06 -28.0548 -31.0373
282 1 36.3585 -27.4012 -30.6124
291 1 37.8968 -25.6144 -30.4748
283 1 36.7981 -27.1465 -31.5097
286 1 37.048 -26.0213 -30.0664
288 1 36.7908 -27.0276 -29.6358
287 1 36.0448 -26.3706 -29.8888
292 1 38.3296 -26.5344 -30.9441
284 1 36.4331 -26.4609 -30.9597
293 1 37.5906 -26.0007 -31.5609
294 1 37.701 -26.7576 -32.0728
295 1 36.9764 -26.2636 -32.5398
300 1 37.7833 -27.9178 -33.0361
285 1 37.3077 -26.8132 -30.5991
296 1 36.3641 -26.9569 -32.7277
297 1 35.9777 -27.9417 -32.7957
298 1 36.1186 -27.9296 -31.823
299 1 37.0622 -27.9136 -32.2912
119 1 18.8371 84.7648 -14.2903
110 1 18.7382 83.2207 -16.016
109 1 18.2823 84.019 -15.4156
115 1 19.912 85.1317 -14.3238
117 1 18.4006 85.6661 -14.1128
116 1 19.2146 85.7592 -14.6385
120 1 19.0326 84.8427 -15.26
118 1 18.8544 85.1193 -13.3713
107 1 17.5394 84.6049 -15.836
108 1 17.6905 83.6733 -16.1596
114 1 20.0799 85.5033 -15.2587
106 1 17.9979 85.1974 -15.0959
112 1 19.7904 84.0022 -14.5433
111 1 19.294 83.6723 -15.3578
113 1 20.1093 84.4237 -15.2737
103 1 19.5361 84.9724 -16.2373
102 1 18.5258 85.1043 -16.1686
101 1 18.6005 84.1735 -16.4932
104 1 19.2281 85.9662 -16.3131
105 1 18.6348 85.9443 -15.4945
151 1 64.1854 -25.0989 -5.97412
153 1 65.2184 -24.8931 -6.13979
152 1 64.6124 -24.2854 -5.80639
149 1 63.7999 -24.9815 -7.01029
150 1 63.5275 -24.4241 -6.1463
154 1 64.9501 -24.3368 -6.83014
141 1 64.2846 -22.8225 -7.12264
142 1 64.9082 -23.4927 -7.69148
145 1 65.3758 -24.6812 -7.8024
143 1 64.2113 -24.2008 -7.65699
156 1 66.4839 -24.6512 -7.64859
160 1 67.1773 -24.825 -5.93947
159 1 66.4005 -25.4794 -6.03092
155 1 65.9248 -24.5172 -6.88788
144 1 64.4456 -25.0149 -8.13538
148 1 64.7449 -25.4027 -7.01272
157 1 66.5754 -25.3635 -7.06744
158 1 65.7632 -25.6582 -6.7067
147 1 65.1431 -25.8751 -7.73927
146 1 65.9228 -25.4625 -7.93353
440 1 61.6047 -2.50484 1.3553
422 1 64.055 -4.73016 2.01365
421 1 64.1193 -3.8375 2.44409
436 1 62.2545 -3.98742 1.30057
438 1 61.225 -3.46469 1.04033
437 1 61.6142 -4.24022 0.566007
439 1 61.5842 -2.82925 0.509613
304 1 62.8527 -4.91512 0.825766
303 1 62.5252 -4.18596 0.219449
302 1 62.004 -3.45178 -0.22599
423 1 63.8481 -5.08685 1.15888
307 1 62.3348 -3.78919 2.3408
308 1 63.0248 -4.467 1.86798
301 1 62.9362 -3.26673 -0.618627
435 1 62.5519 -3.18764 1.06018
425 1 63.3057 -3.44954 1.72235
424 1 63.5568 -4.15835 0.968044
320 1 61.8071 -3.19029 3.00313
434 1 62.8863 -2.45804 0.403413
306 1 62.0082 -4.69127 2.46717
305 1 62.4184 -5.27491 1.69424
312 1 62.7335 -4.82684 3.61014
313 1 62.1146 -4.22824 3.62497
314 1 62.6368 -3.613 4.39678
311 1 63.5179 -5.32035 3.69455
309 1 63.2733 -4.48585 2.70086
310 1 63.7719 -5.45051 2.72741
315 1 62.9066 -3.3985 3.42412
316 1 63.7411 -2.93775 3.00432
317 1 62.8902 -2.57441 2.71599
427 1 63.53 -2.27111 1.88429
426 1 64.0563 -3.01423 1.44175
432 1 63.8251 -2.07093 0.886603
433 1 63.6036 -3.03117 0.400833
428 1 63.7947 -1.81447 2.65384
318 1 62.4183 -2.7347 2.00077
319 1 61.4103 -3.04224 2.21484
430 1 63.8707 -0.99982 0.829263
429 1 64.0756 -1.31637 1.80106
431 1 63.0108 -1.4978 1.15704
15 1 78.1674 14.013 37.4175
3 1 81.0737 13.2769 34.3043
13 1 78.9873 14.627 37.4247
2 1 80.782 13.3802 35.1763
4 1 80.2428 12.6259 34.2056
1 1 80.6145 12.4134 35.3089
17 1 78.9528 14.1326 35.7687
16 1 78.2283 13.7587 36.4177
14 1 78.2054 14.8602 36.8935
19 1 78.1182 14.5747 34.8899
18 1 78.1913 13.686 35.3352
10 1 79.2605 15.3054 36.1957
12 1 79.4774 13.8965 36.8486
5 1 79.9306 13.5729 34.3512
6 1 79.8939 14.1376 35.1799
7 1 79.1494 14.6334 34.7886
280 1 89.4197 74.2974 36.873
20 1 77.3181 15.1239 35.1699
9 1 79.7301 15.6633 35.3094
8 1 78.731 15.3851 35.2629
11 1 80.0262 14.535 36.2584
400 1 91.1659 73.1879 37.4218
399 1 91.8606 72.5114 37.5311
279 1 89.709 73.3559 37.2534
398 1 92.222 73.449 37.5942
278 1 90.1298 72.6995 37.7944
271 1 92.4554 75.3037 37.1406
273 1 90.9283 74.379 37.0317
272 1 91.8479 74.5119 36.7303
395 1 91.0684 74.8569 38.4805
274 1 90.3079 74.3651 37.759
270 1 93.3274 75.0626 37.7092
268 1 91.7952 75.8874 38.0152
269 1 92.5163 75.4299 38.3035
277 1 90.9322 72.0852 38.0482
276 1 90.2875 72.4793 38.7515
275 1 90.5131 73.5092 38.3601
263 1 89.083 74.6628 37.9029
264 1 89.2029 75.3977 37.7645
397 1 91.4832 73.9271 38.0687
396 1 91.827 74.7035 37.8848
394 1 90.3593 75.7312 38.5365
265 1 89.7545 76.1048 37.2556
384 1 91.1429 77.6278 38.0485
266 1 90.2224 75.3401 36.8916
393 1 90.4942 76.8499 38.4133
267 1 91.0304 75.7537 37.6222
381 1 91.6538 76.9444 39.455
261 1 89.9708 74.577 39.3449
389 1 89.7139 75.7791 39.5441
390 1 88.7395 76.0651 39.5577
262 1 89.0486 74.9489 38.8428
385 1 90.3178 78.1691 37.7972
388 1 89.2381 76.0345 38.6498
383 1 91.6378 76.7904 38.3544
391 1 89.2505 76.8402 39.9077
392 1 90.0037 76.6515 39.2103
382 1 91.4229 76.1232 39.0272
386 1 89.7158 77.5615 38.3857
387 1 88.8873 76.9721 38.3339
379 1 92.6961 85.979 49.2651
417 1 90.3385 89.6565 50.6215
123 1 93.284 87.6893 49.5772
124 1 93.6858 87.2 48.7422
419 1 91.1952 89.8179 49.809
418 1 90.3616 90.4233 49.9061
140 1 93.3405 89.9109 49.4628
139 1 93.2889 89.9796 50.426
122 1 92.8046 87.8845 50.4108
138 1 93.3028 89.0813 50.2731
121 1 92.1823 87.534 51.1473
125 1 94.6537 87.3921 48.2863
126 1 95.0377 88.2051 48.31
420 1 92.0758 90.0927 49.4847
137 1 92.6633 88.8486 49.7051
136 1 93.4325 88.7906 49.1765
134 1 94.6106 89.0223 49.1054
127 1 95.9357 87.8735 48.5365
135 1 94.2537 88.3824 49.6255
194 1 92.2594 91.7627 50.1426
193 1 91.5074 92.1038 50.7974
199 1 94.7474 90.8342 49.2785
129 1 95.4674 88.8672 50.0016
128 1 95.8796 88.7456 49.1716
405 1 90.8748 91.5288 50.1514
404 1 90.364 91.5775 49.2634
198 1 93.6694 91.0004 49.1965
195 1 92.6156 91.0202 49.5823
403 1 91.0645 92.4023 49.2478
200 1 95.003 89.885 49.5852
196 1 93.2676 91.253 50.1978
197 1 93.3167 91.8966 49.4088
378 1 92.7163 86.63 50.1301
380 1 93.5105 85.5453 48.9903
376 1 94.3389 86.0959 50.1321
367 1 96.207 87.014 51.0738
415 1 89.3302 89.3961 50.6549
414 1 88.7987 90.2719 50.5695
416 1 89.8891 89.4745 51.3678
491 1 91.8367 89.528 50.7345
496 1 93.1288 87.7394 51.358
495 1 92.8068 88.6086 51.2289
181 1 95.9165 87.9501 50.6326
182 1 95.4495 87.7714 49.7628
474 1 97.4357 87.3081 51.1176
470 1 97.399 89.2612 50.0621
413 1 89.3848 90.7803 50.035
412 1 89.5866 90.6368 51.1331
492 1 92.4917 90.2687 50.7864
494 1 93.4086 89.1852 51.6284
493 1 92.8837 90.0341 51.7575
133 1 94.3004 89.3762 50.0939
337 1 91.5104 90.1262 51.6343
183 1 94.9484 88.0848 50.669
473 1 96.9731 87.6959 50.3009
471 1 96.445 89.3983 49.8503
472 1 96.78 88.5009 50.1362
467 1 96.0404 90.1492 50.9705
475 1 98.2914 87.8337 51.7053
476 1 97.7458 88.7645 51.4161
469 1 97.1822 89.7436 50.9732
407 1 90.9005 90.4792 50.9005
406 1 91.5562 90.9588 50.5207
408 1 90.8046 91.4277 51.1916
338 1 91.7257 91.0736 51.549
192 1 92.3131 91.7838 51.1839
130 1 95.2071 89.6701 50.6178
131 1 94.2105 89.6321 50.9882
132 1 94.205 90.3842 50.2585
463 1 95.3482 90.6962 50.2875
466 1 95.3356 90.2131 51.5356
465 1 95.348 91.1845 51.8342
402 1 91.8913 92.911 49.2332
401 1 92.2487 92.7844 50.2203
340 1 90.7422 92.6426 51.79
348 1 92.8274 92.8529 52.3683
351 1 94.028 92.0108 50.6951
350 1 93.1839 92.2988 50.6585
462 1 95.923 91.111 50.9601
347 1 92.9625 92.0998 51.9141
346 1 92.4504 91.2955 52.3541
349 1 93.5523 92.9568 51.3761
353 1 94.7132 92.8858 51.0848
352 1 94.0867 92.7827 50.2991
361 1 95.5139 85.05 49.596
377 1 93.5481 86.5539 49.8155
362 1 95.0985 85.5209 48.7619
363 1 94.4266 86.2158 48.6296
364 1 95.31 86.6397 49.0327
375 1 94.3496 87.1126 49.9439
370 1 95.8068 85.7765 50.9616
365 1 96.1232 86.9819 49.5535
366 1 96.3593 86.3979 50.3354
488 1 90.3007 89.4282 53.0419
490 1 91.2661 89.026 51.3154
497 1 93.1405 87.1524 52.1417
498 1 93.2904 86.1809 51.836
185 1 94.3056 88.8743 51.7807
369 1 96.1353 86.0861 51.9772
373 1 94.6878 87.1726 51.1209
374 1 95.1316 87.0361 50.3662
368 1 95.4107 86.78 51.7166
477 1 96.7977 88.3337 51.2626
217 1 97.2946 87.4864 52.3885
216 1 96.6609 86.9304 52.9397
219 1 96.6693 89.1233 52.0877
218 1 97.4217 88.5629 52.4406
485 1 87.8545 89.2146 53.1684
486 1 88.7732 88.9545 53.147
487 1 89.5417 89.2325 52.5004
411 1 90.2801 90.3106 51.7354
410 1 90.8422 91.1358 52.2426
184 1 93.9983 88.3253 50.9432
336 1 90.979 90.1503 52.598
91 1 93.1231 88.3415 52.4967
186 1 94.5632 89.3292 52.6441
187 1 93.7657 89.8555 52.3966
479 1 95.3769 88.074 51.8482
478 1 96.2087 88.2727 51.96
468 1 96.3716 89.1822 50.8552
220 1 96.7035 89.9522 52.0631
484 1 88.526 89.7545 53.8001
483 1 89.1169 90.2458 54.3372
409 1 90.268 91.7655 51.9144
481 1 90.0719 90.402 52.9325
339 1 91.4745 91.9653 51.9819
335 1 91.7504 90.4954 52.9751
191 1 92.9153 91.1322 51.2447
190 1 93.8238 90.9974 51.108
188 1 94.4675 90.5805 51.8591
480 1 95.5311 88.7335 51.3863
464 1 94.7927 91.1013 51.007
482 1 89.5036 90.6587 53.6161
343 1 91.2909 92.5998 52.9026
189 1 93.5751 91.134 52.0562
344 1 90.8273 91.798 53.2444
86 1 92.7818 90.9134 53.7793
356 1 94.7876 91.7224 52.56
87 1 93.2295 90.6542 52.9921
461 1 95.8579 91.9889 50.5566
345 1 91.6898 91.5361 52.9565
360 1 93.7802 92.5045 52.5275
355 1 94.4031 91.8008 51.6075
357 1 95.3698 91.2005 52.9852
354 1 95.0833 92.0308 51.3081
371 1 94.7619 85.7766 51.2036
215 1 96.2696 87.2437 52.1459
489 1 90.7901 89.1668 52.1931
499 1 93.4684 86.2266 50.928
372 1 94.291 86.4671 51.7552
213 1 95.5001 86.9274 52.9545
214 1 96.0302 87.851 53.1777
322 1 90.6315 88.3333 52.8364
92 1 92.3086 87.8718 52.2821
323 1 90.9128 88.9087 53.6255
325 1 90.6792 89.0605 54.5307
324 1 91.5577 88.9756 54.2094
93 1 91.7706 88.5429 52.7481
212 1 94.515 87.012 53.2484
94 1 92.2214 88.5109 53.5717
208 1 95.8823 89.7032 53.4695
211 1 94.9317 87.9584 52.9398
204 1 93.6785 88.582 54.8861
209 1 95.5914 89.7438 52.4393
210 1 95.4587 88.7985 52.8282
321 1 89.963 88.5921 53.5494
328 1 90.6347 90.0646 53.9339
327 1 89.7222 89.5011 53.9987
334 1 91.2937 91.1067 53.9107
203 1 93.1775 88.9591 54.0815
90 1 92.7891 89.1871 52.4004
333 1 91.8071 90.1454 53.8789
88 1 92.5942 89.7253 53.2394
89 1 91.8606 89.5735 52.4244
202 1 93.8547 89.5671 53.7354
342 1 90.4619 92.821 53.4664
84 1 93.1255 91.7097 54.3406
329 1 90.4252 90.8868 54.4921
85 1 92.3489 91.772 53.768
332 1 92.1114 89.8728 54.8944
358 1 94.7493 91.7077 53.5073
341 1 91.1529 92.7878 54.0454
359 1 93.767 91.7634 53.124
83 1 92.3895 92.0893 54.9947
82 1 92.4722 91.0748 54.9075
500 1 92.812 85.5351 50.4266
207 1 94.8882 89.7253 53.6334
326 1 90.1578 89.674 54.886
330 1 90.4708 91.1236 55.3472
96 1 92.4254 88.2031 54.6988
95 1 91.5534 87.8504 54.0122
205 1 94.0699 88.1915 53.9111
206 1 94.74 88.826 53.6372
331 1 91.2788 90.5349 55.0725
81 1 92.1235 91.3025 55.7879
98 1 92.8842 89.0947 55.4073
201 1 93.6335 88.8034 53.185
99 1 93.2999 89.9243 55.8195
97 1 91.7506 88.8726 55.2181
100 1 93.637 90.7898 55.9964
40 1 89.5662 82.2275 60.0191
177 1 89.7419 80.8031 61.2794
24 1 88.7271 80.4095 60.897
176 1 89.5342 81.3629 60.5461
30 1 86.5949 81.6739 60.9773
173 1 88.5502 82.5669 60.2525
174 1 87.847 81.8783 59.8973
175 1 88.7724 81.4969 60.003
38 1 89.6171 82.5162 61.1666
39 1 90.324 82.0722 60.6991
36 1 89.4595 83.8587 61.5454
23 1 88.5709 79.9492 61.8058
179 1 91.0528 81.2383 61.8677
178 1 90.3587 80.5031 61.9768
26 1 87.7084 80.105 60.4003
22 1 89.4678 79.9115 61.5728
25 1 88.7275 79.6362 60.1846
172 1 88.569 82.0128 61.071
171 1 89.1403 81.6045 61.7255
29 1 87.4304 81.5845 61.5807
170 1 90.1457 81.8343 61.7113
28 1 87.6704 81.1752 60.7958
31 1 87.3675 82.3997 60.8199
33 1 88.36 83.2445 61.0111
32 1 87.4577 83.5193 60.6361
37 1 89.7026 83.3148 60.643
165 1 90.1546 84.0793 64.2559
243 1 90.8496 83.412 62.4815
35 1 88.8421 83.8086 62.2622
34 1 88.8436 82.9961 61.7439
242 1 90.7834 83.0645 61.5996
21 1 89.7979 79.3916 60.9961
180 1 92.1245 80.8609 61.846
254 1 90.9683 81.6638 63.9621
253 1 90.1589 82.2269 63.7465
252 1 89.2301 82.0994 63.6346
255 1 91.3336 82.3298 64.2667
169 1 90.6703 82.1099 62.512
27 1 87.0852 80.9109 60.0367
251 1 89.8564 81.426 63.002
260 1 89.6781 83.0497 64.7656
250 1 89.2485 80.6055 62.405
168 1 90.8821 82.6943 63.1119
167 1 91.5335 83.2215 63.7151
246 1 88.4666 82.4705 63.0492
249 1 88.7165 81.3393 62.9421
166 1 90.5884 83.1446 64.1833
244 1 89.888 82.9053 62.137
245 1 89.3272 82.2067 62.5896
164 1 90.1593 83.6063 63.2252
241 1 91.7401 82.9638 61.7126
247 1 88.1926 82.0254 62.074
256 1 90.6727 82.482 64.9327
257 1 90.0344 82.3121 65.4077
259 1 89.2304 83.2357 65.6872
258 1 90.2061 83.1907 65.7786
248 1 88.3516 81.0554 62.0374
161 1 88.0854 83.9725 63.9496
162 1 88.6842 83.4133 63.2444
163 1 89.4421 83.1562 63.6803
224 1 76.1218 -6.59909 75.1472
221 1 77.0385 -4.7945 76.2664
226 1 74.8513 -6.31828 75.465
225 1 75.6395 -5.65245 75.3623
227 1 74.0492 -6.74327 76.127
223 1 76.8988 -5.97904 75.6364
222 1 76.7026 -4.997 75.4621
239 1 76.4552 -7.82711 77.0275
238 1 75.7169 -7.77403 76.4546
229 1 75.9665 -6.69463 76.166
230 1 75.5294 -6.07547 76.9343
228 1 74.9632 -6.92201 76.4243
237 1 75.1759 -8.19756 77.0885
235 1 73.7056 -7.02806 77.7383
240 1 76.0126 -7.6179 77.8463
236 1 74.6782 -7.44838 77.559
231 1 74.6678 -6.24426 77.3272
232 1 74.4862 -5.86349 76.5211
233 1 73.9227 -5.50224 77.2606
234 1 73.2277 -6.27007 77.1481
80 1 0.715995 78.5534 78.8958
75 1 1.16729 79.4024 77.4834
74 1 1.54495 80.282 77.7404
66 1 2.89383 78.1579 79.3761
79 1 1.27299 78.0606 78.4082
78 1 1.93336 78.6134 79.1251
76 1 2.00415 79.088 77.6182
77 1 1.89948 79.3501 78.5342
68 1 3.26582 79.1994 80.0421
67 1 3.71656 78.5103 79.5927
73 1 2.43242 80.1308 78.096
72 1 2.97497 79.4528 77.6747
69 1 2.36183 79.1562 79.8884
64 1 2.99053 77.208 78.2191
65 1 2.52037 78.1328 78.4496
70 1 2.86314 79.1446 78.9171
61 1 3.72726 79.5531 78.8192
71 1 3.25196 78.6717 78.1414
63 1 3.81785 77.8724 78.3809
62 1 4.27238 78.6441 78.8024
446 1 -35.3299 -14.1146 86.2011
448 1 -35.1618 -15.2416 84.915
454 1 -36.3567 -13.4597 85.9938
455 1 -35.5397 -13.0805 86.0183
445 1 -35.1791 -13.8373 85.2078
444 1 -34.5133 -13.5376 84.4654
453 1 -36.8874 -13.4161 85.1627
449 1 -35.9405 -15.5456 85.4258
451 1 -36.6021 -14.9283 84.8297
452 1 -36.8633 -14.0969 84.4651
447 1 -34.9282 -14.938 85.764
450 1 -35.9515 -14.5834 85.5149
48 1 20.9452 45.7201 85.4147
47 1 20.9606 46.7468 85.3701
52 1 23.0618 44.6836 85.5324
54 1 23.8444 45.8892 86.1851
53 1 22.9903 45.5581 86.0323
460 1 -35.4716 -12.0656 84.4014
459 1 -35.2585 -12.8957 84.1112
458 1 -35.7851 -13.748 84.4548
442 1 -34.6484 -14.1078 83.3635
443 1 -34.8218 -14.3895 84.2355
441 1 -35.5632 -13.7193 83.3801
456 1 -35.814 -12.9466 85.0823
457 1 -36.3107 -12.8947 84.2454
41 1 22.0991 46.5674 85.7565
49 1 21.8399 45.2939 85.2603
50 1 21.6961 45.3544 86.2046
46 1 19.9917 46.662 85.7399
58 1 23.0708 47.0856 86.4539
60 1 22.8048 47.0867 87.6408
59 1 23.177 46.4218 87.1758
44 1 21.1583 46.3819 86.3727
51 1 22.409 44.6833 86.3573
42 1 21.8295 47.1372 86.33
45 1 20.6282 47.3051 86.1956
57 1 23.6956 47.705 86.1512
55 1 23.6808 46.5589 85.4947
56 1 24.3017 47.0562 85.9047
43 1 22.0765 46.25 86.8357
ITEM: TIMESTEP
33000
ITEM: NUMBER OF ATOMS
500
ITEM: BOX BOUNDS pp pp pp
-4.1882745505169112e+01 1.0188274550516964e+02
-4.1882745505169112e+01 1.0188274550516964e+02
-4.1882745505169112e+01 1.0188274550516964e+02
ITEM: ATOMS id type x y z
297 1 37.8448 -27.9784 -31.2298
300 1 38.1873 -25.6623 -30.1917
296 1 38.5887 -27.792 -30.6532
298 1 37.3309 -27.3651 -30.5891
283 1 37.1444 -26.7453 -32.6402
299 1 37.4126 -26.3542 -30.4533
293 1 37.9104 -27.4666 -32.2254
294 1 38.0389 -26.8843 -31.3524
295 1 38.5107 -26.7358 -30.5666
281 1 37.1377 -27.7875 -33.0055
282 1 37.6981 -26.9871 -33.353
287 1 36.3805 -27.5596 -33.6716
286 1 35.4789 -27.7354 -33.2003
284 1 36.1424 -26.4385 -32.447
285 1 36.1273 -27.4485 -32.5616
292 1 37.0203 -27.3434 -31.7762
291 1 36.5164 -28.0693 -31.9106
289 1 35.6664 -28.6095 -32.364
288 1 36.2868 -28.4477 -33.182
290 1 35.644 -27.9311 -31.5765
108 1 19.3325 85.8498 -15.1424
110 1 19.3358 84.5996 -16.6726
101 1 18.4123 84.865 -15.4761
107 1 19.2714 86.6233 -15.798
102 1 17.3849 84.8909 -15.3178
103 1 17.3988 85.3349 -16.2046
104 1 17.3599 86.2562 -16.6353
109 1 19.5684 85.1013 -15.8096
111 1 18.3297 84.3234 -16.5389
112 1 17.4873 84.4294 -16.936
106 1 19.2095 86.3242 -16.6935
120 1 18.3606 85.948 -15.9069
115 1 18.4638 85.9113 -17.9568
114 1 17.7839 85.3352 -17.482
113 1 16.7813 85.1023 -17.3074
116 1 19.4327 85.6589 -17.705
105 1 18.299 86.5203 -17.0116
119 1 18.6186 85.4309 -16.7491
118 1 18.7507 84.8437 -17.641
117 1 19.7337 84.681 -17.6565
147 1 66.2854 -26.1713 -6.25369
144 1 67.2877 -24.7506 -6.15459
145 1 66.5432 -25.1281 -6.66648
146 1 65.7205 -25.1734 -6.25072
156 1 65.8956 -24.8456 -7.42361
143 1 67.13 -23.7289 -6.38461
142 1 66.4634 -23.3002 -6.97611
151 1 67.7865 -26.514 -7.12158
149 1 66.6782 -26.1741 -7.35092
150 1 67.4612 -25.6662 -6.84757
153 1 66.8995 -25.8748 -8.62839
154 1 66.8589 -25.1828 -7.81872
155 1 66.0077 -25.5507 -8.08599
148 1 65.7143 -25.8872 -6.92387
158 1 64.9438 -26.2939 -7.5123
160 1 64.815 -25.5243 -6.45647
159 1 64.3071 -26.3054 -6.80538
157 1 64.9383 -25.3367 -7.57906
141 1 66.821 -24.2091 -7.25143
152 1 67.618 -25.9627 -7.93921
301 1 64.3061 -4.13392 0.364746
304 1 62.7934 -3.90259 0.882288
438 1 61.8031 -3.11371 2.36715
437 1 61.0283 -2.71924 2.0272
303 1 63.494 -3.18676 0.567749
302 1 63.9923 -3.54339 1.19725
435 1 61.525 -3.50344 1.20762
424 1 63.3141 -2.99061 1.70873
439 1 62.1503 -2.23218 2.46979
434 1 61.0551 -3.48993 0.312493
432 1 61.9868 -3.69947 -0.486508
433 1 62.0062 -3.17168 0.302994
430 1 63.1783 -3.15997 -0.729506
306 1 61.7105 -4.59168 1.31004
305 1 62.0542 -4.26028 0.409484
422 1 62.98 -2.68004 2.76792
423 1 62.8103 -3.46575 2.03157
436 1 60.6784 -3.22218 1.34561
307 1 61.103 -4.34494 1.97359
308 1 61.8713 -4.84205 2.5992
421 1 63.8531 -2.38958 2.30078
425 1 62.8251 -2.05137 1.55124
440 1 61.7897 -2.57696 3.36514
319 1 62.6523 -3.79207 3.0201
318 1 62.0026 -4.10204 3.80636
427 1 61.4869 -2.33271 1.08633
426 1 62.4164 -2.86101 1.27343
431 1 62.8128 -3.85193 -0.135555
429 1 62.7131 -2.61833 -0.0330468
312 1 64.291 -3.38472 2.69315
311 1 64.2664 -4.30212 3.11128
310 1 63.5812 -4.81273 2.49524
320 1 63.0092 -4.47303 3.51859
313 1 63.8958 -2.90119 3.52481
315 1 63.2564 -2.58854 4.89078
309 1 62.6863 -4.68892 1.93574
317 1 62.4655 -3.1639 4.016
316 1 63.0261 -2.46535 3.94002
428 1 62.3363 -1.91603 0.644371
314 1 63.6944 -3.37827 4.31509
5 1 78.0454 13.9017 37.4457
3 1 77.1997 15.0836 37.2663
4 1 77.1699 14.1483 37.0595
19 1 77.9926 13.2628 35.5189
7 1 78.9355 13.6483 36.3439
1 1 76.0373 14.6604 37.1637
18 1 77.9646 14.2162 35.5779
2 1 76.3869 15.5486 37.5139
20 1 77.7912 13.5211 36.4069
17 1 78.0694 14.6245 36.5375
6 1 78.6673 13.192 37.131
11 1 79.9369 14.8311 36.4414
10 1 79.4927 14.5559 35.5721
9 1 79.5009 13.6679 35.0927
8 1 79.1438 13.0334 35.5412
16 1 79.0304 14.8065 36.8751
15 1 78.6348 15.3496 36.1093
14 1 79.3521 15.9341 35.705
13 1 79.517 15.8882 36.6371
12 1 80.0677 15.4563 37.3136
399 1 93.517 75.0433 40.0464
280 1 91.4842 70.8376 39.5208
279 1 90.6163 70.6023 39.1734
400 1 93.8802 74.9891 39.1515
273 1 91.6814 74.0032 38.4237
398 1 93.2081 75.8525 39.5173
266 1 92.1296 77.3421 37.8106
267 1 92.6446 77.361 38.6676
271 1 92.9141 74.3394 38.6719
272 1 92.463 73.5824 39.0736
270 1 93.622 74.8646 37.9726
265 1 91.4746 76.6641 38.2049
385 1 91.0138 77.4827 37.6309
278 1 90.658 71.4563 38.5735
277 1 90.6624 72.091 39.391
276 1 91.3979 72.6648 39.2828
275 1 92.0252 72.5361 38.5718
397 1 93.0048 75.7954 40.5411
263 1 91.0624 75.2036 38.88
264 1 91.9336 75.7144 38.3101
262 1 91.5682 74.393 39.4298
395 1 91.7818 76.0821 39.6788
274 1 92.3 73.4667 38.1028
394 1 90.9111 76.6224 39.5282
269 1 92.8904 75.3743 38.4037
396 1 92.5181 76.6368 40.2268
388 1 90.9684 75.4697 37.877
387 1 91.6546 76.0294 37.378
393 1 90.1095 76.0817 39.4087
268 1 92.5456 76.3919 38.7092
383 1 92.4073 78.2852 38.0816
382 1 91.811 78.0895 38.8234
386 1 91.467 76.8973 36.9051
384 1 91.6502 78.2654 37.5312
261 1 92.3892 74.565 39.682
389 1 90.0902 75.3579 37.5187
390 1 90.8691 75.6915 36.8355
391 1 90.6482 76.4136 37.5882
392 1 90.1105 76.0443 38.4037
381 1 91.2213 78.9461 38.4665
362 1 94.6887 87.664 48.4779
363 1 95.5318 87.5846 48.8483
124 1 93.6149 89.4584 50.4854
125 1 94.1138 89.2813 49.6334
126 1 93.5456 89.9818 49.4606
127 1 94.2693 90.2119 48.8391
380 1 92.6109 88.0541 49.4057
500 1 94.8158 86.4882 53.0934
361 1 94.4737 88.0698 49.3561
378 1 93.2678 87.1579 49.3267
379 1 92.4019 87.1816 49.7117
377 1 94.0978 86.9507 49.3539
376 1 94.829 87.0818 49.951
364 1 96.538 87.9508 48.6251
374 1 93.6214 88.3955 50.8612
365 1 97.2861 87.9638 49.2298
366 1 97.9261 87.6912 49.9144
123 1 92.6207 89.3986 50.1663
122 1 92.7593 90.3628 50.5006
135 1 93.4912 92.1495 49.0877
182 1 95.1566 88.7383 50.2538
375 1 93.894 87.4553 50.4898
473 1 97.7664 89.3936 49.2391
419 1 91.5219 91.1467 50.7676
137 1 92.7894 92.1461 49.9038
140 1 93.8568 90.6773 50.4501
138 1 92.4894 91.3685 50.1936
136 1 93.0647 92.9837 49.695
134 1 93.7204 91.3445 49.4538
129 1 95.2607 90.0035 48.5773
200 1 93.8759 91.5184 48.1191
133 1 94.7668 91.3871 49.9345
128 1 95.019 89.5086 49.2368
471 1 96.8308 89.6924 49.983
472 1 96.9172 89.0343 49.1551
470 1 95.9664 89.8611 50.5223
413 1 90.507 90.8077 52.9053
418 1 91.7434 90.2731 50.2904
420 1 91.3633 92.2463 50.6775
195 1 94.8529 92.2717 51.7843
139 1 93.144 91.214 50.9809
198 1 94.6894 92.4514 48.8678
196 1 95.0947 92.5572 50.782
199 1 93.9883 92.546 48.0965
132 1 95.196 91.518 50.9134
463 1 95.8862 91.828 50.2217
405 1 90.5198 92.5894 50.1461
404 1 90.8359 92.9975 49.3197
403 1 91.0302 93.5963 49.9992
194 1 94.6033 93.2683 51.5213
197 1 95.0873 92.7063 49.8098
402 1 90.5669 93.921 50.8676
401 1 89.9054 93.0306 50.8831
352 1 95.8855 94.2783 52.843
498 1 93.4791 86.5995 53.4291
499 1 93.9166 86.0175 52.8783
368 1 96.2138 87.8259 50.4761
371 1 95.3831 87.7393 52.085
372 1 94.9514 88.643 51.5906
367 1 96.9096 87.3254 50.0087
370 1 96.1384 87.1898 51.5583
121 1 93.111 90.0841 51.2068
496 1 94.0582 87.6187 53.2207
184 1 94.6493 90.2109 49.8341
183 1 94.9114 89.5905 50.5479
373 1 94.2008 89.2713 51.3656
181 1 95.8915 88.7671 49.6999
477 1 97.1495 89.1839 51.0742
474 1 97.5294 88.8021 50.0744
475 1 98.3606 88.7659 50.716
415 1 90.5906 90.8496 51.8089
416 1 91.0194 90.234 51.2741
417 1 90.7534 90.3861 50.2688
490 1 92.3731 89.0927 51.5967
491 1 92.3316 90.1198 51.8238
495 1 94.5077 88.3822 53.0376
494 1 94.2828 89.1189 52.3424
130 1 95.7949 90.334 49.4504
131 1 95.687 90.8507 50.3667
185 1 94.8147 90.5699 50.6492
468 1 96.2108 90.1445 51.986
480 1 95.7834 89.308 51.4452
476 1 97.5036 88.2782 51.0505
469 1 96.7003 90.2091 51.0598
414 1 90.9329 91.5636 52.4457
412 1 91.0464 89.9798 52.4822
407 1 91.5575 93.3575 51.9613
411 1 91.6516 90.654 52.4044
492 1 93.1939 89.5611 52.0995
337 1 93.0463 90.9825 52.0241
406 1 90.8382 92.9098 51.27
338 1 92.8953 91.9765 51.996
493 1 93.599 88.5706 52.1469
191 1 94.1777 91.6451 50.8736
190 1 93.9885 91.5741 51.9706
466 1 96.1056 91.2266 51.3444
464 1 95.9554 92.2785 51.0069
467 1 95.8811 90.8691 52.3349
462 1 96.2483 91.2207 49.5146
408 1 92.0724 92.7338 52.3526
340 1 93.5098 93.2231 52.7545
193 1 94.1212 93.2636 50.6717
192 1 93.8096 92.3621 50.7932
351 1 95.2428 93.6332 52.3743
350 1 94.6074 93.2328 52.9072
355 1 96.7705 92.207 52.7129
354 1 96.7484 92.9898 51.9697
461 1 96.981 90.9861 49.97
349 1 95.1652 93.2743 53.9049
353 1 96.3989 93.7583 52.0772
369 1 95.4492 87.6272 50.8638
216 1 96.9568 90.3558 53.4423
213 1 96.9783 89.5361 52.2039
322 1 89.6686 87.7515 52.8927
92 1 92.8861 87.9909 53.8939
497 1 93.7628 87.2565 54.1124
91 1 92.6832 87.4401 53.0954
479 1 95.9176 88.5037 51.1414
211 1 95.6764 89.1001 52.4224
478 1 96.5614 88.8595 50.4888
215 1 96.0138 90.1803 53.2393
214 1 96.5167 89.295 53.0647
217 1 96.6562 90.3278 54.2859
485 1 89.2684 88.8027 52.9094
486 1 89.8735 88.6792 52.1097
487 1 90.0941 89.4782 51.7933
488 1 90.8127 88.8898 51.6321
489 1 91.6566 88.775 52.0688
93 1 91.8968 88.2246 54.0551
88 1 93.3417 89.765 53.5027
89 1 93.5649 88.8172 53.2739
187 1 94.805 90.0026 51.9998
90 1 92.7439 88.4177 52.8301
201 1 94.8024 89.3261 55.3071
186 1 95.3203 90.2513 51.2676
210 1 95.8362 88.3511 53.0492
219 1 96.8372 88.968 54.8711
209 1 95.571 88.6604 53.9734
218 1 97.3739 89.6509 54.3575
410 1 91.9747 91.4554 52.3633
336 1 92.9684 90.7079 52.9064
481 1 89.2945 90.4778 52.2299
335 1 92.416 89.9269 52.9891
189 1 94.0063 90.6806 51.5334
87 1 93.7947 90.1057 52.6877
465 1 95.8504 92.0346 51.9048
188 1 94.8556 91.1044 51.7977
357 1 95.304 91.0497 53.3194
220 1 96.75 87.9376 54.6251
409 1 91.4569 92.1838 51.9304
346 1 94.6017 92.127 52.9841
339 1 93.6872 92.5648 52.0452
343 1 92.3374 92.9589 53.4502
345 1 93.7514 91.9239 53.5102
347 1 95.5233 92.2182 52.9084
360 1 94.5878 91.199 55.1237
359 1 94.5144 91.5966 54.1573
356 1 96.2283 91.4955 53.4216
348 1 96.0326 92.7734 53.4231
212 1 96.4945 88.8242 51.9868
95 1 91.1035 87.6476 53.546
205 1 94.1474 88.4344 54.0255
484 1 88.3724 89.1598 52.9898
327 1 91.5815 89.2439 53.1798
323 1 90.5929 88.052 52.6642
325 1 90.1681 88.6059 53.5315
321 1 90.0111 87.2947 53.7794
324 1 90.498 89.1475 52.7969
94 1 91.8845 88.1309 53.0907
203 1 93.5942 88.5447 55.7895
202 1 93.8815 89.6727 55.6977
207 1 95.0878 89.7452 53.3307
206 1 94.3643 89.4179 53.6509
208 1 95.3718 89.6854 54.2264
483 1 89.0234 90.0375 53.405
482 1 89.8031 89.9357 52.7825
328 1 90.9576 89.9011 53.6743
329 1 91.1858 90.9749 53.8445
334 1 92.5823 89.2042 53.752
333 1 92.7999 89.8245 54.3697
86 1 94.4218 90.6544 53.4374
344 1 92.7071 92.062 53.6306
85 1 95.0206 90.6572 54.2131
84 1 94.3183 90.1517 54.7465
358 1 95.4314 91.7147 54.1314
342 1 91.2919 92.8147 53.1561
341 1 90.416 92.6958 52.5974
96 1 91.5245 87.0626 54.1006
326 1 91.0908 88.8482 53.9402
97 1 92.3743 86.9926 54.3089
204 1 93.3346 88.622 54.718
98 1 92.918 86.7939 55.1035
330 1 91.8235 91.6647 53.4893
332 1 91.9621 90.0475 54.006
82 1 92.7647 90.7321 54.8311
331 1 92.4634 90.9926 53.776
99 1 92.8478 86.8206 56.0022
100 1 93.1109 87.6337 56.1269
83 1 93.5534 90.6709 54.2636
81 1 93.3745 90.7839 55.6991
25 1 89.7082 79.7214 61.5041
27 1 89.2237 80.7276 60.2233
174 1 90.5561 80.8044 60.6237
40 1 91.7578 82.1483 59.6835
173 1 89.9632 81.5824 60.4308
175 1 91.2158 81.3188 59.9656
22 1 90.67 80.968 63.4793
21 1 90.9116 81.2075 64.5237
26 1 89.6808 79.949 60.5026
28 1 88.193 80.8364 60.6186
177 1 91.6739 81.539 61.0959
24 1 90.5945 80.3249 61.6389
176 1 90.9514 82.0054 60.9003
30 1 88.9843 81.504 61.5096
29 1 88.1368 81.0256 61.5007
31 1 88.4631 81.8692 60.8083
38 1 90.7098 82.4322 59.6158
172 1 89.7121 82.458 60.9615
39 1 91.4116 82.7764 60.3026
170 1 89.7605 82.3519 62.1878
33 1 88.7892 82.5216 61.651
32 1 87.8618 82.1101 61.5614
36 1 88.62 82.6749 59.8324
37 1 89.6002 82.7022 59.7368
242 1 90.5355 83.6056 62.1225
23 1 90.9528 80.6248 62.5161
248 1 89.7301 81.376 62.453
250 1 90.7832 82.6958 62.5985
249 1 90.691 81.6225 62.6937
179 1 92.2177 82.768 61.1951
178 1 91.6891 82.19 61.8423
251 1 91.5336 83.5362 62.8468
180 1 93.0061 82.9311 61.8609
247 1 88.838 81.688 62.603
171 1 90.1255 81.7661 61.476
246 1 88.4236 82.4568 62.8487
245 1 88.9303 83.1576 62.5237
169 1 89.5604 82.5239 63.0773
168 1 90.1223 83.1236 63.2987
35 1 88.4652 83.6153 60.2214
34 1 88.4542 83.2636 61.2016
244 1 89.5255 83.3274 61.7793
243 1 90.4538 83.0504 61.3995
241 1 89.8474 84.1899 62.5032
252 1 92.3323 83.8658 62.4123
254 1 90.9067 84.3646 63.3033
253 1 91.6649 84.6216 62.8339
255 1 91.7416 84.2356 63.7885
161 1 88.3721 81.9569 65.2368
162 1 88.1466 82.2696 64.3466
163 1 88.6516 81.5969 63.8902
165 1 88.5972 82.9828 63.7513
166 1 89.5102 83.35 64.1899
164 1 89.2549 82.298 64.1264
167 1 89.3889 83.7581 63.3603
256 1 92.2621 83.3402 63.975
257 1 92.0766 82.2594 63.6271
260 1 90.7096 83.5124 63.9936
259 1 91.1792 82.7864 64.2729
258 1 91.1574 82.2143 63.5354
226 1 77.1917 -7.2351 77.5238
224 1 76.7601 -5.82327 77.2171
223 1 77.7801 -5.61575 77.2531
225 1 76.6465 -6.42178 77.8162
222 1 78.4713 -6.04709 77.7186
238 1 74.5406 -8.41585 78.3802
237 1 74.5251 -7.47682 77.761
239 1 75.4061 -8.30611 77.9181
227 1 77.67 -6.74476 76.687
234 1 75.0486 -6.57903 78.0805
230 1 75.4868 -7.37452 77.5794
228 1 76.7076 -6.83292 76.348
229 1 75.9727 -6.66197 77.0002
232 1 75.7299 -6.70824 79.0385
221 1 78.77 -5.14852 77.4348
236 1 74.2371 -6.87005 77.1859
240 1 74.9436 -8.21103 77.1334
235 1 74.8137 -6.0394 77.3064
231 1 75.2132 -7.4582 78.587
233 1 75.0062 -5.95459 78.7221
79 1 1.83942 79.6259 79.4238
65 1 3.11631 78.6185 77.8094
64 1 3.07302 79.5041 77.1688
63 1 2.75538 79.1313 76.3407
75 1 1.32596 78.8781 78.5308
76 1 1.23287 79.7918 77.8184
77 1 1.33933 80.5073 78.5683
72 1 2.32607 80.1232 77.3713
71 1 2.81939 80.4173 78.3264
74 1 1.29721 78.7135 77.4509
73 1 1.9113 79.3654 77.0271
80 1 1.20805 78.9865 79.8478
66 1 2.15828 78.3408 78.0934
67 1 2.28565 79.3222 78.1398
78 1 0.903866 79.7676 78.9602
69 1 3.46884 79.4336 78.2659
70 1 3.84182 80.1601 78.7876
61 1 3.05767 77.5914 77.3336
62 1 2.28785 78.4141 76.9949
68 1 2.86921 78.9868 78.7788
441 1 -33.9364 -14.9845 84.8104
442 1 -34.3084 -14.0559 85.0606
457 1 -35.5541 -15.1011 86.0369
459 1 -34.3061 -14.8653 85.8224
449 1 -34.6703 -13.02 85.1033
451 1 -35.3864 -13.2667 86.4999
450 1 -34.9715 -12.5351 85.9038
448 1 -33.9475 -12.897 84.373
443 1 -34.2435 -14.1989 84.1214
453 1 -35.4163 -13.5468 85.5533
452 1 -35.1234 -14.1542 86.2699
458 1 -35.0877 -14.7173 85.216
445 1 -36.1489 -13.8804 84.1131
444 1 -35.2759 -14.0507 84.4307
456 1 -36.009 -15.6326 85.2595
460 1 -34.0595 -13.9296 86.0362
52 1 22.0789 46.4099 85.7655
48 1 23.6891 47.6496 87.0264
49 1 23.4314 48.0841 86.2432
47 1 23.7244 46.6112 86.7953
55 1 21.9318 47.0951 86.9064
447 1 -34.7833 -13.2858 83.7581
454 1 -36.0663 -14.226 85.2691
446 1 -35.4148 -14.0958 83.3787
455 1 -35.8202 -14.9183 84.5193
51 1 22.8304 46.9783 86.2166
50 1 22.5308 47.8106 86.6959
53 1 21.6885 47.375 85.9681
54 1 21.0419 46.8907 86.4986
46 1 24.6247 46.3057 86.9459
45 1 24.4206 46.6947 87.8841
41 1 22.8298 45.7635 86.1617
44 1 23.9567 45.6906 87.7074
42 1 22.8167 44.7865 86.4026
43 1 23.7606 45.1168 86.833
58 1 23.2246 46.3641 87.9927
56 1 21.8515 46.1094 87.1441
57 1 22.9276 45.7159 87.2007
60 1 23.1722 47.6352 88.0623
59 1 22.8985 46.9444 87.3157
ITEM: TIMESTEP
34000
ITEM: NUMBER OF ATOMS
500
ITEM: BOX BOUNDS pp pp pp
-4.3227854746801171e+01 1.0322785474680170e+02
-4.3227854746801171e+01 1.0322785474680170e+02
-4.3227854746801171e+01 1.0322785474680170e+02
ITEM: ATOMS id type x y z
294 1 36.2082 -29.484 -33.6927
291 1 36.7169 -28.1367 -33.421
289 1 38.0275 -28.0071 -33.5229
290 1 37.3307 -28.7099 -33.9069
283 1 36.5232 -26.7756 -34.0832
286 1 38.402 -27.045 -33.824
284 1 37.2778 -27.387 -34.1798
285 1 38.1128 -27.6997 -34.5383
281 1 37.423 -26.4616 -33.6311
295 1 36.0553 -29.8288 -32.7256
298 1 37.0696 -29.9372 -33.0914
299 1 37.0834 -29.9201 -32.0265
300 1 37.8372 -29.256 -32.4183
293 1 35.822 -28.7745 -32.9247
297 1 36.8796 -28.9514 -32.7669
296 1 36.252 -29.011 -32.0339
292 1 36.364 -28.0273 -32.4678
288 1 37.5188 -27.8918 -32.641
282 1 36.8538 -27.0736 -33.1986
287 1 37.9644 -26.962 -32.9209
107 1 17.1814 86.7933 -19.4861
108 1 16.9774 85.878 -19.2376
119 1 18.129 86.2302 -19.2304
101 1 18.7306 85.1316 -18.937
109 1 17.6178 85.4322 -18.7077
111 1 18.8416 85.6046 -17.9043
102 1 19.4306 85.6806 -18.8978
117 1 17.0315 86.5055 -18.4625
116 1 16.5002 87.2717 -18.4207
118 1 17.9746 86.3804 -18.2328
104 1 18.5601 87.2915 -17.8969
106 1 17.6754 87.337 -18.8176
120 1 18.6006 87.0667 -19.1661
103 1 19.139 86.5066 -18.4483
105 1 18.0228 88.1114 -18.322
112 1 18.4996 86.2934 -17.2742
110 1 17.9803 85.3283 -17.7653
115 1 16.4559 87.1841 -17.4601
113 1 17.4716 86.3384 -17.3084
114 1 17.4622 87.2226 -17.7641
151 1 66.3936 -26.7483 -8.24793
144 1 67.3902 -26.9576 -8.17196
141 1 69.3233 -26.8628 -8.61452
153 1 66.2336 -25.483 -8.27158
152 1 67.0172 -25.9842 -8.29375
143 1 67.9175 -26.3238 -8.70724
142 1 68.819 -26.0403 -8.29337
148 1 66.7905 -27.5675 -6.9939
149 1 66.8186 -26.5905 -7.14396
147 1 67.7661 -27.2552 -7.01543
159 1 68.782 -27.0612 -6.67044
145 1 68.1375 -26.5022 -7.71494
160 1 69.2421 -26.7528 -7.4976
146 1 68.3643 -27.5243 -7.73354
150 1 65.961 -26.3064 -7.46268
155 1 67.5571 -25.6963 -7.27136
154 1 66.647 -25.4187 -7.37682
157 1 68.6371 -25.5292 -7.09201
156 1 68.0087 -26.192 -6.59604
158 1 69.2366 -26.181 -6.54424
434 1 62.0215 -5.47634 0.174371
431 1 60.9378 -3.94239 -0.0540652
432 1 60.9317 -4.81591 0.0469743
433 1 61.8784 -4.52796 -0.279598
301 1 62.8663 -4.44502 0.215358
436 1 61.0643 -4.91521 1.70471
435 1 61.9083 -4.78497 0.926384
437 1 61.6369 -4.0655 1.80678
304 1 62.8904 -4.96061 1.27596
303 1 62.7589 -4.01033 1.41716
311 1 64.3252 -4.22956 1.41251
430 1 61.1751 -3.77372 0.89438
429 1 61.1334 -2.82463 0.764352
427 1 62.302 -2.40808 0.660783
439 1 62.1524 -3.15981 1.71095
302 1 62.4067 -3.60557 0.646899
425 1 63.0986 -2.7393 1.4147
312 1 63.9679 -3.34328 1.09666
428 1 61.6047 -2.04608 1.25611
426 1 62.9838 -1.83926 1.11767
306 1 62.7764 -5.81973 2.04287
307 1 62.0089 -5.07555 2.18395
305 1 63.5513 -5.17413 1.95293
308 1 62.6184 -4.74667 2.94966
309 1 63.1583 -4.29225 2.28357
310 1 64.1189 -4.35783 2.32337
438 1 62.2549 -3.735 2.50829
440 1 61.1401 -3.13906 1.85525
320 1 63.141 -2.81954 2.48703
314 1 64.6522 -2.5006 2.54991
313 1 64.2587 -3.22166 1.96392
424 1 62.5016 -2.1421 1.94216
422 1 62.7943 -1.06425 3.09384
423 1 62.6454 -1.09892 2.07493
317 1 63.1153 -3.90362 3.28886
318 1 62.5017 -3.12895 3.49411
316 1 63.7419 -3.16774 3.80261
315 1 64.4128 -2.41792 3.55452
319 1 63.187 -2.33551 3.4482
421 1 61.9702 -0.800741 3.48476
16 1 77.8201 13.8929 36.6926
13 1 78.9686 14.2777 36.9404
4 1 77.0178 15.8086 36.0664
5 1 77.2733 15.2864 37.0333
3 1 77.2238 14.9469 35.7507
14 1 78.3527 14.9376 36.6368
6 1 77.9769 15.8821 37.0345
2 1 78.2049 15.5023 35.7742
1 1 77.9068 16.4677 36.1918
18 1 77.6045 13.5375 37.8941
17 1 77.0323 13.8592 37.1556
12 1 78.696 13.5205 37.5095
8 1 79.2793 14.8109 37.856
7 1 78.7079 15.6031 37.521
15 1 77.9222 14.6122 37.481
389 1 93.0243 74.6651 38.3158
277 1 94.4478 74.8304 38.0476
278 1 95.0116 74.3084 38.4151
397 1 92.6809 76.4541 38.2181
276 1 95.069 75.6517 38.2315
400 1 91.3697 77.0689 38.0623
399 1 91.951 77.7818 37.6118
398 1 92.8425 77.2308 37.6849
382 1 95.591 77.0184 38.2945
381 1 96.0951 77.2464 37.6004
19 1 77.1755 13.9129 38.7778
20 1 77.8468 13.6396 39.493
10 1 78.3219 13.998 38.5691
11 1 78.6304 13.1268 38.5164
9 1 78.4733 14.9953 38.4618
391 1 91.3667 74.7322 39.2294
390 1 92.2582 74.456 38.8588
274 1 94.6317 75.0223 39.3447
273 1 93.7566 74.6703 39.8122
280 1 93.9618 74.3496 38.9044
279 1 94.6859 73.7025 39.3538
395 1 91.9055 75.9784 39.2094
264 1 93.0633 75.4287 39.3846
265 1 93.0819 76.3475 39.1864
396 1 92.3246 75.6472 38.497
386 1 94.3232 76.3845 39.5658
388 1 93.6958 75.2764 38.5855
387 1 94.181 76.0414 38.6756
383 1 95.913 76.264 38.8336
275 1 95.4195 75.3013 39.0047
266 1 93.3124 77.3899 39.3156
261 1 92.0822 77.0223 38.9494
384 1 95.3586 76.6511 39.5667
272 1 92.9729 74.8796 40.503
392 1 91.9014 75.2396 39.9296
393 1 91.786 75.5926 40.8844
394 1 91.3955 76.2021 40.1966
271 1 92.8466 75.7019 41.0363
263 1 92.6133 75.9418 40.027
270 1 93.7202 75.8063 41.2265
269 1 93.6212 75.7104 40.2768
385 1 94.9048 76.2253 40.3335
262 1 92.3868 76.9365 39.918
268 1 93.4443 76.7008 40.4473
267 1 93.9903 77.2392 40.0491
375 1 94.5823 88.617 49.6244
361 1 95.177 90.3339 49.288
366 1 97.6576 90.5186 49.342
125 1 94.4341 91.5216 49.5925
124 1 93.8643 90.6558 49.5652
363 1 96.1442 90.7142 49.5143
127 1 95.7633 91.7213 49.1754
364 1 96.3201 91.1503 48.5565
365 1 97.2288 90.865 48.5594
129 1 96.9144 91.4129 49.6267
419 1 93.3856 92.1114 49.6674
132 1 97.6521 92.5145 49.5331
380 1 93.867 88.7009 50.5141
374 1 94.9621 88.6995 50.5058
370 1 95.9318 88.037 50.819
369 1 96.2408 88.9217 50.5201
368 1 97.1771 89.0085 50.0253
477 1 97.6968 89.1413 51.0724
487 1 91.3897 90.3733 51.087
379 1 93.3009 89.2984 50.9134
489 1 93.0943 90.3046 51.0202
378 1 93.4281 89.8551 50.0448
377 1 94.2564 90.3081 50.6141
376 1 94.7074 89.6011 50.1007
479 1 95.8423 89.8913 50.7605
367 1 97.1348 89.9167 49.8248
478 1 96.7936 89.6008 51.0216
472 1 98.058 90.1614 50.6863
416 1 91.6915 91.3494 50.7913
418 1 92.681 91.8035 50.314
123 1 93.7089 91.1946 50.3274
122 1 94.3338 91.1951 51.0833
362 1 95.3702 90.7819 50.2003
182 1 95.7086 91.5692 50.9543
181 1 96.6477 91.0968 50.7128
128 1 96.3227 91.9245 50.0093
130 1 97.5723 91.2621 50.2484
473 1 98.8067 90.5904 50.899
131 1 98.2236 91.6484 49.7582
415 1 91.5391 92.3436 50.9987
420 1 93.0045 92.7799 50.5112
138 1 93.6901 92.1262 51.0462
137 1 94.0995 92.5968 50.2912
126 1 95.1038 92.1716 49.7794
134 1 95.8352 93.3679 50.0689
183 1 95.3606 92.4031 50.7636
133 1 96.7654 92.8746 49.9669
468 1 98.8312 92.0893 51.0486
467 1 98.114 92.547 50.5543
136 1 94.0195 93.5667 50.1426
199 1 95.4861 94.5149 50.1806
135 1 94.8845 93.6114 50.0859
198 1 95.6738 94.0194 51.0934
466 1 97.976 93.3997 51.0837
200 1 95.9172 95.0865 50.7307
481 1 92.92 88.6425 52.2138
482 1 92.4862 89.036 51.3646
494 1 93.8567 88.9415 52.3315
205 1 94.7649 88.489 52.2283
371 1 95.7658 87.966 51.8072
373 1 95.4129 88.9114 51.3484
206 1 95.4468 89.1278 52.4399
372 1 96.3804 88.7258 51.7165
484 1 91.0973 89.9711 52.0665
483 1 91.8158 89.1806 52.1189
488 1 92.2547 90.364 51.4146
322 1 92.6074 89.7841 52.4966
321 1 93.284 90.3519 52.0976
493 1 94.4833 89.4437 51.9366
492 1 94.2034 90.4404 51.7544
480 1 95.6857 89.8707 51.6721
213 1 97.0605 89.7253 52.3194
214 1 96.6408 90.4853 51.653
476 1 98.5348 89.3098 51.4422
475 1 98.837 89.8134 52.21
471 1 97.6808 90.0787 51.6078
474 1 99.4155 90.5155 51.6479
486 1 90.5391 90.911 51.541
413 1 91.3587 91.6897 51.732
417 1 92.5133 91.7532 51.2665
490 1 93.3465 91.1442 51.379
412 1 92.0178 91.1258 52.0954
409 1 92.9831 91.4813 52.463
491 1 93.9574 91.3408 52.151
121 1 95.1181 90.7809 51.4827
86 1 94.9989 91.1568 52.492
215 1 95.8326 90.5932 52.3694
188 1 96.6686 91.8205 52.3163
470 1 98.325 90.993 51.8492
469 1 99.1385 91.4161 51.6304
414 1 92.0595 92.3029 51.938
407 1 93.2976 93.1579 51.4304
408 1 93.1452 92.3337 52.1236
139 1 94.5079 92.1594 51.5318
140 1 94.7989 93.0209 51.3994
189 1 95.7149 91.9987 52.373
340 1 95.6132 93.0215 52.5128
184 1 96.2049 92.7708 51.231
185 1 96.9272 92.1311 51.235
355 1 96.8868 92.8559 52.156
186 1 97.7241 92.0887 51.7731
405 1 92.5358 93.7324 52.3936
406 1 93.2899 93.4342 52.4249
192 1 94.6475 93.7145 52.2934
195 1 95.963 94.1884 52.4799
196 1 96.7625 93.9176 52.1169
197 1 96.4886 94.6135 51.4288
464 1 98.0176 94.7591 52.3068
465 1 97.7104 94.1576 51.6473
462 1 97.24 96.1303 52.1116
461 1 96.9939 95.2262 52.0463
496 1 94.0754 87.3438 53.2229
495 1 93.6349 88.0964 52.7752
89 1 93.7405 88.9927 53.3277
204 1 94.7462 88.2463 53.2326
211 1 95.8885 88.9888 53.6976
323 1 92.9439 90.0243 53.3885
88 1 93.9066 89.8383 52.8506
87 1 94.9309 90.1181 52.555
207 1 94.8048 89.2827 53.1606
208 1 95.3629 89.9653 53.5707
212 1 96.3338 89.587 53.0348
217 1 96.8711 90.5238 53.0049
218 1 97.4678 90.1427 53.551
219 1 98.3957 89.7205 53.3584
220 1 99.132 89.8635 53.8433
485 1 90.6408 90.7451 52.5487
411 1 92.2975 90.7902 53.0063
410 1 92.4566 91.8116 53.0341
335 1 93.0882 91.1295 53.7611
336 1 93.7173 91.7573 53.3523
85 1 94.3566 90.8972 52.9886
216 1 95.9796 90.8614 53.3331
84 1 94.8781 90.9453 53.7677
360 1 96.1454 91.8241 53.2013
358 1 97.101 91.1487 53.796
187 1 97.6093 91.5502 52.6089
341 1 92.0475 92.7704 53.7
342 1 93.0116 92.5075 53.9303
191 1 94.2432 92.8379 52.5328
337 1 94.1274 92.6163 53.5343
190 1 94.7429 92.102 52.6076
338 1 94.8584 92.0306 53.7452
339 1 95.2903 92.82 53.3206
354 1 97.4916 93.3342 52.9066
357 1 97.1403 92.1097 53.5869
356 1 96.7524 92.6598 53.0254
404 1 92.9387 93.8836 53.3938
193 1 94.3182 93.6244 53.2172
194 1 95.2876 93.8913 53.1296
349 1 95.7041 94.6308 53.8232
351 1 96.8672 94.6481 52.999
353 1 97.4645 93.9566 53.5259
352 1 96.512 93.826 53.2688
350 1 96.1507 95.2563 53.1615
463 1 97.8225 95.6125 52.6614
499 1 92.3733 87.018 54.8237
500 1 92.2007 86.375 54.1423
498 1 92.5896 87.6246 54.0632
497 1 93.5824 87.6777 54.0549
100 1 94.4582 87.5576 54.8983
91 1 94.5952 88.8675 54.3762
90 1 93.596 88.7457 54.2207
99 1 93.9068 88.2601 55.1692
201 1 94.9239 88.6947 55.3187
203 1 94.9243 87.8123 54.0463
202 1 95.4614 88.0528 54.6422
325 1 91.1832 90.2525 54.3265
95 1 92.8011 89.449 54.5184
324 1 92.2086 90.2144 54.0048
94 1 93.1337 90.0415 55.2765
92 1 94.0718 89.2224 55.0906
82 1 94.6353 90.126 54.6798
81 1 93.7001 89.9868 54.1617
210 1 95.6553 89.3964 54.5865
209 1 96.1887 89.9704 53.9491
326 1 91.778 90.7825 54.8867
334 1 92.7985 90.833 54.6386
329 1 92.2421 91.6757 55.1572
333 1 93.8169 91.0597 54.6404
83 1 95.4888 90.7909 54.5729
359 1 96.1863 91.5434 54.1221
330 1 92.6584 92.5482 55.0466
343 1 93.5284 93.0522 54.4411
344 1 94.1488 92.3795 54.6292
345 1 95.1142 92.8968 54.6305
401 1 91.273 94.3096 54.7526
402 1 91.9986 93.7411 54.6382
403 1 92.8646 93.9982 54.1822
346 1 95.3368 93.6824 54.069
347 1 95.2471 94.1564 54.8804
348 1 95.3441 95.1627 54.5274
98 1 93.7551 87.6033 55.9519
96 1 92.7175 88.9263 55.3487
97 1 92.9178 87.9307 55.5428
93 1 94.0343 89.8579 55.7687
327 1 90.9648 90.8764 55.454
328 1 91.4022 91.7848 55.6126
332 1 93.6037 91.1392 55.7606
331 1 93.3817 92.0259 55.4379
33 1 91.282 80.6228 60.7808
34 1 91.6036 81.6404 60.878
38 1 90.8314 83.1013 59.8608
36 1 90.8663 82.7242 60.9092
37 1 91.5441 82.607 60.205
40 1 90.7881 84.1068 59.6779
39 1 91.3255 83.7595 60.3912
180 1 92.3857 85.3564 60.5268
32 1 90.6068 80.3578 61.4621
31 1 90.308 80.9628 62.081
245 1 90.3459 82.0206 62.3141
27 1 91.3116 80.9096 62.2611
26 1 91.9537 80.9813 61.4947
35 1 90.6676 81.736 61.2976
172 1 91.7485 83.0405 61.4541
171 1 90.7521 83.0534 61.9192
247 1 91.5899 82.1457 62.1017
241 1 89.1435 84.2551 60.9847
243 1 89.4806 83.7154 61.792
242 1 90.1667 84.3468 61.4312
174 1 91.339 83.9082 61.5186
175 1 91.8909 84.6493 61.0438
176 1 91.3082 84.901 61.8386
169 1 90.6366 84.1319 62.3529
173 1 92.3848 83.8226 61.6765
177 1 92.2608 84.8608 62.1419
178 1 92.9311 84.952 61.4407
179 1 92.099 85.625 61.3822
29 1 90.4424 80.1021 62.6987
28 1 91.3538 79.9307 62.6509
24 1 92.2237 80.5867 62.918
30 1 90.4758 80.9844 63.139
164 1 89.939 81.9226 63.3668
25 1 92.3879 81.284 62.4469
23 1 92.5909 81.3158 63.6507
21 1 93.0251 82.0684 63.069
22 1 93.5289 81.2923 63.3377
165 1 89.1075 82.1222 62.9199
166 1 88.8955 83.0506 62.85
244 1 89.8486 82.8895 62.3915
167 1 89.3767 83.4991 63.6182
170 1 90.6226 83.2568 62.8575
249 1 91.7792 83.1267 62.5469
246 1 91.0372 82.1798 62.9732
248 1 91.9852 82.2219 63.0179
255 1 93.4892 83.4272 63.3566
168 1 89.7315 83.9076 62.8163
250 1 91.8385 84.0216 62.7132
260 1 90.5589 84.0776 63.608
257 1 92.4919 83.8577 63.4805
256 1 93.0503 84.1933 62.6308
251 1 91.6056 85.0085 63.1209
253 1 92.8924 85.1343 63.3174
163 1 90.3345 82.6153 63.8454
161 1 91.2926 83.2068 64.0588
162 1 91.2203 82.28 64.2333
259 1 91.4492 84.4623 63.9452
258 1 92.4031 84.5419 64.3121
254 1 93.3597 84.3371 63.8706
252 1 92.085 85.4035 63.8122
65 1 1.57138 79.8584 76.1647
66 1 2.4076 79.4854 76.3677
240 1 75.8432 -7.74458 77.6693
63 1 1.25 78.6345 77.7562
74 1 0.748159 80.0927 77.8344
64 1 1.1918 79.4667 77.0828
73 1 1.05511 80.5069 76.9965
67 1 2.37046 79.3187 77.3872
68 1 1.88413 80.0421 77.7097
69 1 2.07653 80.6826 76.9659
72 1 0.589931 81.1724 77.6493
71 1 1.47326 81.2167 77.6985
70 1 2.34383 81.5775 77.6055
228 1 77.1073 -8.64124 78.7334
230 1 78.2607 -8.39749 78.0345
237 1 75.183 -7.17688 79.2372
238 1 75.7616 -7.9073 79.2521
239 1 76.4205 -7.54292 78.5835
229 1 77.4022 -7.80322 78.1698
232 1 77.8366 -6.79353 78.2539
233 1 77.318 -7.07432 79.1253
231 1 78.336 -7.55495 78.5597
235 1 76.6105 -6.1607 79.1569
222 1 78.8984 -6.2536 79.2047
61 1 1.21455 78.6379 79.238
62 1 1.01635 78.0128 78.532
76 1 1.62098 79.8335 78.7018
75 1 1.18099 80.6383 78.4395
79 1 2.57113 80.5133 78.3395
78 1 2.08489 81.2278 78.7058
80 1 3.23826 80.9697 79.0544
226 1 77.127 -8.58427 80.253
227 1 76.8316 -8.0983 79.5547
236 1 75.886 -6.62 79.5489
225 1 77.3707 -7.76362 80.5341
224 1 78.0742 -7.93981 79.7677
223 1 78.36 -6.98446 79.7262
234 1 77.1624 -6.43511 79.7703
221 1 78.0516 -5.94568 79.4728
77 1 2.05957 80.5085 79.3098
451 1 -35.387 -15.1432 84.5669
459 1 -34.786 -14.0591 84.5185
460 1 -35.7358 -14.1635 84.1585
448 1 -34.8838 -15.8411 86.3086
450 1 -35.3589 -15.8333 85.1926
441 1 -34.3009 -15.2949 84.9282
442 1 -33.8621 -15.5811 85.7403
452 1 -35.6754 -14.4578 85.1332
453 1 -35.5147 -13.8591 85.8719
449 1 -35.001 -15.0463 85.737
458 1 -34.3854 -14.3383 85.2873
455 1 -36.0896 -12.778 85.8117
456 1 -35.0151 -12.7469 86.028
454 1 -36.1128 -13.4406 85.1088
457 1 -34.4295 -13.5407 85.9518
446 1 -34.6925 -16.1257 87.4942
445 1 -34.7508 -15.1719 87.1126
447 1 -33.9792 -15.7768 86.9699
444 1 -34.6173 -14.3545 86.6307
443 1 -33.9805 -14.9084 86.3783
46 1 22.1533 46.1476 87.6902
41 1 23.1455 46.7657 86.9324
45 1 21.5381 46.9268 87.6525
42 1 22.714 47.4077 87.4486
44 1 21.7743 47.8583 87.5446
52 1 24.0872 47.355 87.1474
53 1 24.882 47.6333 87.7301
54 1 25.5318 46.9791 87.5369
49 1 22.9101 46.4577 88.9133
47 1 23.1327 46.4458 87.9108
50 1 23.8444 46.5137 88.6251
56 1 24.8718 45.9016 88.6219
57 1 24.6852 46.7737 89.0804
55 1 24.7466 46.5862 87.9579
43 1 22.4023 48.0367 88.2246
48 1 22.2593 46.9768 88.5626
51 1 23.7817 47.3678 88.1249
59 1 24.3963 47.7333 88.8177
58 1 25.2129 47.4914 88.907
60 1 23.6151 47.381 89.2842
ITEM: TIMESTEP
35000
ITEM: NUMBER OF ATOMS
500
ITEM: BOX BOUNDS pp pp pp
-4.5743185044844950e+01 1.0574318504484548e+02
-4.5743185044844950e+01 1.0574318504484548e+02
-4.5743185044844950e+01 1.0574318504484548e+02
ITEM: ATOMS id type x y z
294 1 38.8763 -29.4279 -35.8155
291 1 38.0266 -30.249 -34.3075
289 1 37.3062 -30.4663 -35.3346
290 1 37.1764 -30.7387 -34.4262
283 1 35.2379 -30.831 -35.2881
286 1 36.8109 -31.3527 -35.8608
284 1 36.1279 -30.4658 -35.1322
285 1 36.373 -31.523 -34.8624
281 1 35.8843 -30.8257 -36.0566
295 1 38.5391 -28.8526 -36.6143
298 1 37.4236 -28.6012 -35.4342
299 1 36.8604 -29.5099 -35.3765
300 1 36.7009 -30.0575 -36.299
293 1 38.116 -29.6743 -35.3037
297 1 38.2925 -28.4146 -35.5408
296 1 39.0319 -28.0626 -36.2238
292 1 37.5732 -29.3667 -34.583
288 1 38.0061 -31.1242 -35.2635
282 1 34.9357 -30.5628 -36.222
287 1 37.3913 -31.9403 -35.2897
107 1 17.5565 88.1542 -19.8488
108 1 16.5952 87.9845 -19.644
119 1 16.5051 88.4624 -20.6625
101 1 16.5538 87.0571 -21.2602
109 1 16.9766 87.5481 -20.3657
111 1 17.4488 87.5119 -21.5392
102 1 15.7914 87.5299 -21.0155
117 1 18.2854 88.7711 -20.4897
116 1 17.7756 89.5386 -20.837
118 1 17.467 88.5392 -20.9076
104 1 16.2625 89.0732 -21.618
106 1 17.0648 89.03 -20.0561
120 1 16.0396 89.019 -19.9498
103 1 15.5391 88.4251 -21.3909
105 1 16.6632 89.5463 -20.7656
112 1 17.7784 88.2303 -22.1908
110 1 17.9537 87.4627 -20.7052
115 1 18.526 89.9955 -21.3542
113 1 18.466 88.1512 -21.539
114 1 18.3031 89.1475 -21.7305
151 1 71.5713 -29.0611 -7.98735
144 1 69.2346 -27.3699 -9.82545
141 1 67.6466 -28.3466 -8.89853
153 1 71.1935 -27.2787 -7.90452
152 1 71.2561 -28.2107 -7.71532
143 1 68.5047 -27.553 -9.07577
142 1 67.9312 -27.727 -8.18811
148 1 69.4088 -28.9436 -7.36721
149 1 70.1584 -28.2563 -7.79513
147 1 69.4766 -29.1864 -8.25817
159 1 68.6813 -28.7357 -9.29774
145 1 69.5711 -27.9542 -9.15207
160 1 68.9825 -28.5127 -10.1288
146 1 69.0691 -28.2456 -8.3471
150 1 70.594 -29.1111 -7.58608
155 1 71.2261 -28.5967 -9.23818
154 1 70.7268 -27.8511 -8.62834
157 1 70.4731 -29.465 -9.5375
156 1 70.344 -28.8469 -8.75829
158 1 69.5517 -29.1471 -9.43219
434 1 61.854 -5.60104 1.97876
431 1 61.9221 -3.94048 2.44865
432 1 62.235 -4.79814 2.7336
433 1 61.3735 -5.09783 2.82142
301 1 62.1499 -4.36753 -1.22755
436 1 63.4306 -4.95235 2.34472
435 1 62.792 -5.60815 1.99109
437 1 63.5062 -4.56066 1.47192
304 1 63.0054 -5.2717 -0.143457
303 1 63.0775 -4.76163 -0.931893
311 1 64.2882 -4.60189 0.138592
430 1 62.4645 -4.45862 1.76929
429 1 62.6045 -4.87323 0.884278
427 1 62.413 -3.60818 0.195964
439 1 63.7419 -3.46288 0.830805
302 1 62.405 -4.50895 -0.240262
425 1 62.8203 -2.73626 0.551674
312 1 64.8396 -3.73815 0.111238
428 1 63.2108 -4.22828 0.455987
426 1 63.106 -3.17316 -0.349561
306 1 63.7986 -6.2638 0.678929
307 1 63.4526 -5.48757 1.05629
305 1 63.905 -5.56497 0.056568
308 1 63.9331 -6.00197 1.64005
309 1 64.4179 -5.24321 1.5424
310 1 64.7479 -5.30706 0.697026
438 1 64.4132 -4.18977 1.23052
440 1 62.9923 -3.40595 1.25996
320 1 62.5932 -2.07726 2.25442
314 1 64.5219 -2.64543 1.7202
313 1 64.7805 -2.95057 0.738909
424 1 62.1189 -2.79692 1.33428
422 1 61.6643 -3.92994 1.25374
423 1 61.4817 -3.20917 0.571232
317 1 63.5644 -3.75358 2.29066
318 1 63.503 -3.63213 3.21801
316 1 63.9999 -2.87081 2.62717
315 1 64.6486 -3.49326 2.13025
319 1 62.8145 -3.03465 2.60596
421 1 61.1494 -4.49366 1.85535
16 1 77.7119 14.4272 37.8338
13 1 78.068 14.7577 39.1636
4 1 78.582 14.2289 37.2308
5 1 79.4136 14.3518 37.499
3 1 78.6753 13.4775 37.9165
14 1 78.2544 13.8916 38.7803
6 1 80.256 14.0579 38.0856
2 1 78.7841 12.4849 37.5376
1 1 78.116 11.8822 37.0758
18 1 77.1494 15.2009 38.2051
17 1 76.9607 14.3718 38.5035
12 1 78.986 14.3965 39.5582
8 1 79.3323 15.5697 38.2929
7 1 79.6619 14.6996 38.6183
15 1 78.474 14.6716 38.2926
389 1 96.3149 75.0567 39.9837
277 1 96.8163 76.1221 41.5647
278 1 96.6862 76.4092 40.5224
397 1 96.0473 77.0976 38.711
276 1 97.5339 76.7537 41.1812
400 1 97.2423 78.5935 38.4242
399 1 97.3325 78.2758 39.3372
398 1 96.9194 77.5124 38.5363
382 1 98.1185 77.7804 39.6645
381 1 97.4783 77.0287 39.9644
19 1 76.2899 15.291 39.0234
20 1 77.1483 15.5921 39.2312
10 1 78.3154 15.7441 38.9514
11 1 79.1927 15.4491 39.474
9 1 78.5639 16.2246 38.1556
391 1 95.6573 76.3633 41.0513
390 1 95.9726 75.5732 40.5879
274 1 95.8846 77.4237 40.8469
273 1 95.6435 78.2678 41.4037
280 1 97.5176 74.9928 40.0072
279 1 97.3929 75.6784 40.8092
395 1 95.826 75.7589 39.473
264 1 94.1029 76.9062 39.4751
265 1 94.7483 77.5283 39.0622
396 1 96.0503 76.236 38.654
386 1 96.4815 77.2569 39.7163
388 1 96.9025 75.7796 39.5203
387 1 97.0206 76.6686 38.9918
383 1 98.0707 78.4861 40.3867
275 1 96.7653 77.3339 41.3242
266 1 95.4482 77.6473 39.8731
261 1 94.7947 77.0842 41.4048
384 1 96.9838 78.7362 40.6119
272 1 94.9303 78.0404 40.7821
392 1 95.623 76.6029 40.1938
393 1 94.786 76.2539 39.7588
394 1 95.0333 75.3632 39.0856
271 1 95.2537 78.7391 40.0776
263 1 94.4356 77.1159 40.4268
270 1 96.0734 79.2676 39.8196
269 1 96.0759 79.4566 38.8057
385 1 96.3221 78.2179 40.145
262 1 94.4669 76.2653 40.8767
268 1 96.2115 78.568 38.5432
267 1 95.7545 78.0525 39.064
375 1 96.0276 93.1286 50.0289
361 1 98.6849 91.9443 49.8402
366 1 99.9181 93.2964 50.1613
125 1 97.3463 94.4237 49.4624
124 1 96.523 94.0025 50.0974
363 1 98.1138 92.8605 49.4842
127 1 99.1293 94.4017 49.4951
364 1 98.998 93.2059 49.2962
365 1 99.5913 92.4467 49.5409
129 1 99.2749 93.9722 50.4172
419 1 94.677 95.7431 52.9394
132 1 99.4055 96.0337 51.5674
380 1 95.6622 91.2814 50.5053
374 1 96.0851 92.5017 50.7754
370 1 98.2037 91.168 50.8497
369 1 99.0934 90.8485 50.3565
368 1 99.5712 91.757 50.6901
477 1 99.042 91.2529 51.5069
487 1 93.4466 92.0802 52.2325
379 1 95.5527 92.0161 49.9277
489 1 94.588 92.7657 52.1476
378 1 95.0388 92.2513 50.6982
377 1 95.1141 92.8379 51.303
376 1 95.0858 93.2476 50.3797
479 1 97.6352 92.0294 51.3336
367 1 99.8014 92.6946 50.8721
478 1 98.5325 92.0235 51.2991
472 1 99.0218 93.7324 51.4519
416 1 95.059 94.4243 51.7566
418 1 94.5367 94.7847 52.8015
123 1 95.8344 94.1097 50.8187
122 1 96.7211 93.8929 51.1729
362 1 98.8505 92.7311 50.3731
182 1 97.7249 93.089 52.2032
181 1 98.1728 92.3544 52.52
128 1 98.4156 93.9419 50.0871
130 1 99.3707 94.8078 50.5008
473 1 99.7249 93.286 52.0881
131 1 99.6477 95.759 50.615
415 1 95.912 93.8839 52.1422
420 1 94.0586 95.7634 53.8023
138 1 95.8261 95.4384 51.6461
137 1 96.2578 95.1684 50.7234
126 1 98.2952 95.0116 49.3974
134 1 98.5846 95.384 50.3151
183 1 97.6778 93.5369 51.403
133 1 98.6312 96.226 50.8433
468 1 100.062 95.4542 53.3251
467 1 100.062 96.0509 54.1388
136 1 96.417 95.1974 49.8177
199 1 97.8934 95.7533 51.4505
135 1 97.5748 95.517 49.8322
198 1 98.4402 95.7303 52.3428
466 1 99.0707 96.2054 54.2719
200 1 97.3902 95.3248 50.8341
481 1 93.2368 90.9324 54.5241
482 1 93.6396 90.5408 53.6876
494 1 95.2578 91.2538 52.377
205 1 97.0752 90.8933 52.2947
371 1 97.8004 90.899 51.6473
373 1 96.5795 91.5937 50.9791
206 1 96.5445 91.4853 52.0823
372 1 97.1673 90.8642 50.9286
484 1 93.4885 91.8615 53.2964
483 1 94.1945 91.3217 53.6681
488 1 94.3496 91.7939 52.4045
322 1 95.1915 93.216 54.5081
321 1 96.2039 93.4283 54.3057
493 1 94.787 91.1671 51.5891
492 1 95.5056 91.828 51.5767
480 1 96.8586 92.5741 51.4076
213 1 99.0273 90.5677 53.0508
214 1 98.074 90.6259 52.6346
476 1 99.8779 91.8361 51.766
475 1 99.1609 92.3838 52.131
471 1 98.606 93.6053 52.3636
474 1 99.455 92.6887 52.7837
486 1 93.8174 92.7862 52.8592
413 1 94.452 93.5649 53.6117
417 1 94.7163 95.2803 51.8965
490 1 95.3253 92.3174 52.656
412 1 94.1513 94.4198 54.3011
409 1 95.7221 94.8772 54.8538
491 1 95.8856 92.7053 51.9955
121 1 96.985 93.152 50.6208
86 1 97.3539 93.0208 53.4175
215 1 98.0533 91.3817 53.1807
188 1 97.5008 94.7098 52.0733
470 1 99.3061 93.7441 52.9383
469 1 99.873 94.5928 52.8867
414 1 95.2629 93.6965 52.9904
407 1 94.9802 95.0601 54.015
408 1 95.3572 94.301 54.0155
139 1 96.4165 94.9861 52.2105
140 1 96.7473 95.2738 53.1409
189 1 96.9637 93.9715 52.5387
340 1 96.9603 94.2884 54.0347
184 1 97.9681 94.3981 50.9518
185 1 98.6932 95.0368 51.3628
355 1 99.5212 93.1693 53.8914
186 1 98.8161 94.7835 52.2647
405 1 95.5082 95.9787 53.5652
406 1 96.0264 95.1872 53.913
192 1 95.8999 95.7907 52.6169
195 1 96.9072 96.0657 54.054
196 1 97.6579 95.4122 53.9318
197 1 97.7179 95.7445 52.9702
464 1 99.7304 96.5438 55.1683
465 1 98.7178 96.3711 55.2298
462 1 99.5117 95.0272 54.1536
461 1 98.8349 94.5374 53.6288
496 1 96.1517 90.7692 52.9675
495 1 95.9537 90.6365 51.9598
89 1 96.1976 92.3852 54.5809
204 1 96.9538 89.9371 52.7142
211 1 99.0783 90.4433 54.044
323 1 95.2018 92.2522 54.1796
88 1 96.2029 92.4387 53.5887
87 1 96.5287 93.1217 52.942
207 1 97.0826 92.095 52.8023
208 1 97.2681 92.0116 53.8073
212 1 99.8646 90.6907 53.6051
217 1 99.3278 91.7476 53.4987
218 1 100.199 91.621 53.8293
219 1 100.633 92.429 54.2734
220 1 99.8555 92.1268 54.6742
485 1 94.2647 92.394 53.6005
411 1 94.5807 94.255 55.1355
410 1 94.6211 95.1169 54.9413
335 1 95.7182 93.9044 55.1389
336 1 96.0252 94.3503 55.931
85 1 97.1656 92.745 54.5158
216 1 98.4769 92.1925 53.5491
84 1 97.5856 92.368 55.395
360 1 99.2285 92.4445 55.5988
358 1 97.9123 93.4467 55.2796
187 1 98.0607 94.6196 52.9194
341 1 94.7115 95.026 56.7956
342 1 94.1848 95.2159 55.9033
191 1 95.4989 94.7657 52.7338
337 1 96.7039 93.7829 56.4182
190 1 96.1418 94.1304 53.2412
338 1 96.9697 93.9903 55.5756
339 1 96.7467 94.6544 54.9807
354 1 99.8382 93.2349 54.8929
357 1 98.2408 92.8611 54.5677
356 1 98.4956 93.2662 53.6092
404 1 95.7699 96.0846 54.5005
193 1 96.5389 96.4204 52.1267
194 1 96.9222 96.4163 52.9444
349 1 98.1176 94.4039 55.6074
351 1 98.6279 94.509 54.6354
353 1 99.2713 93.6655 55.5418
352 1 99.236 94.596 55.4247
350 1 97.7865 94.4891 54.671
463 1 99.432 95.5819 55.0937
499 1 94.2997 90.2772 54.4313
500 1 93.88 89.7714 55.1218
498 1 94.7745 90.3875 53.6021
497 1 95.7302 90.5619 53.8267
100 1 95.0379 90.1099 55.1052
91 1 97.1822 90.9719 53.6457
90 1 96.5339 91.4563 54.2665
99 1 95.5749 89.7462 54.4564
201 1 97.9467 89.4632 51.5508
203 1 97.7807 89.4746 52.7757
202 1 97.199 89.0927 52.1175
325 1 94.6876 91.1494 54.5337
95 1 96.1462 90.2428 55.3115
324 1 94.416 92.1969 54.859
94 1 97.1555 90.5556 54.9761
92 1 97.7499 90.1082 53.7185
82 1 97.0017 91.5566 55.315
81 1 97.6987 91.5592 56.1038
210 1 98.155 90.7389 54.6667
209 1 97.9229 91.6297 54.309
326 1 94.3367 91.2215 55.5787
334 1 96.1965 93.1821 55.5286
329 1 95.2149 92.4765 55.4895
333 1 95.578 93.5122 56.2178
83 1 96.5989 92.211 55.835
359 1 98.3065 92.8872 55.9252
330 1 94.7535 93.3187 55.5713
343 1 95.2311 95.165 55.7658
344 1 94.9789 96.0532 56.3044
345 1 95.756 96.0838 55.6134
401 1 96.2961 97.4827 54.6077
402 1 95.6953 97.2506 55.3182
403 1 95.0302 96.5973 54.8452
346 1 96.7475 96.6612 55.3728
347 1 97.26 95.8352 55.0571
348 1 98.1981 95.2757 55.1862
98 1 96.1846 89.3105 53.8428
96 1 96.5581 89.3422 54.9807
97 1 96.6035 90.0555 54.2464
93 1 97.5688 89.8102 54.7645
327 1 95.2097 91.487 56.0035
328 1 95.712 91.6285 55.1577
332 1 95.3605 93.9655 57.158
331 1 94.6813 93.9669 56.3468
33 1 94.3139 82.9427 63.8217
34 1 95.1692 82.8103 63.326
38 1 94.6829 83.0731 61.592
36 1 94.5201 82.3169 62.6543
37 1 94.0869 82.2976 61.7524
40 1 93.9761 84.7091 61.5476
39 1 94.5567 83.9307 61.3441
180 1 94.7101 85.434 62.8388
32 1 93.8039 82.5383 64.4891
31 1 93.0576 83.192 64.4512
245 1 93.3456 82.7918 63.0216
27 1 94.9174 84.124 63.7884
26 1 95.8214 84.2175 63.6075
35 1 95.0507 83.3151 62.565
172 1 92.3802 84.5541 61.3006
171 1 92.64 85.2649 61.9083
247 1 93.7393 83.6705 63.2996
241 1 92.0709 84.0313 62.4523
243 1 92.6929 83.2562 61.8479
242 1 92.9238 84.1173 62.2275
174 1 90.8078 85.7153 61.6778
175 1 91.5504 86.2949 62.1359
176 1 92.4638 86.5552 62.4079
169 1 92.0947 85.9137 63.0841
173 1 91.4614 84.9628 61.3498
177 1 93.3084 85.9425 62.294
178 1 94.3057 85.8492 61.9351
179 1 94.1368 86.229 62.813
29 1 95.0043 83.208 64.6465
28 1 95.1955 84.1535 64.7026
24 1 96.5936 84.7359 62.7936
30 1 93.956 83.5983 64.6372
164 1 91.9712 83.2825 64.3048
25 1 95.507 84.6896 62.8944
23 1 95.9804 84.9414 61.8524
21 1 96.0857 83.8624 61.228
22 1 96.0259 84.0132 62.2221
165 1 91.5324 83.204 63.436
166 1 91.5108 84.2466 63.376
244 1 92.4361 83.0906 62.8016
167 1 90.8337 84.6389 63.8236
170 1 91.7893 85.1901 62.4269
249 1 93.5821 84.7851 62.7514
246 1 93.9473 83.3504 62.4599
248 1 94.4771 84.2768 62.7963
255 1 94.5745 85.0748 64.3895
168 1 91.3603 85.5539 63.7466
250 1 93.0824 85.454 63.3017
260 1 91.9538 86.862 63.5059
257 1 93.4646 84.6205 64.0688
256 1 94.0151 85.2664 63.6433
251 1 93.4744 86.2008 63.6785
253 1 93.9091 86.1481 64.7817
163 1 92.5953 83.7954 63.5559
161 1 92.3011 85.1642 63.9051
162 1 92.5225 84.6576 63.0597
259 1 92.4642 86.1752 64.0749
258 1 93.1668 85.4333 64.4293
254 1 94.5035 85.5697 65.2957
252 1 93.2316 86.7131 64.4997
65 1 0.487634 80.9567 77.891
66 1 0.810329 80.8941 76.9674
240 1 77.5654 -7.46314 79.8196
63 1 0.3475 81.8447 78.347
74 1 1.03833 82.9934 79.1325
64 1 0.493852 81.9315 77.3339
73 1 0.22856 83.3793 79.5923
67 1 -0.10467 80.8668 76.966
68 1 -0.615958 81.3854 77.6265
69 1 -0.592675 81.1469 78.6558
72 1 0.157811 82.8297 78.7303
71 1 0.033111 82.3303 79.4815
70 1 -0.744862 82.1076 78.7929
228 1 78.8392 -9.69306 81.7005
230 1 80.1643 -8.57245 82.2801
237 1 78.9516 -8.10671 81.1181
238 1 78.2437 -8.24865 80.3886
239 1 77.6125 -7.58457 80.8282
229 1 79.7323 -9.17947 81.6192
232 1 80.0035 -8.18549 81.1333
233 1 79.7295 -7.42107 81.6874
231 1 80.9434 -8.21883 81.8002
235 1 80.1588 -7.49154 79.9855
222 1 79.4528 -9.86465 82.6271
61 1 0.46355 81.4606 79.9515
62 1 0.439792 81.1269 78.9867
76 1 1.25319 81.6009 79.3573
75 1 1.88921 82.4189 78.9721
79 1 2.24854 82.0312 78.0111
78 1 2.49626 81.0252 78.1412
80 1 1.42313 81.5019 77.9899
226 1 78.0117 -8.9501 81.2495
227 1 78.876 -9.0692 80.9981
236 1 79.2353 -7.8739 80.1567
225 1 78.2637 -8.5432 82.0262
224 1 78.1826 -9.52358 82.5325
223 1 78.7849 -9.15239 83.19
234 1 79.6143 -7.17188 80.8493
221 1 79.3403 -10.6051 81.9401
77 1 2.00114 81.3426 78.9429
451 1 -35.2965 -14.8347 87.8464
459 1 -35.0381 -16.2429 87.6895
460 1 -35.3051 -16.8526 88.6496
448 1 -35.7714 -15.5154 87.0465
450 1 -36.2459 -14.5286 87.8579
441 1 -34.4651 -16.6958 86.7632
442 1 -35.0326 -16.5595 85.9626
452 1 -35.1354 -15.5352 88.6233
453 1 -35.9936 -15.5133 88.1829
449 1 -36.7 -15.1973 87.2906
458 1 -35.4525 -17.1811 87.2986
455 1 -36.7393 -16.5165 88.4787
456 1 -36.55 -17.3716 87.9343
454 1 -36.2371 -16.2921 87.6424
457 1 -36.3451 -17.1979 86.8921
446 1 -36.6813 -14.1607 86.4116
445 1 -36.7791 -15.1476 86.2287
447 1 -35.8308 -14.6187 86.913
444 1 -36.5987 -16.0918 86.5481
443 1 -35.7871 -15.9014 86.0564
46 1 25.1176 46.829 90.8756
41 1 25.3048 48.6484 88.9703
45 1 24.4794 47.167 90.2933
42 1 25.1284 47.8563 89.5551
44 1 24.7961 46.8164 89.4349
52 1 22.7755 47.8657 90.5242
53 1 22.3744 47.8013 89.657
54 1 22.9348 48.5415 89.5986
49 1 24.6669 48.0601 90.996
47 1 25.6941 47.6047 90.829
50 1 24.2141 48.3574 90.1681
56 1 23.6264 48.5213 91.1637
57 1 23.0329 47.7958 91.6402
55 1 23.0728 48.8953 90.4526
43 1 24.2827 47.5434 89.23
48 1 25.4191 48.6149 90.6171
51 1 23.5627 47.7664 89.9621
59 1 23.6092 46.4014 91.1293
58 1 23.7459 47.4123 91.0058
60 1 23.6846 46.3321 90.0486
ITEM: TIMESTEP
36000
ITEM: NUMBER OF ATOMS
500
ITEM: BOX BOUNDS pp pp pp
-4.7879003449361718e+01 1.0787900344936224e+02
-4.7879003449361718e+01 1.0787900344936224e+02
-4.7879003449361718e+01 1.0787900344936224e+02
ITEM: ATOMS id type x y z
282 1 37.4749 -30.2767 -37.9807
281 1 38.2726 -30.3046 -38.7291
300 1 37.4894 -30.8994 -36.53
295 1 36.3793 -33.1792 -35.3153
296 1 36.1858 -32.2241 -35.2956
287 1 38.3115 -32.597 -38.4779
283 1 37.2526 -30.1417 -39.0634
286 1 38.8043 -31.6795 -38.8142
284 1 37.0427 -31.1076 -38.8497
285 1 37.903 -31.2417 -39.04
289 1 37.8683 -31.365 -38.0707
288 1 37.9597 -32.2057 -37.647
299 1 36.5142 -30.9564 -36.5074
293 1 37.6082 -32.4304 -36.2832
292 1 37.1752 -31.8514 -36.9436
294 1 37.223 -32.6171 -35.4113
298 1 36.9961 -31.5591 -35.9003
297 1 36.2556 -32.1896 -36.4223
290 1 37.3206 -32.1358 -38.6703
291 1 36.9155 -31.8025 -37.9232
112 1 15.8751 89.9902 -22.1499
101 1 15.9292 91.2434 -21.3922
110 1 16.3385 88.6357 -23.1854
102 1 16.6736 90.6887 -21.4624
103 1 17.0837 90.4047 -22.27
119 1 17.2661 89.9406 -23.1763
111 1 16.5687 89.3051 -22.4945
117 1 15.5049 89.8646 -24.0647
118 1 16.4175 89.7659 -23.5677
113 1 15.5298 89.4071 -22.9682
104 1 16.3735 90.5927 -22.9583
105 1 17.0087 91.3228 -22.8736
116 1 16.0553 90.664 -24.0251
115 1 15.1869 90.9762 -23.7461
114 1 15.3451 90.3336 -23.0798
108 1 17.688 89.2785 -24.4119
109 1 17.0856 88.9794 -23.7049
107 1 16.9848 90.0369 -24.4156
106 1 17.178 90.8784 -23.7767
120 1 18.0785 90.593 -23.006
157 1 70.8568 -29.6457 -9.25187
158 1 71.0845 -30.4976 -8.6728
159 1 71.8978 -29.9609 -8.68161
160 1 71.4924 -28.9679 -8.69932
144 1 72.9098 -28.9425 -10.0007
147 1 71.9619 -31.3644 -9.13609
151 1 71.0013 -31.0806 -9.83544
141 1 72.0867 -29.4653 -7.68537
143 1 72.6042 -28.5086 -9.23323
142 1 72.6337 -29.2134 -8.52339
146 1 71.836 -30.4911 -9.62165
145 1 72.3612 -29.629 -9.53876
156 1 71.3739 -28.9147 -9.7397
155 1 71.3424 -29.8634 -10.2388
154 1 70.6674 -30.3827 -10.7846
153 1 69.7197 -30.8546 -10.5452
148 1 71.7621 -31.8225 -9.90252
150 1 71.6691 -30.8149 -10.6561
149 1 72.4799 -31.2115 -10.2444
152 1 70.2845 -30.3296 -9.7098
301 1 60.7943 -6.19359 0.637057
303 1 62.3079 -5.50518 -0.0870052
304 1 62.8707 -6.29903 -0.120457
305 1 62.8286 -5.86357 -1.05644
302 1 61.343 -5.58228 0.087638
428 1 63.7085 -5.00543 0.149152
311 1 64.6433 -4.83269 -0.417666
312 1 64.5926 -3.9156 -0.827887
427 1 62.9335 -4.74976 -0.568944
426 1 61.9179 -4.62352 -0.536714
307 1 64.1002 -6.17022 0.117667
306 1 63.7776 -6.0194 -0.802464
308 1 64.7208 -5.81256 0.858724
309 1 65.3618 -5.04801 0.656678
310 1 65.2744 -5.63794 -0.150477
422 1 62.414 -4.96645 0.701304
421 1 62.5459 -5.42855 1.57308
437 1 65.0669 -5.3601 2.12364
430 1 63.7354 -5.57115 1.51406
429 1 63.3363 -5.73115 0.640914
438 1 64.5725 -4.98607 1.37624
424 1 62.8094 -3.66756 -0.59975
423 1 62.4831 -4.10241 0.395697
425 1 61.9422 -3.67131 -0.516242
440 1 63.7095 -3.9237 0.189046
439 1 64.4691 -4.42891 0.642584
314 1 65.1251 -3.62088 1.03322
313 1 65.2234 -3.95145 0.0220988
434 1 63.949 -4.4183 2.79884
433 1 63.4624 -3.65991 2.36286
435 1 65.0085 -4.30348 2.65315
431 1 63.3048 -4.74056 1.28385
432 1 63.8672 -4.35214 1.67597
436 1 65.7058 -4.69554 1.9608
317 1 62.1976 -3.70854 1.37377
318 1 62.6137 -4.29959 1.83783
319 1 62.3865 -3.91441 2.61742
316 1 63.1601 -3.41549 1.17367
315 1 64.1447 -3.5445 1.11813
320 1 62.078 -4.15223 3.41765
2 1 78.4218 13.4801 41.0487
1 1 78.7494 13.3515 40.0627
16 1 77.7681 14.7197 38.5854
4 1 77.4917 15.0417 40.667
3 1 78.3884 14.4347 40.4984
5 1 77.0734 14.5271 39.9332
6 1 77.6098 13.7839 40.1349
18 1 79.1027 13.8691 38.0667
15 1 77.9888 15.023 39.4871
8 1 79.0744 14.3293 39.622
9 1 78.9961 15.3275 39.72
400 1 101.456 76.347 38.9167
17 1 78.1532 14.4591 37.7928
14 1 77.882 15.8687 39.0461
12 1 79.0122 14.8245 38.5919
19 1 79.042 13.4831 38.8901
20 1 79.986 13.6471 38.6156
13 1 78.3197 15.4825 38.0938
10 1 79.953 15.0343 39.4853
7 1 78.2173 13.9538 39.3896
11 1 79.6161 15.7432 38.7798
395 1 99.4044 76.3566 39.5794
393 1 98.2373 76.6136 40.4906
394 1 98.6796 75.7763 40.0387
388 1 99.183 78.4534 42.1396
264 1 97.113 77.4629 40.1203
265 1 98.0704 77.9431 40.1486
266 1 97.9535 77.7723 39.1363
397 1 99.6842 77.9779 39.3696
398 1 100.515 78.0413 38.5982
396 1 98.8523 77.2175 39.3162
386 1 99.1289 78.6348 40.207
387 1 98.8682 78.7908 41.1941
267 1 98.7332 78.4769 38.8376
399 1 101.053 77.2692 39.0308
268 1 99.3734 79.1307 39.2831
382 1 98.426 80.1082 41.1168
270 1 97.8923 79.6451 38.8482
269 1 98.9311 79.9976 38.8877
262 1 97.6577 76.9021 41.7681
389 1 98.3679 78.0553 41.7146
390 1 98.8685 77.3301 42.2366
280 1 98.671 77.6656 43.5373
279 1 98.2909 78.0121 42.7665
263 1 97.131 77.0934 40.9701
391 1 98.7927 76.4421 41.486
274 1 97.6283 78.3658 41.068
392 1 98.6677 77.3473 40.9493
278 1 98.4193 78.8229 43.1262
276 1 98.4362 79.4493 42.2668
381 1 99.2741 79.6684 41.5055
272 1 97.3308 78.9034 39.2711
271 1 97.2141 79.6824 39.6749
384 1 98.5329 79.8052 39.914
385 1 98.2138 78.8862 39.7695
383 1 97.8557 79.6282 40.618
277 1 97.8376 79.5091 43.141
261 1 97.3242 76.5768 42.7036
275 1 97.7293 79.3097 41.6078
273 1 97.182 78.6904 40.23
363 1 99.4169 95.6982 51.5003
365 1 99.683 96.2132 49.9685
125 1 100.073 96.3914 51.3418
127 1 100.779 97.2067 52.1162
364 1 99.2358 95.563 50.5261
126 1 100.088 96.4342 52.1622
380 1 96.1122 95.4158 52.8448
373 1 98.3077 94.1456 51.2204
372 1 99.1577 93.683 51.4303
370 1 99.9821 94.6458 50.263
369 1 100.75 94.2134 50.7956
379 1 96.635 95.1853 51.9611
378 1 96.3979 96.1179 51.8346
374 1 97.5315 94.3216 51.9173
361 1 100.848 95.815 52.6383
368 1 100.936 95.0584 51.4953
367 1 100.382 95.4717 50.6871
362 1 99.9892 95.413 52.3314
376 1 96.2824 94.8864 50.9395
123 1 99.2153 96.4888 52.589
375 1 96.8749 94.2457 51.2342
124 1 99.1695 96.8134 51.6098
121 1 98.3218 95.3507 51.7029
128 1 101.58 96.5136 51.7562
184 1 99.5234 95.163 53.3985
366 1 100.563 96.3777 50.2983
129 1 101.578 96.4326 50.8413
137 1 98.9763 98.0224 52.2473
136 1 99.8583 97.7493 52.0242
134 1 100.504 98.1194 53.3406
135 1 99.8649 97.369 53.0216
200 1 99.8516 97.5386 54.0884
130 1 102.6 96.6898 51.2013
131 1 101.817 97.4847 51.3253
133 1 101.425 97.8867 52.8966
202 1 100.452 93.2076 51.1148
201 1 99.4587 92.9965 50.7203
494 1 97.399 92.8939 51.5539
493 1 98.0208 93.4847 52.1613
495 1 96.9924 91.9572 51.2765
205 1 99.6379 92.1687 52.0879
206 1 98.6282 92.585 52.3622
371 1 99.7219 94.4309 51.3051
477 1 100.14 93.1423 53.0963
487 1 95.3911 93.811 53.6955
488 1 95.2764 94.4976 52.9397
489 1 96.0742 94.055 52.8196
377 1 95.7015 95.4438 51.4315
492 1 97.318 93.4786 52.835
491 1 96.6841 93.5936 52.064
480 1 98.5554 94.2675 52.3524
479 1 99.5319 94.2208 52.6966
478 1 99.5658 93.7811 53.6124
182 1 98.7014 94.4321 53.9894
476 1 100.897 93.8055 52.8026
475 1 101.628 94.4275 52.8174
416 1 97.5794 95.4565 53.2789
415 1 97.7219 95.1889 52.4927
122 1 98.9161 95.5541 52.6242
183 1 98.5512 95.3014 53.5866
471 1 102.561 96.2827 53.1543
472 1 102.643 96.3219 52.2541
473 1 102.99 95.5038 52.441
138 1 98.185 98.2618 52.8961
417 1 98.2532 96.2404 52.9893
139 1 98.121 97.2239 52.6318
199 1 99.1767 97.2171 54.7432
198 1 98.7584 97.7968 55.2403
188 1 99.0272 95.6241 54.4702
185 1 99.8708 96.1964 53.299
186 1 100.385 95.8948 53.9823
193 1 96.8396 97.2966 53.2542
132 1 101.56 98.1845 51.9594
204 1 100.576 92.5927 52.2919
98 1 96.8851 91.3087 53.641
203 1 100.137 93.3774 51.9869
92 1 98.7204 91.4727 52.2013
482 1 96.8561 93.9035 55.7205
483 1 95.8967 94.3473 55.4908
498 1 95.2707 92.5525 53.4973
497 1 95.8672 92.9667 52.7053
496 1 96.4179 92.5844 51.8685
91 1 97.7463 91.8997 51.9545
214 1 98.8349 91.4956 53.7222
215 1 99.6315 90.9746 53.4576
213 1 99.3049 91.6794 54.5501
212 1 99.2539 92.3278 55.2503
218 1 100.523 93.3392 54.1682
484 1 96.2816 93.8066 54.5915
486 1 95.0266 94.1623 54.7025
485 1 95.7323 94.5941 54.4347
490 1 95.8357 93.8123 51.8134
88 1 98.2069 93.3984 54.3084
87 1 98.6919 94.1137 54.9255
207 1 99.3062 93.2504 52.4713
208 1 98.6691 92.9687 53.3271
181 1 98.0801 93.9644 53.3078
86 1 98.8356 94.3814 55.7072
216 1 100.275 91.6349 53.5006
474 1 102.445 94.7966 53.007
217 1 100.954 92.3905 53.8954
413 1 96.5562 95.1629 53.9691
414 1 96.8439 94.7138 53.0165
189 1 98.9299 96.4743 54.0061
190 1 97.9543 96.4935 54.0252
356 1 99.9428 94.0631 54.4762
470 1 101.715 96.8494 53.3282
461 1 99.1571 95.685 55.7238
420 1 97.2077 95.3613 51.0629
419 1 97.56 96.1829 51.2882
418 1 98.0896 96.2625 52.0326
192 1 96.8228 96.3069 53.0551
191 1 97.1548 96.0269 53.9574
140 1 98.8781 97.2643 53.2847
197 1 99.0775 98.3213 54.7186
187 1 99.7517 96.1729 54.7401
468 1 100.792 96.9964 54.5253
469 1 100.684 96.902 53.5089
405 1 97.2081 97.0608 54.5156
194 1 97.7619 97.6618 53.5727
499 1 94.9067 92.9807 54.3002
500 1 94.2657 92.2177 54.1823
100 1 98.1553 92.3248 54.5143
99 1 97.7437 91.7406 53.8549
96 1 96.6783 90.9488 51.7484
97 1 96.9054 91.6696 52.5684
93 1 98.2491 90.7251 52.1886
481 1 96.8791 93.0238 55.9797
325 1 96.2046 92.4378 53.9126
328 1 97.0555 93.1029 54.42
90 1 97.5814 92.4613 52.9271
94 1 98.0719 90.9806 53.0628
210 1 99.7741 92.5208 53.959
209 1 99.3721 92.4234 53.0855
211 1 99.1068 92.8589 54.6235
324 1 96.3916 93.3027 53.6222
323 1 97.0166 93.9253 53.8407
89 1 97.663 92.7707 53.751
85 1 99.3324 93.9094 56.4884
357 1 99.7801 94.7588 55.1744
220 1 100.92 94.1495 55.2309
219 1 101.226 94.0279 54.2934
412 1 96.8232 95.5272 54.9448
322 1 97.6898 94.5622 54.012
408 1 96.8301 95.9571 56.1397
411 1 97.1816 94.4889 54.9052
335 1 98.7788 95.4762 57.4184
321 1 97.998 95.3112 54.4586
340 1 98.1705 96.2343 55.268
351 1 100.704 95.4627 55.0331
350 1 100.445 96.2372 55.5886
355 1 100.192 94.94 54.142
354 1 101.024 94.9661 53.6679
409 1 96.702 94.9939 55.9288
407 1 97.2812 96.6323 55.8314
410 1 97.5954 95.1573 55.5935
406 1 97.6975 97.3946 55.4533
339 1 98.2351 95.9227 56.3045
347 1 101.104 97.8757 57.169
196 1 97.9789 98.4725 54.5272
462 1 99.0881 96.6006 55.522
463 1 99.6027 97.1953 55.9945
404 1 96.2847 97.1102 54.6866
403 1 95.5696 96.4638 54.5603
195 1 98.2125 97.3681 54.3234
465 1 100.751 97.6995 55.9534
467 1 100.266 97.3794 55.0968
466 1 100.783 98.2022 54.9688
464 1 99.7647 98.1799 56.0738
401 1 95.6655 95.4651 55.7657
95 1 97.3365 90.3568 52.4498
326 1 96.2933 92.1598 54.7403
327 1 97.0865 92.4331 55.0505
82 1 98.8431 92.9384 56.7709
81 1 98.3586 92.9115 56.1092
329 1 97.5779 93.294 55.1659
83 1 99.5806 92.8225 56.3186
84 1 99.5329 93.5259 55.5424
359 1 99.8325 95.3666 56.835
360 1 99.5916 96.2452 56.4458
333 1 98.4126 94.6599 56.9765
330 1 97.8994 93.9043 55.8257
331 1 97.4423 93.6513 56.6263
336 1 99.6929 96.0496 57.6371
337 1 98.7707 96.9079 57.6191
338 1 98.4708 96.8872 56.6299
334 1 98.9041 95.0215 56.4353
358 1 100.169 94.6733 56.1905
349 1 101.079 96.6078 56.0923
353 1 101.781 95.6651 54.1162
342 1 99.3994 96.2556 58.5734
343 1 99.2776 97.3428 58.4998
348 1 101.88 97.1836 56.7777
352 1 101.538 96.2394 54.9884
344 1 99.0756 98.0095 57.9276
345 1 100.044 98.095 58.1955
402 1 96.1586 96.306 55.37
346 1 100.102 98.0186 57.2625
332 1 97.4225 94.6425 56.5845
341 1 100.135 96.7899 58.0924
243 1 96.5731 85.1412 61.3125
37 1 97.3975 84.9959 62.7803
38 1 98.3295 85.2425 62.3647
172 1 93.7136 85.1091 63.5574
242 1 95.7023 85.4409 61.5887
39 1 97.6594 85.3706 61.676
21 1 96.5165 85.8061 62.2833
22 1 96.1872 86.6736 62.2444
174 1 94.3673 85.6886 61.9083
173 1 94.3607 85.3228 62.7622
171 1 93.3409 85.8737 63.9245
40 1 97.3493 84.3925 61.9136
178 1 93.1166 86.2259 62.7897
23 1 96.6458 87.0145 63.0804
175 1 93.9196 86.5177 62.2921
165 1 94.2706 85.0143 66.0243
244 1 96.3004 84.4553 62.009
36 1 97.0754 84.7273 63.5927
245 1 96.4009 84.1014 62.7909
34 1 95.6417 84.6059 64.6986
166 1 94.1912 84.0931 66.2332
241 1 95.2016 84.8512 62.1832
163 1 95.206 85.6785 64.9353
162 1 94.4593 85.141 64.8034
247 1 95.5165 85.7694 62.7113
246 1 96.2152 85.0863 63.1362
248 1 95.0449 86.5547 62.3557
26 1 97.5137 86.7237 64.8225
35 1 96.087 84.2538 63.8122
25 1 97.1647 86.1337 64.0239
169 1 93.1754 85.0074 64.9247
170 1 92.8189 85.0685 63.8479
250 1 94.4546 87.3982 62.5214
177 1 93.4837 85.2511 62.4279
249 1 95.4206 87.461 61.9648
180 1 93.4209 87.2674 62.8476
24 1 97.1789 86.2863 63.029
176 1 93.2693 85.944 61.736
260 1 94.3193 86.3323 64.4018
179 1 93.7499 86.7459 63.4547
31 1 96.1617 85.387 65.5203
164 1 95.2318 85.0994 65.722
33 1 96.2279 85.1857 64.2598
32 1 96.2652 85.9747 64.8246
29 1 97.0564 85.6178 66.0291
167 1 94.4901 83.9194 65.2517
30 1 96.958 84.8771 65.1065
257 1 95.9623 86.2678 63.6492
27 1 97.3645 85.8998 64.9471
28 1 96.8073 86.5097 65.583
168 1 93.7285 84.2134 64.5543
161 1 94.1609 85.9588 65.4207
255 1 95.5304 86.6298 64.4699
256 1 96.4227 87.0564 64.1686
258 1 95.2442 86.8003 63.3446
259 1 94.9239 85.889 63.7584
251 1 93.9965 88.0038 63.2789
253 1 95.4348 87.6749 64.023
252 1 94.5516 88.1252 64.1401
254 1 94.8681 87.3398 64.9231
64 1 -0.286621 81.8719 78.6095
67 1 -1.33144 82.485 79.7884
68 1 -0.7203 82.0069 80.3633
66 1 -1.15773 82.6802 78.8456
65 1 -1.25832 81.7786 78.5412
63 1 0.329006 82.3549 79.3428
69 1 -0.0025474 82.8942 80.2544
62 1 0.503259 83.455 79.3345
80 1 0.540396 82.6397 78.1611
78 1 1.47708 84.1018 78.0171
77 1 0.426839 83.7263 78.1396
72 1 -1.48424 84.0714 79.4253
70 1 -0.688578 83.3953 79.8772
75 1 -0.602587 83.2805 77.4821
79 1 1.36374 83.1716 77.7343
238 1 81.0408 -8.93111 82.9998
236 1 82.091 -9.76709 82.4635
240 1 80.249 -7.16849 82.671
235 1 82.4633 -9.43231 83.2596
61 1 1.46096 83.5197 79.5851
76 1 -0.349313 84.2678 77.7241
71 1 -0.366222 84.1681 79.2504
74 1 -0.303758 83.1414 78.5178
73 1 -1.04595 83.7731 78.5558
228 1 80.5139 -9.70524 82.0397
237 1 81.481 -9.0123 82.1234
226 1 79.5702 -10.3292 82.446
227 1 79.9762 -9.46058 82.68
229 1 80.7433 -10.1547 82.8628
232 1 81.7894 -9.39665 84.3664
231 1 80.919 -9.68202 83.8729
239 1 80.3948 -8.16536 82.9119
233 1 81.4214 -8.486 83.9427
234 1 82.4395 -8.57429 83.7557
224 1 79.8401 -11.0931 84.1476
222 1 79.7552 -10.2139 84.7135
221 1 79.4516 -9.29359 85.1498
225 1 79.8337 -10.6095 83.3676
223 1 79.0918 -11.0797 84.8799
230 1 81.5305 -10.0204 83.3309
442 1 -35.6355 -15.6763 88.6228
443 1 -35.4778 -16.5294 88.0978
457 1 -37.1917 -16.514 89.4271
458 1 -36.6411 -16.1815 88.5291
441 1 -36.1647 -15.9336 89.4161
449 1 -36.0643 -17.4396 88.3141
445 1 -34.9831 -18.0246 89.5846
444 1 -35.3923 -17.1769 89.0147
448 1 -36.5522 -18.2464 88.3629
446 1 -35.8175 -17.5963 89.8422
447 1 -35.9672 -18.1832 89.1338
455 1 -37.4764 -15.9306 87.9255
456 1 -37.9084 -16.15 88.9007
454 1 -37.9028 -16.7256 87.6207
460 1 -36.4681 -15.6929 87.6288
453 1 -37.443 -17.4153 87.243
459 1 -36.72 -16.7289 87.7257
452 1 -37.2906 -17.5586 88.2166
450 1 -36.5994 -17.2671 89.1666
451 1 -37.3662 -17.9305 89.2577
60 1 25.1054 49.6486 92.7661
44 1 23.438 48.8558 90.5255
53 1 26.2145 47.158 92.3101
43 1 23.9325 48.0686 90.7815
51 1 25.0976 47.8355 92.1773
45 1 23.443 49.373 91.4376
42 1 24.1544 47.6588 91.563
54 1 26.1575 47.8461 92.9908
50 1 24.8098 47.0524 92.6518
41 1 23.9147 46.7578 91.7547
59 1 25.1809 49.1145 91.8123
46 1 23.9008 49.7327 92.348
52 1 25.9913 47.8478 91.5459
57 1 24.4307 48.705 92.7655
58 1 24.2889 48.8945 91.7905
49 1 23.9331 47.5995 92.6077
47 1 22.9511 49.429 92.447
56 1 25.3293 48.635 93.1082
55 1 26.0653 48.4954 93.8397
48 1 23.4701 48.412 92.287
ITEM: TIMESTEP
37000
ITEM: NUMBER OF ATOMS
500
ITEM: BOX BOUNDS pp pp pp
-4.8406345842001329e+01 1.0840634584200185e+02
-4.8406345842001329e+01 1.0840634584200185e+02
-4.8406345842001329e+01 1.0840634584200185e+02
ITEM: ATOMS id type x y z
287 1 37.7323 -31.8171 -36.8187
284 1 36.9917 -30.9555 -37.4413
290 1 36.9821 -32.169 -37.4303
286 1 38.3996 -31.2275 -37.1493
285 1 37.826 -30.5694 -37.5863
289 1 37.5844 -33.007 -37.6566
283 1 36.5384 -31.5152 -36.7811
281 1 36.6735 -33.3504 -37.2148
292 1 38.3536 -32.2572 -38.7333
291 1 37.8341 -31.8953 -37.9282
288 1 38.381 -32.511 -37.2462
282 1 36.3525 -32.5766 -36.696
295 1 37.5704 -30.5505 -38.7251
294 1 37.6109 -31.0142 -39.5399
296 1 37.026 -31.343 -38.6271
297 1 36.3129 -31.8825 -38.6856
293 1 38.2003 -31.2983 -38.8217
298 1 37.2069 -32.4213 -38.6212
300 1 36.161 -32.693 -38.0403
299 1 36.4446 -32.9713 -38.9325
108 1 14.2199 89.9915 -23.6269
117 1 15.5831 89.9926 -23.3779
107 1 14.8817 90.7021 -23.8196
110 1 15.8972 89.4207 -24.2256
113 1 17.3193 91.1437 -23.6084
109 1 14.9472 89.6665 -24.2664
115 1 16.2913 91.6582 -23.7707
118 1 15.8975 90.5203 -24.1824
104 1 16.4241 90.9793 -25.4533
116 1 16.0326 90.872 -23.0953
114 1 16.8002 91.2886 -24.4958
119 1 15.1525 90.4254 -24.8493
106 1 15.0087 91.5712 -24.3306
120 1 15.9023 89.9994 -25.1881
105 1 15.8414 91.6438 -24.9493
111 1 16.6113 89.8306 -23.7459
112 1 17.3702 90.2297 -23.4079
102 1 17.4676 90.7416 -25.6222
103 1 16.952 90.3011 -24.9329
101 1 17.772 90.8015 -24.6694
149 1 71.0851 -30.5988 -9.52159
153 1 73.0642 -29.3278 -7.77694
155 1 72.5682 -29.2361 -8.85813
154 1 72.0632 -29.4599 -8.12468
150 1 71.546 -29.8219 -9.11977
144 1 72.9944 -30.9163 -10.5782
151 1 72.3227 -30.4072 -8.85981
147 1 72.0511 -30.7474 -10.0727
148 1 71.4505 -29.9796 -10.2525
158 1 72.5416 -31.4383 -9.32062
152 1 73.1037 -30.178 -8.33187
159 1 73.5156 -31.4044 -8.97613
146 1 72.5039 -29.8656 -10.481
145 1 72.1623 -30.6089 -11.116
157 1 73.1045 -30.646 -9.56005
160 1 74.323 -31.1422 -9.50118
143 1 73.2291 -31.8376 -10.127
156 1 73.2071 -29.6728 -9.49809
141 1 72.0264 -31.6162 -11.3867
142 1 72.384 -31.7919 -10.493
305 1 63.1194 -6.29707 -0.25868
306 1 63.6744 -5.522 -0.138239
427 1 61.229 -5.29486 1.01008
426 1 61.0149 -4.75441 0.0620021
311 1 62.026 -3.51745 -0.126446
424 1 62.2641 -3.78566 0.979708
425 1 61.509 -4.03411 0.610277
312 1 63.0128 -4.10668 -0.127991
301 1 64.0063 -5.6375 1.03624
304 1 62.4112 -6.52413 0.320122
307 1 62.8159 -5.13921 -0.346431
308 1 62.2501 -5.50769 -0.90443
302 1 63.0281 -5.91074 0.816898
303 1 62.8646 -6.87277 1.07697
422 1 62.7117 -5.30969 1.96776
428 1 61.6619 -5.68284 0.161153
429 1 62.2073 -4.87944 0.406212
309 1 62.0539 -4.75285 -1.5447
310 1 61.9487 -4.40174 -0.692993
439 1 65.8715 -3.62009 2.58865
423 1 62.1634 -4.58908 1.50898
440 1 65.6861 -4.17178 1.73366
316 1 63.6939 -3.09669 -0.120462
315 1 64.6147 -2.90299 0.000483534
314 1 64.2734 -3.73876 0.451606
313 1 64.0241 -4.04915 -0.506149
421 1 62.0846 -5.89062 1.49925
430 1 63.0256 -4.82134 0.881004
431 1 63.5993 -4.76568 1.75284
437 1 64.7426 -3.62411 3.11612
438 1 65.4329 -4.28282 3.18827
436 1 64.9164 -3.41497 2.23155
317 1 63.1764 -3.32893 0.643502
318 1 63.0162 -3.81584 1.60289
319 1 62.9649 -4.371 2.45123
433 1 63.8648 -3.76726 2.32023
432 1 64.0363 -4.70875 2.60333
434 1 64.4312 -4.10768 1.51049
320 1 62.1086 -4.15778 2.92102
435 1 64.0388 -3.20635 1.45197
18 1 77.046 13.7056 39.544
19 1 77.9748 13.8366 39.0094
20 1 77.7852 14.6454 39.3773
16 1 77.4666 14.3435 40.3698
17 1 76.4863 14.3777 40.0569
12 1 78.294 13.1291 40.59
14 1 77.2308 12.9155 40.2857
13 1 77.8586 12.2261 40.7008
11 1 78.5886 13.9466 40.1175
400 1 100.751 76.8716 40.4952
398 1 101.411 77.9333 40.1019
399 1 100.707 77.9633 40.6092
270 1 99.9081 77.7705 39.9627
267 1 99.8324 76.6014 40.0978
269 1 99.8076 77.1075 39.0898
6 1 77.7707 16.4813 40.7187
1 1 76.3153 16.6705 40.0693
3 1 77.5925 16.4272 39.5804
5 1 77.4931 15.5088 40.4409
15 1 76.8124 13.6984 40.8292
7 1 78.6327 16.395 40.2646
8 1 79.2447 15.566 40.092
10 1 78.7265 14.5845 39.372
9 1 78.4334 14.9424 40.3095
395 1 101.442 76.7919 41.4949
393 1 100.869 77.9486 42.2613
394 1 100.637 77.2172 41.5592
264 1 98.8627 77.0023 40.5783
266 1 99.7412 77.0701 41.0389
265 1 98.9352 77.4917 41.3941
396 1 101.874 77.5298 41.9715
397 1 101.839 77.7676 41.0189
272 1 99.494 78.6488 39.6618
271 1 98.9994 77.6924 39.7099
273 1 98.9961 79.0277 40.4226
386 1 100.257 79.1407 41.9288
268 1 99.0865 76.4278 39.388
384 1 99.6286 79.9684 40.6684
385 1 100.326 79.3876 41.0848
2 1 77.132 17.0774 40.2674
4 1 76.8522 15.9033 39.7267
262 1 98.2335 76.794 41.5623
391 1 99.3398 78.7384 42.3802
263 1 98.2451 76.2697 40.7494
274 1 98.3992 78.1743 40.4866
389 1 99.1782 79.666 41.9025
392 1 99.9138 77.8184 42.6247
383 1 98.6633 80.3189 40.7004
275 1 97.862 78.0358 41.3683
387 1 100.703 79.7919 42.3645
381 1 98.967 81.4634 40.8567
382 1 98.2551 81.1325 40.3229
261 1 99.0628 76.1392 41.3494
390 1 99.1962 78.8113 41.4317
279 1 98.0774 78.4118 42.5666
277 1 97.2063 79.5984 41.4993
388 1 100.04 80.2023 41.8016
278 1 98.0991 79.2899 41.9874
276 1 97.3991 78.6599 40.8887
280 1 98.3614 77.5418 42.3087
370 1 100.938 95.263 51.2117
365 1 100.419 96.4136 50.936
366 1 101.385 96.5816 50.9918
96 1 97.6107 92.9126 53.482
495 1 95.8924 93.7933 52.4369
494 1 96.9265 93.5918 52.5963
372 1 99.4873 95.5642 52.0418
202 1 100.584 93.1031 52.1468
201 1 100.082 93.9691 52.4353
376 1 96.8009 95.8976 50.8427
375 1 97.4545 95.3937 51.2651
373 1 99.1884 95.8662 51.0683
369 1 101.933 95.22 51.3955
371 1 100.059 95.125 51.3396
368 1 101.374 95.7253 52.1373
377 1 95.9201 96.1748 51.3352
420 1 98.6915 98.5979 52.0662
419 1 98.9608 98.3314 51.2014
363 1 100.53 95.5938 52.5936
364 1 100.391 96.1681 51.8144
121 1 99.0794 97.1665 52.0477
125 1 100.365 97.8481 52.8561
367 1 101.8 96.471 51.8373
128 1 101.205 97.4877 53.3025
129 1 101.849 97.4403 54.2098
124 1 99.3693 98.1247 52.5929
131 1 100.878 98.366 54.8356
130 1 101.854 98.1544 54.6369
95 1 98.2472 92.1382 53.8229
93 1 97.3721 91.2386 52.5379
94 1 97.9444 91.7925 52.9711
91 1 97.7194 92.7899 52.3193
97 1 97.9793 93.0069 54.3706
92 1 97.2249 92.0863 52.1245
209 1 99.707 92.9182 52.683
205 1 100.389 94.0767 51.4511
497 1 96.3674 92.4097 52.6622
496 1 95.4725 92.8711 52.5306
490 1 96.3576 95.133 51.5486
493 1 96.6543 93.7206 51.7182
492 1 97.4195 94.289 51.4376
491 1 97.0999 94.7909 52.2353
90 1 97.9683 93.6926 52.785
206 1 99.3708 94.341 51.8294
207 1 98.8295 93.4751 52.1688
477 1 100.731 94.6005 52.9562
204 1 101.299 94.3751 51.7802
203 1 101.263 93.5778 52.3409
476 1 101.641 94.5958 52.8268
379 1 95.833 96.3474 53.1516
488 1 95.2462 94.6228 53.1058
489 1 95.7972 95.0712 52.2942
374 1 98.4766 95.403 51.6242
415 1 98.1907 96.4351 51.8463
414 1 97.4014 95.8856 52.2718
480 1 98.7427 94.7711 53.2718
479 1 99.662 94.6559 53.3795
475 1 101.954 95.4048 53.0508
474 1 102.884 95.8791 53.0777
380 1 95.6546 96.9397 53.8491
378 1 96.4254 96.3084 52.3457
192 1 96.7657 97.2758 53.3231
123 1 99.8967 98.0557 51.7784
122 1 99.7731 97.3317 51.1365
417 1 98.0928 97.6171 52.0375
418 1 98.0422 98.0284 51.0263
126 1 100.095 96.9013 53.1195
361 1 101.019 95.0133 53.961
362 1 101.012 95.8565 53.506
472 1 101.975 96.4896 53.9869
473 1 102.424 96.7084 53.1871
137 1 98.948 98.5911 53.5345
139 1 97.2333 98.7158 52.8562
127 1 101.091 96.6724 52.8501
136 1 99.2516 98.9013 54.468
135 1 98.9046 98.0608 55.0159
133 1 99.5857 97.8346 54.0407
138 1 98.2438 98.8983 52.9715
132 1 100.482 97.8385 54.205
215 1 101.506 92.1503 53.3734
500 1 96.0657 94.0167 54.0778
325 1 96.9131 93.4674 54.1633
98 1 98.7778 92.3842 54.6355
99 1 99.1801 92.5202 53.8162
214 1 101.705 92.5903 54.298
100 1 98.6759 92.6069 52.8836
216 1 101.619 93.0203 53.12
217 1 101.402 93.8147 53.9242
499 1 96.2693 93.3125 53.4842
487 1 95.7874 95.1857 53.6701
498 1 95.7044 92.4704 53.4409
324 1 96.8929 94.2646 53.4818
328 1 98.2356 92.923 55.3943
89 1 97.8671 93.9226 53.7455
88 1 98.4708 94.0418 54.5478
208 1 99.0917 93.6774 53.0416
478 1 100.401 94.2478 53.8749
218 1 101.509 93.5413 54.9451
210 1 100.43 93.3781 53.246
485 1 95.5158 94.7892 54.6777
413 1 96.713 95.5012 52.9511
323 1 96.7671 95.0161 54.036
322 1 97.6854 95.3016 54.3521
182 1 97.9762 95.9278 53.5495
181 1 97.5893 95.0184 53.3243
184 1 98.103 97.5213 53.1354
356 1 101.155 94.4464 54.8643
355 1 102.212 94.7943 54.8533
219 1 102.5 93.5446 54.6119
354 1 102.516 95.1666 55.7829
416 1 97.3582 97.1351 52.2908
190 1 98.4904 96.7061 54.0807
191 1 97.5831 96.9441 53.6876
321 1 97.9534 96.1318 54.9212
183 1 98.0412 96.6098 52.9336
188 1 99.1005 95.905 53.714
189 1 99.3333 96.6905 54.0577
185 1 98.974 97.069 53.1399
186 1 99.2931 96.2698 52.8044
353 1 101.978 95.7881 55.4524
471 1 101.266 96.189 54.5304
193 1 95.8042 97.6975 53.1723
405 1 98.3487 96.9477 57.2378
194 1 96.4581 98.4941 53.7232
140 1 96.6031 98.1878 52.609
195 1 96.7706 97.7606 54.3685
200 1 100.902 95.3428 55.0357
468 1 101.279 97.4736 55.3167
469 1 100.746 97.0342 54.8182
470 1 100.77 96.8129 53.9083
196 1 97.6688 97.5919 54.7322
134 1 99.9157 97.9647 55.0508
326 1 97.0971 94.1984 54.5676
327 1 97.281 93.3119 55.1132
213 1 100.769 93.0476 54.1882
212 1 100.302 92.0193 54.0569
484 1 96.0978 94.1669 55.347
329 1 98.325 93.6056 56.0122
211 1 100.502 92.4853 53.1223
84 1 100.323 92.6176 55.1604
486 1 95.5495 95.7935 54.39
483 1 96.7329 94.5808 55.971
482 1 95.9621 95.0663 56.3561
411 1 96.7606 96.1214 54.5101
409 1 96.2381 95.8167 55.2801
410 1 96.9863 95.4464 55.1544
330 1 98.7471 94.2556 55.5436
87 1 99.3996 93.528 54.2039
86 1 99.6729 94.4372 54.6418
357 1 100.934 94.2529 55.7701
220 1 102.796 92.7198 54.4194
403 1 97.2618 97.0386 55.8186
401 1 95.8542 96.6922 54.9459
402 1 96.7019 96.7005 55.4313
412 1 96.9079 96.1371 53.6447
407 1 97.3281 96.4595 56.6901
461 1 100.332 95.2501 56.0642
340 1 97.7307 95.8612 55.9611
462 1 100.169 96.1574 56.3499
187 1 99.9128 95.7722 53.502
351 1 102.559 97.2119 55.131
350 1 102.04 96.7995 55.7873
352 1 102.328 96.3663 54.8838
404 1 97.6087 97.5405 56.655
406 1 97.6181 96.3951 57.5667
199 1 100.157 95.9817 54.6692
198 1 99.6742 96.8056 55.1839
467 1 100.715 97.88 56.0126
197 1 98.623 97.1098 54.9875
466 1 99.6922 97.9904 56.1513
481 1 95.1425 95.4159 56.1944
331 1 97.7959 94.3676 55.4735
82 1 101.552 92.411 55.5915
81 1 102.314 92.994 55.4723
83 1 100.687 91.9603 55.6726
332 1 98.2067 95.2221 55.2954
85 1 100.376 93.7795 54.9066
333 1 98.7175 95.3194 54.479
334 1 99.1656 95.998 54.8689
358 1 100.516 93.3788 56.0285
408 1 96.4932 96.1199 56.1603
339 1 98.2192 96.674 56.1661
359 1 99.696 93.3228 56.4639
360 1 99.7358 94.0911 55.8437
338 1 98.349 95.9322 56.89
463 1 99.9812 97.0307 56.3463
465 1 99.0385 97.349 56.0651
346 1 101.807 94.8473 56.4308
347 1 101.39 95.1143 57.2874
349 1 101.073 96.4805 55.859
348 1 101.296 95.8416 56.6489
464 1 99.2422 96.6641 56.6113
335 1 99.367 95.2018 55.37
342 1 101.336 93.8864 57.8583
336 1 98.9651 95.769 55.9949
337 1 98.5738 95.0155 56.2735
343 1 100.918 94.0435 57.0722
344 1 101.886 93.8922 56.7466
345 1 102.017 94.1962 55.7088
341 1 100.311 93.6986 58.2215
243 1 95.9996 85.6655 62.001
242 1 96.6024 86.0274 61.3599
177 1 94.92 83.7128 62.4389
173 1 95.8835 84.997 62.8467
241 1 95.937 85.5091 60.87
244 1 96.7552 85.3122 62.616
245 1 96.0623 85.8964 63.1323
37 1 97.5992 86.1728 64.6712
39 1 98.5037 86.3854 64.1849
40 1 98.9883 87.0118 63.5185
38 1 97.7859 87.1063 64.1396
178 1 94.2341 84.3793 62.2039
176 1 94.3583 83.3223 63.3185
174 1 94.897 84.7217 63.1693
175 1 94.5516 84.0665 63.9421
248 1 95.1115 85.9335 61.2562
21 1 96.3732 86.9308 61.7924
22 1 96.5963 87.1763 62.6695
247 1 95.0475 85.4015 62.1482
180 1 93.1768 85.3974 62.4778
250 1 94.5665 86.5384 62.6118
249 1 94.26 86.3711 61.6456
172 1 96.5369 84.9282 63.6803
170 1 95.6376 84.2139 64.1725
246 1 95.1171 85.7516 63.052
35 1 97.1668 85.3793 64.9913
33 1 95.8823 85.9597 64.5959
36 1 98.1448 85.4105 64.8931
171 1 95.595 85.1976 63.9323
179 1 93.8248 84.7147 63.0087
258 1 95.5202 87.8112 62.9009
259 1 95.6221 86.8555 63.2636
257 1 94.8637 87.5342 63.5329
25 1 96.4998 86.6378 63.8316
24 1 97.2845 86.5141 63.3514
251 1 95.5037 86.6046 62.1983
252 1 95.185 87.5829 61.9415
23 1 97.189 86.3268 62.365
256 1 94.0754 88.0227 63.4171
253 1 94.6165 87.5767 62.5007
167 1 96.5726 83.8471 63.6615
169 1 95.6167 83.2147 64.0663
168 1 95.6011 83.9126 63.0869
162 1 94.7351 84.3992 65.7201
164 1 96.102 84.8086 65.0998
34 1 96.7515 85.7173 64.2115
31 1 97.0775 86.0918 65.7892
30 1 98.0095 86.5395 65.4842
163 1 95.1115 85.1193 65.1373
260 1 95.2796 86.7141 64.2046
161 1 94.1755 83.8327 66.3523
32 1 96.5603 86.5058 64.9534
255 1 94.8703 88.5456 63.1199
26 1 96.8559 87.5971 63.6216
27 1 96.7539 87.457 64.4568
28 1 97.5953 88.0022 64.6505
254 1 94.5707 88.6092 62.3053
165 1 96.8447 84.4133 64.6427
166 1 96.7487 83.4681 64.4829
29 1 97.295 87.4258 65.504
75 1 0.135892 83.732 77.5023
80 1 0.492956 84.6626 76.8081
77 1 -0.944254 83.93 76.9197
79 1 -0.141784 85.3965 77.2084
76 1 -0.670502 83.0977 77.3574
78 1 -0.515024 84.5736 77.6481
64 1 -0.771864 81.7865 79.3164
67 1 -0.663972 83.693 79.3269
65 1 -0.642982 82.565 78.6938
63 1 -1.58722 81.9024 78.8298
66 1 -1.25158 82.8067 79.3539
74 1 -0.441875 83.5371 78.2631
73 1 -1.06758 84.4007 78.6105
62 1 -0.833407 81.5097 78.2995
61 1 -1.14112 82.1763 77.5962
72 1 0.0349345 84.5131 78.7623
71 1 0.671262 84.6094 78.1702
68 1 0.130898 83.0832 79.4841
70 1 0.592583 83.7 78.512
69 1 0.333474 82.7677 78.4025
226 1 81.5457 -10.2383 82.7332
228 1 80.684 -10.1078 84.2731
236 1 82.1022 -9.47732 85.2001
237 1 82.0829 -8.58969 85.0248
229 1 80.6368 -11.0706 84.0297
225 1 80.5535 -10.4311 82.7922
230 1 80.3206 -11.0202 85.0635
238 1 81.8306 -8.71493 84.1332
227 1 81.5452 -10.3931 83.7056
231 1 81.3219 -11.0979 85.1318
235 1 81.7287 -10.0958 85.7459
234 1 82.5553 -10.6244 85.7181
239 1 81.3733 -7.80856 83.9814
233 1 82.6799 -10.8094 84.5966
240 1 81.1054 -7.02486 84.6274
222 1 80.3022 -8.68966 83.8649
223 1 80.6644 -8.36749 83.0699
224 1 80.8153 -9.47615 83.2967
221 1 80.8412 -8.56651 84.7464
232 1 81.8351 -11.3028 84.2326
453 1 -35.3421 -15.8789 89.2883
452 1 -36.158 -15.7795 88.6817
455 1 -35.733 -17.3739 90.1542
454 1 -35.1453 -16.6761 89.9556
459 1 -35.3557 -18.0734 88.5256
443 1 -36.5017 -18.1518 87.5372
460 1 -35.6405 -18.5083 89.4062
451 1 -36.5057 -16.6565 88.6269
449 1 -35.0125 -17.4532 89.1849
444 1 -35.9397 -17.3826 87.7933
448 1 -34.6037 -16.4875 88.8991
447 1 -35.0612 -15.8205 88.2881
450 1 -35.6466 -16.9524 88.9217
445 1 -35.2475 -16.828 87.8744
457 1 -36.4933 -17.3532 89.3796
456 1 -36.2873 -16.55 89.8714
442 1 -36.7581 -17.2464 87.2266
458 1 -36.3543 -17.9644 88.5692
441 1 -37.4027 -17.3537 87.9054
446 1 -35.4917 -15.9721 87.4569
44 1 26.1152 48.9506 92.0332
43 1 26.3948 49.7758 92.1919
41 1 25.3684 50.6492 93.2549
53 1 24.743 48.3782 93.8287
48 1 26.0432 49.4794 93.1189
42 1 25.6627 50.4239 92.2351
58 1 24.9834 47.6041 92.1332
51 1 23.4688 48.9072 92.798
52 1 24.271 49.0286 93.4066
45 1 26.0329 48.0202 92.2347
46 1 26.5247 48.1897 93.0306
59 1 25.1187 48.6592 92.2118
50 1 24.172 49.4202 92.4786
57 1 25.7389 46.8533 92.4007
49 1 25.1362 49.6078 92.7734
54 1 24.7074 47.6086 93.1541
56 1 25.4877 46.7775 93.3941
55 1 24.5263 46.645 93.1645
47 1 25.6659 48.5026 93.2121
60 1 24.1518 48.3435 92.1268
ITEM: TIMESTEP
38000
ITEM: NUMBER OF ATOMS
500
ITEM: BOX BOUNDS pp pp pp
-4.9202626624029833e+01 1.0920262662403037e+02
-4.9202626624029833e+01 1.0920262662403037e+02
-4.9202626624029833e+01 1.0920262662403037e+02
ITEM: ATOMS id type x y z
297 1 38.1351 -32.0042 -37.8742
299 1 38.7144 -31.84 -38.9443
292 1 36.7083 -33.5199 -38.3331
298 1 38.8514 -31.3543 -38.1302
295 1 37.137 -32.0046 -36.5076
294 1 36.3873 -32.5615 -36.8716
296 1 37.2385 -32.1233 -37.4381
293 1 36.9067 -33.312 -37.4171
281 1 37.4244 -31.6418 -38.7789
289 1 37.9629 -32.6523 -40.1809
290 1 37.8479 -32.6639 -39.2324
300 1 39.0486 -30.9569 -39.1982
291 1 37.3949 -32.8442 -38.2725
288 1 37.2653 -33.3158 -40.231
284 1 35.8748 -32.6734 -38.9766
285 1 36.8099 -33.0095 -39.2505
282 1 36.6006 -31.804 -39.3691
287 1 36.9151 -32.3644 -40.6514
283 1 36.4789 -32.1424 -38.3941
286 1 36.2214 -32.7622 -40.0741
120 1 14.8936 91.7326 -24.1931
119 1 15.6487 91.4242 -24.9034
104 1 14.6374 91.7933 -25.3357
103 1 14.7132 90.9048 -25.1421
102 1 13.8155 90.6515 -25.4037
101 1 14.2056 90.2454 -26.2401
105 1 15.5515 92.2787 -25.7068
108 1 16.5528 90.6481 -24.9213
117 1 17.2298 90.9638 -25.7278
110 1 15.7236 90.3947 -25.636
109 1 15.6815 90.4362 -24.6793
111 1 15.6018 90.1435 -26.5866
107 1 17.0008 91.4793 -24.6627
118 1 16.2723 91.317 -25.6802
106 1 16.3935 92.2658 -25.0848
113 1 15.6362 91.4491 -26.5825
114 1 15.7612 92.5012 -26.6943
112 1 14.9595 90.8921 -26.2007
115 1 16.572 92.1203 -26.1842
116 1 16.8053 91.1689 -26.5728
145 1 72.7212 -30.7427 -9.71066
141 1 73.1488 -30.2787 -8.77394
143 1 73.6404 -31.9942 -8.64595
142 1 73.554 -31.0924 -8.28227
149 1 75.1511 -31.4842 -9.14687
144 1 72.8461 -31.4121 -8.97676
147 1 73.9448 -30.0451 -9.27998
158 1 73.1731 -31.0871 -10.5766
157 1 73.6793 -30.4955 -10.2452
160 1 72.279 -31.3003 -10.9818
148 1 74.4852 -30.8113 -9.06106
146 1 73.0895 -29.7534 -9.68089
156 1 74.1297 -30.3648 -11.0847
151 1 73.7455 -31.3681 -9.54224
159 1 72.9938 -32.0602 -10.8953
150 1 74.3995 -32.011 -9.42741
155 1 74.7475 -30.8515 -10.4161
154 1 74.0996 -31.6279 -10.6284
152 1 73.4703 -32.2096 -9.89099
153 1 74.0091 -32.5921 -10.7036
308 1 61.6662 -6.11442 0.895398
309 1 60.931 -5.74961 0.3988
304 1 63.5844 -5.90414 -0.44826
428 1 62.2075 -5.44272 1.49489
305 1 62.6445 -5.66392 -0.381001
307 1 61.8211 -5.25249 0.352556
306 1 62.8325 -5.80039 0.561269
426 1 60.9507 -5.61988 1.53948
429 1 63.0639 -5.83579 1.56473
310 1 60.7575 -4.69425 0.181192
312 1 62.0878 -5.25393 -1.10467
314 1 62.7776 -4.8074 0.806433
313 1 62.4054 -4.57492 -0.238582
311 1 61.3167 -4.82339 -0.70259
316 1 63.3372 -3.31276 -0.0435391
315 1 63.5316 -4.17245 0.380494
303 1 63.4947 -5.00293 -0.24512
427 1 61.607 -5.25124 2.17066
421 1 62.6858 -4.99236 2.57875
302 1 63.7551 -5.40999 0.650696
422 1 62.1261 -4.16109 2.613
301 1 64.7558 -5.15701 0.0604808
425 1 61.0199 -4.59368 1.41025
423 1 61.7264 -3.65534 1.99827
424 1 62.0977 -4.24049 1.31047
430 1 63.8393 -5.48427 2.24932
318 1 62.8267 -3.58423 1.73398
431 1 64.5372 -4.99335 1.75198
434 1 64.1732 -3.31057 0.720054
440 1 65.0066 -3.02904 1.44738
317 1 63.1338 -3.2273 0.979873
435 1 64.3176 -2.43272 0.0893053
320 1 63.4501 -4.35335 2.75477
319 1 63.2372 -4.48042 1.85616
437 1 63.9925 -2.14966 2.0624
433 1 64.8713 -3.94404 0.722599
432 1 64.1264 -4.16557 1.32208
439 1 64.7289 -3.5816 2.16128
438 1 63.801 -3.25228 2.25294
436 1 64.1208 -2.218 0.987029
18 1 75.92 13.8731 41.3223
19 1 76.4266 13.4702 40.4883
10 1 76.4903 14.5261 42.3572
4 1 77.7188 15.6001 39.4942
20 1 77.0512 13.7051 41.1877
3 1 76.9343 15.1771 39.1442
269 1 102.648 76.8496 42.7796
268 1 101.936 76.4068 42.4116
272 1 101.2 77.9746 41.7833
271 1 101.7 77.0844 41.655
14 1 76.8485 16.0253 41.0396
12 1 76.2269 16.134 42.2606
13 1 76.864 16.6944 41.7622
16 1 76.6246 14.69 41.0009
17 1 75.7801 14.5094 40.4549
15 1 76.8727 15.2668 40.2158
11 1 76.225 15.2692 41.7394
5 1 78.1883 16.3099 39.9778
9 1 77.3498 14.5888 41.7704
8 1 77.2236 15.6193 41.9289
1 1 77.7279 14.4076 39.9965
2 1 77.4847 14.3783 39.068
6 1 77.9078 15.7595 40.7399
7 1 78.1722 15.2847 41.594
263 1 98.0591 77.9886 41.6645
267 1 101.257 76.9028 42.9035
264 1 99.136 77.6665 41.8249
266 1 100.445 77.5396 42.6599
400 1 101.698 79.2617 41.4361
274 1 101.848 77.739 40.1289
276 1 99.9244 77.7412 39.1373
270 1 102.634 77.2959 41.9122
398 1 101.962 80.4524 42.3438
399 1 102.213 79.6188 42.3092
397 1 101.125 79.8662 42.5559
273 1 101.36 77.9051 40.8294
384 1 100.428 78.8243 41.1245
383 1 99.6568 79.377 40.7627
385 1 101.155 78.9592 40.432
382 1 99.8869 78.566 40.1114
381 1 99.3921 78.2558 40.9409
261 1 98.7733 78.7827 41.8184
262 1 98.3569 78.3049 42.4301
280 1 98.6667 79.6868 40.025
265 1 100.132 77.7506 41.7565
394 1 102.557 78.4333 43.0045
395 1 102.164 79.3322 43.4833
396 1 101.35 80.0286 43.3838
275 1 101.103 77.9967 39.3142
279 1 98.9291 78.761 39.695
391 1 100.866 78.9413 43.0384
390 1 100.727 78.9762 42.0428
393 1 102.068 78.445 42.2658
277 1 99.532 77.5418 40.0944
278 1 98.6312 77.8143 39.8854
389 1 99.7889 78.5139 42.3588
386 1 100.68 79.8152 40.562
387 1 100.472 79.9889 41.6134
388 1 99.6683 79.3829 41.8614
392 1 101.517 78.1893 42.8882
376 1 97.8428 97.0476 52.4872
365 1 100.116 97.7605 52.3594
91 1 97.3112 93.6116 51.6053
92 1 97.1779 93.4572 52.4334
493 1 98.2952 95.0692 52.4027
492 1 99.0461 94.8573 51.8078
206 1 100.208 95.1232 52.117
207 1 100.614 95.3466 52.9617
202 1 101.318 95.643 52.3212
205 1 100.554 96.043 51.5918
204 1 101.015 95.4386 51.0371
203 1 101.679 95.1873 51.6596
489 1 98.6468 96.1193 52.5063
490 1 98.5849 95.6958 51.6019
491 1 98.2826 94.8501 51.0525
375 1 98.7489 97.2869 52.1493
374 1 98.9484 96.6003 51.2581
372 1 99.7348 95.9261 52.5358
370 1 100.474 96.7934 52.5384
371 1 99.7635 96.7779 51.8857
368 1 101.809 97.5806 52.1793
369 1 101.403 96.7699 52.7685
377 1 96.8761 96.6665 52.5239
378 1 96.2733 97.0717 53.1792
415 1 97.6158 97.9072 51.5468
414 1 97.0745 97.9953 52.3953
416 1 98.2119 98.142 52.4261
373 1 99.57 95.7802 51.5878
121 1 99.9 98.3072 50.6098
366 1 100.983 98.295 52.155
364 1 99.5358 97.1678 53.0638
367 1 101.179 97.7974 51.2905
417 1 98.0083 99.0426 52.5835
418 1 98.2307 98.7579 51.5132
420 1 98.9377 99.4076 51.9919
419 1 99.0969 99.0827 51.1419
123 1 99.8724 98.8568 52.1507
122 1 100.249 98.2935 51.3848
93 1 97.6846 92.979 53.1109
496 1 96.1989 94.7431 52.0989
498 1 96.0712 94.276 54.023
497 1 95.7744 94.2542 52.9346
96 1 98.4779 92.156 54.0597
94 1 98.0608 93.2894 54.0422
209 1 100.967 95.4204 54.2815
100 1 100.33 94.0929 52.9982
211 1 102.38 95.3754 52.8391
215 1 102.786 93.7559 54.3526
495 1 96.7071 94.7774 53.0882
494 1 97.6202 94.4981 53.0376
499 1 96.3146 94.522 54.992
324 1 99.9096 94.8603 54.7765
90 1 97.9152 94.2504 52.0832
89 1 98.7835 94.0557 52.7283
208 1 100.127 95.0276 53.7118
201 1 101.383 94.7471 52.6368
210 1 101.627 95.6573 53.5685
216 1 103.65 93.8358 54.8299
488 1 97.7302 95.8967 52.1873
487 1 97.3863 95.765 53.2206
413 1 97.2246 97.5896 53.2509
181 1 98.1054 96.6512 54.789
480 1 98.3873 96.3688 53.6683
479 1 99.2318 96.0703 53.7995
187 1 98.9971 97.1334 53.9479
363 1 100.036 97.1293 53.9642
477 1 100.901 96.6189 53.7584
476 1 101.261 97.4363 54.1637
475 1 101.968 97.3718 53.4433
379 1 96.3534 98.1136 53.3266
412 1 97.1838 96.7487 53.8173
182 1 97.7899 97.572 54.2673
191 1 98.5359 98.6287 55.4868
183 1 97.3641 98.4577 54.1048
188 1 99.137 96.7375 54.894
185 1 99.0798 98.2554 54.2275
186 1 98.4921 97.6995 53.5412
126 1 99.7389 98.8841 53.8298
362 1 100.601 96.7406 54.6782
127 1 100.088 97.9994 53.514
473 1 102.623 95.7164 53.8463
474 1 102.607 96.5124 53.3854
192 1 97.6575 98.4509 55.8064
193 1 98.019 97.6829 55.2977
194 1 98.6096 97.1258 55.9062
140 1 100.335 99.0105 53.087
184 1 98.195 98.4869 54.4215
124 1 99.2793 98.2562 52.8258
137 1 100.198 100.573 54.374
125 1 98.7767 98.8313 53.4913
128 1 101.142 97.8243 53.1713
139 1 100.819 99.5955 53.764
138 1 100.013 100.054 53.6401
95 1 99.0274 93.13 54.3223
97 1 99.1962 92.2725 53.392
98 1 99.6071 92.8043 52.4387
99 1 100.447 93.3299 52.6885
212 1 102.674 94.6968 52.2535
84 1 99.4994 93.3272 53.4151
214 1 102.267 93.9416 53.552
220 1 102.328 92.4044 55.4826
500 1 96.162 93.949 55.7358
325 1 99.0334 94.2386 55.2247
326 1 98.2211 94.6076 55.5089
88 1 99.222 94.8074 53.148
327 1 97.7949 94.1706 56.4757
87 1 98.4988 95.4276 53.3831
478 1 100.095 96.0976 53.5473
213 1 103.066 94.478 53.1011
85 1 99.1659 94.2017 53.8872
217 1 103.705 93.9592 55.8852
218 1 102.84 93.6292 56.3634
219 1 102.801 93.341 55.5125
485 1 97.1181 95.1221 54.2562
486 1 96.4552 95.6188 53.669
323 1 99.0606 95.1523 54.3927
410 1 97.1643 96.5707 55.0079
322 1 98.0789 95.3458 54.3238
86 1 98.339 94.6673 53.7101
333 1 99.7645 95.9693 55.0685
361 1 101.351 95.9486 55.1816
356 1 100.57 93.8694 55.2546
200 1 101.479 95.7115 56.1786
355 1 101.5 94.3914 54.9808
380 1 95.7744 98.8184 53.9311
411 1 96.6562 97.2823 54.4523
401 1 96.7978 97.6493 55.4969
190 1 99.2986 98.1806 55.5195
321 1 98.4787 95.7609 55.1176
189 1 99.7274 97.5323 54.7849
198 1 100.787 97.3428 55.6451
197 1 99.8649 97.1272 56.0307
334 1 100.539 96.2823 55.5842
471 1 102.2 97.1284 54.5934
469 1 102.54 97.4859 55.8232
470 1 102.851 97.7077 54.9381
199 1 101.568 96.7823 55.5573
472 1 101.967 96.3124 54.3623
352 1 103.398 95.2253 55.7226
195 1 98.639 97.9037 56.412
196 1 99.2841 97.2047 56.7585
135 1 100.273 98.4723 54.5776
133 1 101.1 99.0545 54.9129
134 1 100.678 98.3985 55.3453
131 1 102.682 98.4915 53.8221
132 1 101.916 98.6228 54.4811
129 1 101.072 98.6754 53.8961
130 1 101.888 98.7424 53.333
351 1 102.958 95.4522 56.5913
136 1 100.076 99.6635 54.6423
328 1 98.5204 93.5345 56.3842
83 1 100.514 93.1026 53.8436
82 1 100.285 94.0479 54.2019
81 1 101.154 94.0489 53.7287
484 1 97.373 94.3672 54.8091
329 1 98.7406 94.0572 57.1964
331 1 99.1229 95.2525 55.7603
330 1 98.9861 94.4351 56.286
359 1 99.6715 93.6075 56.1638
360 1 99.1063 92.9809 55.6396
357 1 100.772 93.8038 56.3401
358 1 100.297 93.2846 56.9982
345 1 101.588 93.7433 57.4688
481 1 97.1518 93.4157 55.5764
483 1 97.0982 93.5089 54.5696
482 1 98.0817 93.5032 55.1725
332 1 99.041 96.1644 55.7839
337 1 100.002 94.3463 57.0797
335 1 100.273 95.3944 55.824
336 1 100.116 94.5538 56.0642
461 1 101.272 96.1615 57.2401
354 1 102.145 95.0639 54.6098
353 1 103.195 94.8917 54.7572
346 1 101.992 94.3317 56.7385
409 1 96.3516 96.1758 54.5425
402 1 97.5676 97.0703 55.9252
408 1 96.9165 95.515 55.2209
403 1 97.7811 96.8875 56.7904
340 1 98.443 95.3477 56.6528
339 1 98.9232 95.1804 57.6466
463 1 99.3751 96.2949 57.3544
464 1 100.021 96.3298 56.563
462 1 100.292 95.6994 57.5238
349 1 102.826 95.9012 55.0084
350 1 102.55 96.2339 55.9793
466 1 101.094 97.8424 56.4115
465 1 100.791 96.9379 56.6128
468 1 101.733 97.8784 55.3389
467 1 101.827 98.539 56.0366
342 1 101.125 92.8774 55.1566
343 1 101.773 93.4858 55.5574
344 1 101.647 93.3285 56.6366
347 1 102.544 94.5748 56.0005
405 1 96.5536 95.9314 56.1183
407 1 97.1796 94.9435 55.9106
406 1 96.1179 95.1472 55.7864
338 1 99.6064 95.3117 56.8004
348 1 102.233 95.3091 55.6071
404 1 97.4411 96.1519 56.4284
341 1 101.849 93.3305 54.5718
178 1 95.4698 83.5132 64.703
248 1 97.0578 86.8004 61.99
247 1 96.6056 86.128 61.5219
243 1 96.5159 85.3532 63.4369
241 1 97.2359 86.2145 62.7461
249 1 96.3248 87.2761 61.5512
251 1 95.2672 87.5039 62.5543
242 1 97.455 85.4564 63.2927
21 1 96.5575 88.2766 61.2529
252 1 95.4861 88.4354 62.8191
176 1 96.9171 84.2381 64.9932
177 1 95.8636 84.2494 65.1009
168 1 97.6925 83.3063 63.2158
180 1 96.3876 82.8856 65.2619
179 1 95.9946 82.8075 64.3486
174 1 95.4058 84.2946 63.9075
246 1 96.1383 86.4482 62.4421
173 1 95.954 84.1696 63.1362
244 1 96.4034 86.3195 63.4732
245 1 95.5933 85.8206 63.0483
250 1 96.206 87.7863 62.4274
259 1 94.599 85.7171 63.7638
22 1 97.3662 88.0438 61.9031
23 1 97.1497 87.6299 62.757
24 1 96.5805 87.4667 63.3647
40 1 96.5208 88.7044 63.1961
256 1 95.1257 86.0317 61.9815
258 1 95.005 86.5999 63.7148
257 1 94.6462 86.5403 62.754
253 1 95.5571 88.2393 61.8421
255 1 95.4557 86.9052 61.4352
254 1 94.9916 87.7326 61.4001
175 1 96.2744 84.7677 64.2737
170 1 98.0631 83.9752 63.9924
169 1 98.5669 83.5642 63.29
167 1 97.9335 83.9759 62.509
165 1 98.2678 84.7561 63.0341
166 1 97.613 85.0089 62.3746
171 1 97.3238 84.4926 64.0334
172 1 96.9035 84.4159 63.1607
35 1 98.137 86.8139 64.1571
33 1 96.8249 86.9172 64.2526
34 1 97.4938 86.5544 63.6673
36 1 98.7998 86.9472 63.4469
260 1 95.5069 85.671 64.0951
25 1 95.6702 87.4922 63.5512
32 1 96.2982 86.8086 65.0025
37 1 98.0544 87.6124 63.4866
39 1 97.0965 88.3351 63.8226
38 1 97.7808 87.8473 64.3512
26 1 96.1881 87.7886 64.2976
27 1 96.9222 87.7675 64.9965
28 1 97.1268 88.7498 65.1326
161 1 96.3672 85.1953 65.243
162 1 96.9446 85.6905 64.5039
163 1 97.7506 85.2868 64.576
164 1 98.3862 85.3665 63.8017
31 1 97.0846 86.9229 65.6966
30 1 97.8844 87.1945 65.1834
29 1 97.8054 88.1468 65.4021
61 1 -1.87735 84.9587 78.7397
76 1 -1.4156 83.0054 77.1955
77 1 -2.18577 83.5348 77.7309
75 1 -0.668345 83.6737 77.4318
80 1 -0.998847 84.639 76.4686
79 1 -1.70264 84.4397 77.1417
62 1 -1.98705 83.8829 79.0324
63 1 -1.27579 83.2155 78.8951
65 1 -0.205093 83.1307 79.1623
69 1 1.17881 84.5944 77.3968
73 1 -0.523485 84.3237 78.3348
78 1 -2.63839 84.1604 77.0808
74 1 -1.41114 83.9832 78.1333
72 1 -0.59897 84.7544 77.4561
70 1 0.305838 84.2726 77.8154
71 1 0.205917 84.6212 76.816
64 1 -0.858407 82.6274 78.543
66 1 0.0914739 83.2217 78.2709
68 1 1.13709 83.6363 77.1863
67 1 0.279403 83.1016 77.1719
226 1 83.0974 -10.251 84.5323
225 1 82.9598 -9.75678 83.597
223 1 83.2179 -8.53943 84.8982
229 1 82.2522 -9.6034 84.7881
233 1 80.4762 -11.0612 86.3927
232 1 80.9731 -10.1882 86.1935
228 1 82.5331 -10.39 85.4593
227 1 82.1048 -10.7183 84.5595
224 1 82.8583 -9.01607 84.1846
222 1 84.0879 -8.59612 85.1811
238 1 81.6956 -9.69733 85.6623
239 1 80.6692 -9.17489 85.6665
230 1 81.2954 -9.88299 84.6801
231 1 81.1191 -10.5535 85.4069
234 1 81.4246 -11.1445 86.4536
235 1 82.0807 -11.2445 87.1622
236 1 82.6665 -10.784 86.4818
221 1 84.2152 -9.33089 84.4554
237 1 81.9064 -10.0874 86.649
240 1 80.3101 -9.95184 85.2066
442 1 -35.5149 -17.95 89.9501
443 1 -36.3336 -18.4195 89.9461
458 1 -34.9218 -16.4784 88.7617
459 1 -34.5739 -15.7836 88.0435
441 1 -34.7755 -18.2199 90.5906
451 1 -35.1737 -16.4653 89.8223
444 1 -35.7584 -18.5292 89.0843
445 1 -34.8799 -18.3286 88.781
452 1 -36.1021 -16.852 89.9388
447 1 -35.438 -17.8045 88.1223
446 1 -35.2787 -17.4841 88.9842
460 1 -34.3748 -16.5106 87.5171
457 1 -35.3991 -16.8089 87.8856
456 1 -36.0228 -16.5255 88.5436
455 1 -36.4783 -17.2939 88.0629
454 1 -36.2683 -17.4924 89.0588
449 1 -33.8946 -17.0162 88.8625
448 1 -34.5264 -17.3803 88.2781
450 1 -34.5 -17.1867 89.6161
453 1 -36.7378 -16.7484 89.2759
58 1 25.6911 50.9753 93.544
57 1 25.8048 50.5461 92.608
45 1 25.5692 47.9545 92.3913
51 1 26.9736 48.978 94.5363
50 1 26.077 48.4458 94.6313
60 1 26.3246 49.4912 92.8778
59 1 26.0403 50.094 93.6226
44 1 25.1896 47.6533 93.2786
42 1 26.6705 46.4733 92.677
49 1 26.3524 48.0545 93.8722
43 1 25.8102 46.9028 93.0248
56 1 25.254 49.6332 92.9701
55 1 24.9428 49.9558 93.8285
54 1 25.1759 49.4763 94.6166
46 1 24.9602 48.5791 92.7286
52 1 26.1937 49.584 94.5834
53 1 25.6603 50.3944 94.6033
47 1 24.8413 48.9771 93.6666
48 1 25.8621 48.8985 93.5882
41 1 27.0165 46.7236 93.4908
ITEM: TIMESTEP
39000
ITEM: NUMBER OF ATOMS
500
ITEM: BOX BOUNDS pp pp pp
-5.1337946386775911e+01 1.1133794638677645e+02
-5.1337946386775911e+01 1.1133794638677645e+02
-5.1337946386775911e+01 1.1133794638677645e+02
ITEM: ATOMS id type x y z
294 1 38.3333 -34.567 -41.7658
295 1 37.4752 -34.9595 -41.5869
292 1 38.2601 -33.5777 -41.6918
283 1 37.4213 -32.3413 -41.5426
300 1 35.7448 -36.1009 -40.7986
299 1 36.3995 -35.5696 -40.191
298 1 36.5744 -34.5234 -40.3776
296 1 36.7183 -35.2239 -41.1125
281 1 36.351 -33.2746 -40.8278
297 1 36.3457 -34.2446 -41.2793
291 1 37.7934 -33.9205 -40.8659
290 1 38.2086 -33.2724 -40.2667
293 1 38.8155 -34.2063 -40.9971
284 1 38.0579 -32.1709 -40.7714
282 1 37.2849 -32.9394 -40.858
288 1 37.2041 -34.4724 -39.5003
289 1 38.1208 -33.9891 -39.5453
287 1 37.2083 -33.4953 -39.8494
286 1 37.8005 -33.0188 -39.2214
285 1 37.9612 -32.2071 -39.8093
108 1 14.9116 92.2388 -28.9475
107 1 15.7001 92.7369 -29.5205
117 1 14.6457 93.2912 -28.9049
115 1 13.1283 92.8962 -28.3101
116 1 14.0225 92.7205 -28.5234
118 1 14.8949 92.9769 -28.0073
109 1 14.7235 91.9497 -27.9993
119 1 15.6579 92.3373 -27.9437
120 1 16.5204 92.6338 -28.2495
114 1 13.4496 93.6397 -27.721
105 1 15.2628 94.0192 -28.4638
104 1 15.4822 94.1005 -27.5064
106 1 15.6311 93.2039 -28.7072
110 1 14.1195 91.705 -27.2441
113 1 14.0311 92.8435 -27.4085
101 1 15.7446 93.0083 -26.4896
112 1 14.7826 93.0992 -26.9297
111 1 14.9811 92.0967 -26.9064
102 1 16.2132 93.7841 -26.6756
103 1 16.015 93.2895 -27.4755
146 1 75.7301 -33.3232 -12.4927
150 1 74.6108 -33.3452 -10.885
141 1 75.7744 -34.0747 -11.5535
147 1 74.8912 -33.5101 -11.8355
144 1 76.4412 -33.2358 -10.7834
149 1 74.3432 -32.3549 -11.2651
157 1 76.203 -32.1761 -11.0599
156 1 75.3468 -31.7212 -10.7007
145 1 76.0791 -33.0911 -11.6484
148 1 75.2153 -32.6272 -11.6213
152 1 75.4994 -33.2788 -9.5886
142 1 75.4735 -33.9131 -10.6307
143 1 76.3103 -34.0042 -10.1475
154 1 74.3769 -32.9122 -9.66282
155 1 74.6947 -32.0368 -9.89154
159 1 76.1267 -32.3536 -9.88599
151 1 75.4959 -32.893 -10.5814
158 1 77.0372 -32.2375 -10.3248
160 1 75.8776 -31.4581 -9.63961
153 1 75.0159 -32.6254 -9.08049
434 1 63.914 -4.20837 -1.01483
435 1 63.2695 -3.48608 -1.28741
305 1 62.0266 -6.49276 0.229464
302 1 64.1198 -6.5233 -0.268844
304 1 62.2372 -6.20936 -0.586129
309 1 61.9785 -5.19566 -0.527761
310 1 61.5421 -5.51919 0.345358
303 1 63.1889 -6.33724 -0.554594
308 1 62.9517 -5.27008 -0.727081
306 1 63.1284 -6.36312 0.494174
307 1 62.6317 -5.48795 0.216873
301 1 64.9555 -5.8996 -0.421254
315 1 63.8016 -5.45062 -0.0193331
316 1 63.3521 -4.5506 0.0815028
433 1 64.5535 -4.86869 -0.590525
432 1 64.3132 -4.57088 0.314824
440 1 64.9136 -3.99404 -0.353197
436 1 63.1161 -2.51815 -0.805964
318 1 62.9812 -3.42081 0.468066
437 1 63.321 -2.40238 0.163324
438 1 63.7649 -3.22798 -0.308587
439 1 64.2221 -3.5238 0.427106
311 1 61.0152 -5.33114 1.15755
312 1 62.1373 -5.33367 1.15321
424 1 61.594 -6.04739 1.84221
313 1 63.056 -5.16718 1.52601
314 1 63.6242 -5.39951 0.850535
426 1 63.351 -6.42123 1.55245
425 1 62.4774 -6.4446 1.3419
317 1 62.6914 -4.42193 0.730562
319 1 63.5718 -3.90699 1.07589
320 1 64.2191 -4.62718 1.30127
430 1 65.167 -4.18721 1.7379
431 1 65.119 -4.31494 0.746995
422 1 62.2422 -5.30297 2.38826
423 1 61.4264 -5.07095 2.254
421 1 63.154 -5.73305 2.72915
428 1 64.7736 -5.87737 2.48607
427 1 63.9358 -5.79438 1.99246
429 1 64.9224 -4.93657 2.3592
11 1 77.1104 15.6013 40.1363
9 1 77.8493 15.9744 41.0994
13 1 77.9285 14.5747 40.8827
12 1 78.0441 15.3866 40.3374
10 1 76.8162 16.1272 40.9314
381 1 102.008 77.5769 40.9578
382 1 102.776 78.1788 40.4473
383 1 102.311 78.9846 40.5829
277 1 104.173 78.6816 40.3552
278 1 104.335 78.0458 40.9075
276 1 104.648 79.0735 41.1206
280 1 103.501 79.4448 40.7486
387 1 102.374 80.7194 41.2143
19 1 75.2025 14.4838 42.3477
1 1 76.5029 14.0051 42.1448
14 1 77.6354 14.4598 41.7458
7 1 78.8547 14.2968 41.5
20 1 74.2587 14.8599 42.1985
17 1 75.958 15.9427 41.5999
18 1 75.3367 15.3252 41.9181
15 1 77.2568 15.2831 42.2116
16 1 76.5959 15.1791 41.4713
8 1 78.4883 15.2364 41.3265
6 1 78.4671 14.8391 42.3099
263 1 100.906 78.5194 42.6077
261 1 102.758 77.6824 41.7885
384 1 102.769 78.9857 41.574
262 1 102.07 78.5226 42.3124
279 1 103.58 78.4355 41.296
272 1 103.38 78.4144 42.3422
273 1 104.028 77.7458 42.0388
274 1 104.611 78.4077 41.9308
275 1 105.481 78.6224 41.6102
389 1 101.096 80.4456 41.7963
390 1 101.607 79.5716 42.0241
385 1 103.536 79.3817 42.0616
386 1 102.963 80.0716 41.7627
400 1 104.362 79.9673 41.6543
388 1 102.107 80.5557 42.1203
399 1 104.117 80.6569 42.2903
2 1 76.2953 14.7398 42.8406
3 1 76.9307 14.8112 43.6723
4 1 77.8948 15.0402 43.8682
5 1 78.0903 15.2245 42.9198
264 1 101.533 79.0032 43.2156
270 1 102.814 78.9892 43.3158
271 1 103.819 78.8235 43.1089
265 1 101.206 79.8329 43.754
266 1 101.146 80.0804 42.8358
268 1 102.275 79.9927 43.8166
391 1 102.332 79.7106 42.6332
392 1 103.03 80.1495 43.0756
267 1 101.747 80.7123 43.2508
395 1 102.697 81.027 43.4732
393 1 103.642 80.5343 43.533
396 1 103.415 81.5625 43.2339
398 1 105.051 80.9071 42.7566
397 1 104.443 81.5034 43.0641
269 1 102.905 79.2932 44.2196
394 1 103.489 81.3399 44.2261
492 1 100.126 95.759 50.863
92 1 100.202 94.2152 52.2608
217 1 102.47 93.5301 51.981
91 1 101.01 94.7263 52.0922
90 1 100.953 95.6058 52.3845
493 1 100.207 95.3292 51.7296
97 1 102.033 95.2775 52.1448
99 1 102.977 95.5935 52.2075
491 1 100.942 96.4194 51.1118
490 1 100.2 96.3857 51.8634
489 1 100.474 97.2408 52.347
100 1 102.363 96.3891 51.9525
201 1 104.091 97.2223 51.4373
202 1 103.558 96.6331 52.0791
488 1 99.9148 97.809 51.56
487 1 98.9503 97.5363 51.7188
368 1 100.964 98.2702 52.1304
205 1 101.844 97.3528 52.241
370 1 102.642 98.4416 52.322
379 1 98.9116 99.399 52.2287
367 1 100.329 99.0253 52.3866
369 1 101.65 99.0702 52.2931
94 1 100.712 92.9849 53.475
218 1 102.491 92.8339 52.5013
93 1 100.34 93.2675 52.667
95 1 101.296 93.9122 53.2533
96 1 102.005 94.2461 52.6105
219 1 102.146 93.4276 53.3484
216 1 103.214 94.2139 52.5808
496 1 98.7045 95.7745 53.4021
495 1 99.538 95.2011 53.3369
494 1 99.645 95.7828 52.4686
89 1 101.2 95.3072 53.2149
98 1 102.597 95.006 52.9461
215 1 103.279 94.5204 53.566
498 1 98.7104 97.1984 53.4106
497 1 99.3627 96.4007 53.1823
485 1 99.8689 97.2975 53.3484
486 1 99.2916 97.2588 52.5283
85 1 101.265 96.1548 53.819
86 1 100.561 96.4391 53.4567
87 1 101.233 96.7888 52.9506
88 1 101.88 95.9686 52.7995
207 1 102.121 97.0493 53.5159
203 1 102.995 96.4638 52.9048
213 1 103.75 95.9211 53.6973
499 1 98.646 98.1624 53.654
500 1 97.7669 98.2364 53.2953
377 1 99.7792 98.5435 53.1898
378 1 99.0333 98.5213 52.5391
373 1 102.203 98.6824 53.1897
204 1 102.742 97.4596 52.5761
206 1 101.615 97.8078 53.0103
371 1 103.257 98.4572 53.2291
415 1 99.8514 100.107 52.5649
414 1 99.8446 99.9371 53.5828
380 1 98.8533 99.271 53.1389
374 1 101.223 98.8821 53.4867
375 1 100.383 99.0755 53.7972
365 1 100.981 99.9472 53.8276
366 1 100.803 99.7118 52.9061
364 1 102.022 99.8283 53.7461
372 1 103.04 99.4634 53.0246
416 1 99.7033 100.925 53.0582
417 1 99.0157 100.962 53.5711
122 1 100.975 100.911 53.5272
121 1 101.034 101.931 53.3304
360 1 101.173 93.2125 54.9374
359 1 101.487 93.9484 54.4598
220 1 102.299 94.2131 53.9093
481 1 99.9903 95.6203 54.3226
482 1 99.0871 95.8206 54.6375
82 1 101.184 95.327 54.512
84 1 102.122 95.6458 53.9023
83 1 102.04 94.9149 54.5374
81 1 101.772 95.8651 55.0218
214 1 103.207 95.3091 54.1827
346 1 103.994 95.5494 55.0854
345 1 103.683 94.6013 54.994
483 1 98.8501 96.7695 54.582
484 1 99.7036 96.4948 54.1106
323 1 100.923 96.45 54.6939
480 1 100.998 97.2168 53.9068
209 1 102.221 96.8216 54.725
211 1 104.003 96.69 54.5305
210 1 103.122 97.0857 54.1589
354 1 102.932 96.1043 55.1733
212 1 104.654 96.2112 53.9795
376 1 99.8998 98.174 54.0084
411 1 99.0552 98.4588 55.1844
479 1 100.947 98.1515 54.1535
322 1 100.49 97.3199 54.8196
321 1 100.437 98.2736 55.0484
208 1 101.886 97.6619 54.2545
477 1 101.975 98.6793 54.2559
420 1 98.6696 99.7493 54.0808
401 1 98.2032 99.269 55.1278
413 1 99.8406 100.034 54.677
412 1 99.52 99.2172 54.8174
478 1 101.154 99.0741 54.5964
363 1 101.639 99.9506 54.7925
476 1 102.92 98.8652 54.1812
362 1 102.454 99.4108 54.9741
474 1 103.64 99.4344 55.0105
475 1 103.107 99.8074 54.1814
419 1 98.4933 100.287 54.8855
418 1 99.17 100.812 54.575
125 1 100.021 101.27 55.0997
123 1 100.357 101.451 54.0304
126 1 100.782 100.802 54.9379
127 1 101.501 101.33 54.7001
128 1 102.461 100.751 54.8958
129 1 103.244 101.1 54.441
124 1 99.6442 101.849 54.5062
358 1 101.157 94.3144 55.2715
326 1 99.9947 95.7843 55.4463
327 1 100.05 95.098 56.223
325 1 100.921 95.6461 55.7332
357 1 101.194 94.7645 56.2427
342 1 102.783 94.9721 56.4692
343 1 102.291 94.6928 55.7192
356 1 101.655 95.5593 56.4433
344 1 103.057 94.983 55.2602
347 1 103.488 95.5757 56.0095
324 1 100.645 96.5485 55.6505
330 1 100.318 96.0906 56.5229
355 1 102.361 95.9191 55.9165
334 1 102.229 97.083 56.0097
335 1 102.901 96.8284 56.5593
353 1 103.529 96.7779 55.6965
352 1 104.526 96.4629 56.1161
406 1 98.7939 97.6886 56.637
409 1 99.8981 97.7472 56.4501
410 1 99.669 97.7497 55.536
332 1 101.121 97.4346 56.2427
198 1 101.396 98.4822 56.2557
333 1 101.637 97.7406 55.6191
361 1 102.238 98.5503 55.3041
199 1 102.364 98.4223 56.4813
473 1 103.304 98.7122 55.7182
351 1 104.597 97.3394 56.0932
402 1 98.254 98.8178 55.9854
182 1 99.0291 99.7662 55.625
181 1 99.6485 99.1703 55.9048
188 1 100.9 99.8682 55.8943
190 1 102.297 99.7126 56.0848
472 1 104.159 98.8164 55.8846
132 1 103.814 100.088 56.1396
183 1 99.7491 100.508 55.8196
184 1 99.6658 101.195 56.51
187 1 100.75 100.8 56.3604
189 1 101.904 100.456 56.0236
130 1 103.58 101.052 55.524
131 1 103.103 100.145 55.539
328 1 100.116 95.0672 57.1466
329 1 100.896 95.7857 57.0723
341 1 102.944 95.1483 57.3957
348 1 103.663 95.7482 56.9726
407 1 98.863 96.7467 57.1946
408 1 99.7289 97.2453 57.3942
331 1 100.751 96.8195 56.8789
339 1 100.775 97.041 57.9227
337 1 101.83 97.1254 57.1277
336 1 102.488 96.3203 56.9422
349 1 103.48 96.702 57.4895
350 1 104.206 97.2065 56.9984
405 1 98.6963 98.0936 57.4339
404 1 99.4013 98.6034 56.7631
196 1 100.02 98.5832 57.5235
338 1 101.171 97.78 57.3133
461 1 102.457 97.915 57.5478
200 1 103.049 97.8852 56.6477
403 1 98.6056 99.2433 56.6461
186 1 100.22 99.8184 56.6738
194 1 100.492 99.7111 57.7068
195 1 100.992 98.8908 57.5909
197 1 100.525 98.719 56.6901
140 1 102.776 99.4739 56.9265
192 1 101.674 99.9065 57.9213
191 1 101.606 99.5247 56.9325
466 1 102.377 99.1338 58.0126
139 1 103.061 100.016 57.7377
471 1 104.18 99.3379 56.7566
467 1 103.262 98.7913 57.5544
469 1 104.33 99.3812 57.9214
185 1 99.4257 100.407 56.8279
193 1 101.073 100.421 57.3057
138 1 102.248 100.606 57.4028
134 1 103.684 100.982 57.4528
133 1 103.157 100.489 56.7169
470 1 104.337 100.159 57.422
340 1 101.586 97.4989 58.379
464 1 102.144 98.3391 58.9878
468 1 104.007 98.4917 58.1388
463 1 103.128 98.4412 58.6417
462 1 103.157 97.5311 58.2091
465 1 101.664 99.0522 58.5807
137 1 102.479 100.722 58.2402
136 1 102.785 100.242 59.0622
135 1 103.449 100.95 58.6151
255 1 97.2831 86.6695 62.0868
253 1 96.4916 87.6151 62.1739
251 1 97.7216 87.8135 61.9349
246 1 98.9553 87.8559 62.0119
22 1 97.3098 89.2965 62.2433
254 1 97.2943 87.4899 62.7476
256 1 96.852 86.3221 62.9174
257 1 96.1809 87.0456 62.9643
260 1 97.6076 86.6894 63.3385
252 1 97.0263 88.3521 62.3584
258 1 96.6807 87.6293 63.513
39 1 96.2132 88.8148 63.4388
250 1 98.1018 88.6139 62.4117
24 1 98.2193 88.826 63.5316
25 1 97.8171 87.8118 63.5879
247 1 99.9048 88.1927 62.2671
248 1 99.1077 88.8785 62.3628
244 1 99.1614 88.3122 63.2523
245 1 98.7599 87.6127 62.8905
243 1 100.188 87.6922 63.3067
242 1 100.552 88.4931 63.3881
40 1 96.0911 88.9557 62.3765
21 1 97.5833 89.9652 62.8579
249 1 98.4679 89.4275 62.7677
23 1 97.3835 88.9597 63.222
177 1 99.2624 83.4272 65.0245
176 1 99.4777 84.464 64.8203
170 1 100.59 84.5651 64.7211
168 1 99.2653 85.5067 63.8646
169 1 99.9504 85.353 64.5599
259 1 97.003 86.796 64.0432
26 1 97.8494 87.4244 64.6462
167 1 98.8251 86.3852 63.7948
166 1 98.8473 86.4132 64.7479
165 1 99.6123 86.9237 64.4754
164 1 100.262 87.3866 64.533
38 1 96.8443 88.5771 64.2343
33 1 98.6958 88.5144 64.5681
241 1 99.8699 88.5338 64.1816
32 1 98.9338 87.6388 63.9771
31 1 98.9462 87.5377 65.0244
35 1 98.4794 89.9733 63.6859
36 1 97.6867 90.0404 64.0695
37 1 97.7114 89.108 64.5374
34 1 99.0782 89.2435 63.94
178 1 99.9206 83.9002 65.5849
174 1 98.3259 85.6033 65.5094
180 1 98.4497 84.8065 66.2809
173 1 99.0759 85.7862 66.156
175 1 99.1252 85.358 65.1592
172 1 100.058 85.5991 66.1207
179 1 99.329 84.7948 65.8512
171 1 100.625 85.1162 65.5749
163 1 100.011 87.2 65.5262
27 1 97.875 88.1504 65.2469
28 1 98.6626 88.293 65.896
161 1 99.9648 88.3702 66.2963
162 1 99.4564 87.5475 66.2373
30 1 99.5048 88.2644 65.3031
29 1 98.8495 89.1945 65.3555
72 1 -1.08703 85.9727 75.8628
67 1 -1.49199 84.0321 77.4306
71 1 -0.908484 85.2886 76.764
68 1 -2.03241 84.8757 77.2391
69 1 -1.75684 85.8798 77.4846
70 1 -0.963031 85.3232 77.6684
73 1 -1.53346 86.8205 76.4024
74 1 -1.62894 86.9839 77.477
65 1 -1.08627 84.4017 78.8054
66 1 -0.632038 84.4247 77.9575
79 1 -2.93665 84.7232 78.3676
78 1 -2.78366 85.5224 77.8752
77 1 -1.9049 85.104 78.3767
76 1 -2.09323 86.0557 78.5724
75 1 -1.22067 86.5029 78.12
62 1 -1.75229 84.5111 80.1622
64 1 -0.246988 84.3059 79.3935
80 1 -3.23177 84.7344 79.3883
63 1 -1.0183 84.8382 79.7633
61 1 -2.12764 84.986 79.4167
230 1 82.5255 -10.9357 86.9594
231 1 82.5776 -11.9906 86.9627
233 1 83.6175 -11.679 87.2051
232 1 83.3101 -11.3281 86.4511
224 1 84.8132 -11.4875 87.2973
239 1 82.561 -9.81533 86.7269
240 1 83.4775 -9.63324 86.4147
229 1 83.3474 -10.5684 87.2141
228 1 84.0982 -10.4789 86.872
225 1 85.5045 -10.5959 87.3827
227 1 84.8553 -9.85565 86.9728
222 1 84.5274 -13.0316 88.4576
221 1 83.9293 -12.8171 87.7403
223 1 84.876 -12.2168 87.9651
235 1 83.0781 -11.3863 88.0396
234 1 84.0283 -11.6628 88.1751
236 1 83.1574 -10.3747 88.1729
238 1 82.651 -9.60214 87.8594
226 1 84.4884 -10.443 87.7111
237 1 83.7074 -9.59934 87.7254
455 1 -36.7574 -19.245 90.2254
451 1 -36.0335 -19.519 89.4975
452 1 -35.29 -19.221 89.9802
450 1 -36.1353 -18.5276 89.7004
449 1 -35.5001 -18.3314 89.0148
448 1 -35.1641 -17.9636 89.9691
444 1 -36.9742 -17.3567 89.3631
445 1 -36.8724 -17.5919 90.1923
443 1 -36.0124 -17.5016 88.9789
442 1 -36.1008 -16.508 89.058
441 1 -36.0536 -15.544 89.5066
454 1 -36.6773 -20.1182 90.6635
457 1 -35.8026 -19.2594 91.2914
453 1 -35.62 -19.9384 90.4762
456 1 -36.1739 -18.5451 90.844
458 1 -35.1682 -18.6218 91.0398
446 1 -36.466 -16.7481 90.4374
447 1 -35.8673 -17.4802 90.4204
460 1 -34.685 -19.3828 91.8177
459 1 -35.2607 -18.5264 91.9689
46 1 26.162 50.215 93.9142
60 1 26.8968 47.9492 94.9524
59 1 26.5164 47.4692 95.6598
56 1 27.9283 48.197 95.4678
49 1 25.4685 49.369 95.6178
48 1 26.1608 48.7703 95.1803
47 1 26.1151 49.5115 94.6771
54 1 27.0282 49.2752 95.1004
55 1 27.9492 49.1052 94.9712
41 1 24.3286 50.5653 95.4452
45 1 26.2612 50.6139 94.8037
42 1 24.3026 51.5731 95.7715
43 1 24.7471 51.4717 94.9696
44 1 25.6297 51.3255 94.5139
58 1 27.2227 47.7038 96.3457
53 1 27.1671 48.9006 96.0623
57 1 27.9895 48.3306 96.4336
50 1 25.9527 50.2126 95.9628
52 1 27.134 49.9474 96.0299
51 1 26.5334 49.7054 96.8074
ITEM: TIMESTEP
40000
ITEM: NUMBER OF ATOMS
500
ITEM: BOX BOUNDS pp pp pp
-5.4389107223917492e+01 1.1438910722391805e+02
-5.4389107223917492e+01 1.1438910722391805e+02
-5.4389107223917492e+01 1.1438910722391805e+02
ITEM: ATOMS id type x y z
294 1 38.4136 -36.2934 -43.1773
295 1 38.5176 -36.0173 -42.2134
292 1 37.9523 -37.3504 -43.3011
283 1 36.8091 -37.1534 -42.3418
300 1 38.8338 -35.7009 -44.0304
299 1 39.3636 -35.2056 -43.4454
298 1 38.7548 -34.5687 -42.9514
296 1 37.6178 -35.6333 -42.6569
281 1 36.4928 -35.6363 -42.7184
297 1 38.038 -35.1557 -43.3987
291 1 37.4174 -36.5324 -43.3581
290 1 37.6484 -36.3619 -44.2138
293 1 38.635 -36.9425 -43.958
284 1 36.477 -37.6052 -43.1749
282 1 36.2985 -36.4335 -42.0816
288 1 36.7787 -35.3051 -44.4195
289 1 37.638 -35.6282 -44.8492
287 1 36.9776 -35.6876 -43.6591
286 1 36.4001 -36.584 -43.4679
285 1 36.8491 -37.2155 -44.0718
108 1 14.0947 94.7861 -29.731
107 1 13.1391 95.2943 -29.879
117 1 14.092 96.3822 -30.4619
115 1 14.7879 95.5319 -30.1579
116 1 13.9101 95.9989 -29.5874
118 1 13.8402 95.4589 -30.5979
109 1 14.881 94.4905 -30.2616
119 1 13.245 94.6031 -30.6691
120 1 12.3455 94.9307 -30.7532
114 1 15.2122 96.2192 -30.7744
105 1 12.9076 95.5025 -31.4813
104 1 13.8077 95.9588 -31.5821
106 1 12.8141 96.0097 -30.5458
110 1 14.1111 94.0051 -30.6486
113 1 15.6113 95.3251 -30.8514
101 1 15.5556 94.8715 -31.9572
112 1 14.7131 95.282 -31.1145
111 1 14.06 94.6191 -31.4891
102 1 15.2727 95.8719 -31.9189
103 1 14.4419 95.355 -32.1963
146 1 77.4068 -35.1566 -10.9252
150 1 78.7306 -34.8736 -11.634
141 1 75.6359 -34.5024 -12.0842
147 1 77.8938 -35.797 -10.5057
144 1 76.7303 -34.5651 -12.2906
149 1 79.568 -35.2636 -11.3015
157 1 78.2122 -34.7292 -13.8655
156 1 78.4421 -34.961 -12.971
145 1 77.6116 -34.7133 -11.757
148 1 78.7603 -35.3535 -10.5841
152 1 78.6079 -36.4043 -11.0505
142 1 76.2417 -34.3876 -11.3513
143 1 76.5278 -35.1482 -11.6944
154 1 79.3926 -35.5453 -12.4636
155 1 78.4245 -35.8868 -12.5744
159 1 77.3218 -35.3817 -12.6158
151 1 78.1885 -35.7201 -11.556
158 1 77.3903 -34.563 -13.1857
160 1 77.575 -35.6594 -13.5691
153 1 79.2752 -36.3011 -11.8127
434 1 64.33 -6.17082 -1.80514
435 1 64.5029 -5.30151 -1.8109
305 1 64.2399 -7.33564 -0.209767
302 1 63.8305 -7.45343 -1.2061
304 1 63.6649 -8.05922 0.119395
309 1 61.5579 -7.37246 0.785655
310 1 62.4619 -6.86518 0.851428
303 1 63.2269 -8.10773 -0.783533
308 1 61.7681 -6.53373 -0.00439319
306 1 63.2887 -7.06853 -0.326756
307 1 62.3625 -7.12747 -0.442435
301 1 63.9538 -7.25572 -2.0621
315 1 63.6642 -5.07678 0.389566
316 1 64.2304 -4.38632 -0.0695192
433 1 65.0262 -6.83711 -1.90809
432 1 65.6088 -6.53292 -1.11713
440 1 63.2618 -5.96694 -0.784418
436 1 64.568 -5.03621 -0.815027
318 1 65.1809 -3.2041 -0.297382
437 1 64.4956 -4.00219 -1.02828
438 1 63.5344 -4.4322 -1.00154
439 1 62.8333 -5.13959 -0.514436
311 1 63.0736 -5.98611 1.06327
312 1 62.7106 -5.86871 0.168507
424 1 63.8541 -6.36552 0.190156
313 1 62.7112 -4.89892 0.644083
314 1 63.5391 -4.96415 1.3316
426 1 65.8494 -6.38476 0.603372
425 1 64.9474 -6.64099 0.300615
317 1 64.3492 -3.51874 -0.16036
319 1 65.2122 -4.11965 0.127435
320 1 64.6347 -4.27354 0.863134
430 1 65.1807 -5.77086 -0.609949
431 1 64.649 -6.55607 -0.719743
422 1 64.736 -6.47442 1.48551
423 1 64.0072 -6.92774 1.03085
421 1 64.2842 -5.65227 1.10793
428 1 65.3745 -5.3833 1.03818
427 1 65.8803 -5.4503 0.157578
429 1 64.7495 -5.36232 0.186782
11 1 77.3672 13.7495 44.7155
9 1 78.5269 14.7065 44.882
13 1 77.9118 13.8833 43.6446
12 1 76.9965 13.9161 43.8084
10 1 78.3203 13.6681 44.7094
381 1 106.879 78.9001 42.3469
382 1 106.176 78.5334 42.9006
383 1 106.798 79.1454 43.3844
277 1 107.148 79.8262 44.4798
278 1 106.164 79.5143 44.6409
276 1 107.978 80.2626 44.0671
280 1 106.967 80.1693 43.3673
387 1 106.084 80.6864 41.4511
19 1 77.0828 15.5151 42.175
1 1 77.8406 16.4966 41.9142
14 1 77.5899 13.3372 42.8981
7 1 78.6134 14.8437 43.698
20 1 76.7112 16.2618 42.4561
17 1 76.3094 14.763 42.6618
18 1 76.1289 15.3748 41.9018
15 1 77.4754 14.104 42.2019
16 1 77.212 14.5716 42.9853
8 1 77.7356 14.7204 44.2007
6 1 77.9927 15.1208 42.7242
263 1 105.85 80.6095 42.9233
261 1 105.717 78.9602 43.8856
384 1 106.198 79.6176 42.8964
262 1 105.283 79.722 43.2676
279 1 106.094 79.9786 43.8852
272 1 107.265 82.9557 43.7777
273 1 108.319 82.8381 43.6943
274 1 108.077 81.8187 43.7902
275 1 107.639 81.0169 43.471
389 1 106.139 82.2191 41.8943
390 1 106.106 82.2262 42.8955
385 1 106.551 80.2723 42.3395
386 1 107.022 80.328 41.4125
400 1 107.156 81.5191 42.5775
388 1 106.259 81.2153 42.1044
399 1 107.846 82.178 42.5931
2 1 78.32 16.3077 42.763
3 1 78.942 16.2997 41.923
4 1 78.7758 15.4218 41.9773
5 1 77.9098 15.0126 41.7181
264 1 105.383 80.058 42.2854
270 1 106.115 82.4426 44.3402
271 1 107.022 81.9916 44.1266
265 1 105.007 81.0114 42.1137
266 1 104.585 80.5057 42.622
268 1 105.347 80.9242 44.126
391 1 105.309 81.9418 42.5404
392 1 105.33 81.9243 43.5668
267 1 104.535 80.5418 43.6791
395 1 104.609 83.0542 42.2766
393 1 104.435 81.6489 43.3635
396 1 105.749 83.0573 42.3929
398 1 106.941 82.707 42.4234
397 1 106.55 83.3738 42.9486
269 1 106.172 81.3792 44.2618
394 1 104.386 82.6431 43.1963
492 1 103.395 99.0416 52.7966
92 1 102.404 98.6823 54.5794
217 1 106.695 97.865 54.7407
91 1 103.49 98.7846 54.5994
90 1 104.154 98.6548 53.8304
493 1 102.526 98.7358 52.622
97 1 103.988 97.365 52.2953
99 1 104.513 98.5326 51.7477
491 1 103.342 99.1489 51.6408
490 1 102.538 99.8043 51.5201
489 1 103.452 100.012 51.0669
100 1 104.91 98.7869 52.5588
201 1 104.779 100.3 51.0946
202 1 104.992 99.303 51.2948
488 1 103.465 100.577 51.8355
487 1 103.37 101.416 52.2114
368 1 104.1 101.484 53.9922
205 1 104.285 100.657 53.4359
370 1 104.675 102.763 53.4695
379 1 102.323 101.93 54.0609
367 1 104.481 102.197 54.4464
369 1 104.127 101.944 53.0927
94 1 103.565 97.78 54.8901
218 1 105.755 97.9221 55.1359
93 1 103.038 98.154 54.0157
95 1 104.203 97.4666 53.9496
96 1 103.926 97.9007 53.0846
219 1 105.968 97.9358 54.0478
216 1 107.388 98.1295 55.3
496 1 102.967 100.264 53.0241
495 1 103.042 99.7953 53.8327
494 1 102.268 99.113 53.5249
89 1 104.914 98.3844 53.658
98 1 104.708 97.5157 51.5955
215 1 107.269 99.1405 55.0517
498 1 101.71 100.236 52.5415
497 1 102.478 101.112 52.5649
485 1 102.989 100.994 54.1172
486 1 103.4 101.261 53.1649
85 1 105.076 98.8846 54.8544
86 1 104.106 99.3091 55.1003
87 1 104.089 99.6925 54.2706
88 1 104.924 99.3928 53.7453
207 1 105.318 100.471 53.6258
203 1 104.447 99.6915 52.0381
213 1 106.582 98.9171 54.2072
499 1 101.445 101.099 52.748
500 1 101.368 102.035 53.1201
377 1 103.957 101.474 55.0304
378 1 103.274 102.006 54.5998
373 1 105.205 101.751 53.5633
204 1 104.282 99.8799 53.0917
206 1 104.978 101.104 52.7442
371 1 105.067 103.141 54.3044
415 1 100.781 102.464 55.0951
414 1 101.372 101.606 54.6858
380 1 102.008 102.386 54.9535
374 1 105.282 101.129 54.4423
375 1 105.733 100.992 55.2764
365 1 104.064 102.33 56.115
366 1 104.151 102.559 55.2664
364 1 103.356 101.671 55.7836
372 1 105.686 102.565 53.963
416 1 100.202 101.864 55.5249
417 1 99.4335 102.3 55.7282
122 1 103.52 102.99 54.3178
121 1 102.737 102.876 53.6339
360 1 105.123 95.9296 54.8755
359 1 104.604 95.5289 55.4976
220 1 105.256 97.2201 54.3883
481 1 100.894 99.1793 55.9928
482 1 101.546 99.5682 55.5248
82 1 104.404 96.7514 55.0023
84 1 104.457 98.1713 54.7628
83 1 104.714 97.6452 55.5276
81 1 103.921 96.0769 54.3535
214 1 106.43 99.4706 54.8624
346 1 106.411 98.3843 56.5035
345 1 106.157 97.4308 56.0343
483 1 101.548 100.501 55.0185
484 1 102.304 100.344 54.2499
323 1 102.784 98.671 55.8084
480 1 103.813 100.835 56.0843
209 1 106.395 100.6 54.0311
211 1 107.23 100.593 54.8078
210 1 106.483 101.247 54.6706
354 1 104.781 97.8668 56.5336
212 1 107.151 99.8002 54.1907
376 1 104.881 101.201 55.3454
411 1 100.529 101.094 56.3167
479 1 103.749 100.437 55.1107
322 1 102.64 99.6925 55.749
321 1 102.604 100.673 55.5679
208 1 105.612 100.111 54.4484
477 1 104.774 100.168 55.341
420 1 100.902 101.865 57.7784
401 1 100.599 101.122 58.7294
413 1 101.394 101.44 55.715
412 1 101.35 101.727 56.6
478 1 104.367 100.682 54.5009
363 1 103.606 101.716 56.8723
476 1 105.647 100.029 55.666
362 1 104.315 101.272 57.1784
474 1 106.529 100.453 57.2959
475 1 106.086 100.584 56.2544
419 1 100.173 102.355 57.4787
418 1 100.028 102.021 56.5374
125 1 103.583 103.4 56.3613
123 1 102.962 102.98 54.9669
126 1 103.208 102.93 57.0809
127 1 103.401 102.355 57.775
128 1 104.324 102.599 57.3795
129 1 104.928 102.148 56.7413
124 1 102.827 103.796 55.6252
358 1 104.561 96.4356 56.0621
326 1 101.861 99.1002 56.6114
327 1 101.558 99.151 57.5565
325 1 101.728 98.187 56.4484
357 1 103.845 96.9749 56.1733
342 1 105.522 96.7231 55.5172
343 1 105.934 96.0841 56.2266
356 1 103.295 97.7226 56.8455
344 1 105.46 96.9636 56.4959
347 1 106.531 98.5772 55.5817
324 1 102.501 97.9084 56.0146
330 1 102.803 98.7155 57.0868
355 1 103.855 98.3746 56.2731
334 1 103.479 99.4676 57.4812
335 1 104.137 98.7796 57.3572
353 1 105.436 98.3158 55.9474
352 1 104.994 99.2166 55.7525
406 1 101.71 101.222 58.2411
409 1 101.369 100.493 56.3016
410 1 100.573 100.232 55.9291
332 1 103.114 100.383 56.8658
198 1 103.637 100.706 57.7115
333 1 104.109 100.074 56.8841
361 1 105.138 100.991 56.8242
199 1 103.821 101.357 58.267
473 1 107.296 100.025 56.965
351 1 104.965 99.2491 56.6423
402 1 100.281 102.074 59.0548
182 1 102.542 101.332 56.4409
181 1 102.059 101.788 57.2422
188 1 103.273 102.171 58.818
190 1 103.018 101.022 59.488
472 1 107.652 100.587 57.8841
132 1 106.029 102.129 55.3769
183 1 102.479 102.213 56.0751
184 1 101.93 102.8 56.6699
187 1 102.914 103.129 58.4485
189 1 103.863 101.509 59.3676
130 1 105.187 102.518 55.7793
131 1 106.181 102.85 55.9024
328 1 102.469 99.6186 57.5477
329 1 102.336 98.718 58.071
341 1 106.222 96.3335 54.8537
348 1 106.558 99.5586 55.9655
407 1 101.19 100.897 57.3977
408 1 102.05 100.658 57.0052
331 1 103.213 99.4766 56.5138
339 1 103.954 98.8843 59.297
337 1 103.407 97.8741 58.0285
336 1 104.173 97.9543 57.437
349 1 106.052 99.4378 56.8302
350 1 105.406 98.8923 57.3598
405 1 102.512 101.448 58.693
404 1 102.194 102.291 58.2885
196 1 102.552 100.449 58.238
338 1 103.974 98.7572 58.2782
461 1 104.829 99.3517 59.0912
200 1 104.814 101.751 58.1568
403 1 101.242 102.056 58.7787
186 1 101.953 103.318 58.6245
194 1 103.106 99.5716 59.7389
195 1 102.78 99.6479 58.7986
197 1 102.909 101.181 57.5507
140 1 105.909 101.345 59.4104
192 1 104.372 100.602 58.9165
191 1 103.465 100.434 58.8997
466 1 105.427 100.345 58.801
139 1 106.212 101.759 58.6489
471 1 106.757 101.032 58.0001
467 1 105.566 99.9541 57.9349
469 1 104.875 100.612 57.8316
185 1 101.967 102.972 57.6265
193 1 104.136 100.112 59.6759
138 1 106.65 102.521 59.027
134 1 106.218 101.674 57.3168
133 1 105.838 101.677 56.353
470 1 105.791 101.003 57.9449
340 1 103.156 98.4223 58.9896
464 1 105.598 99.8418 59.8146
468 1 104.493 99.7302 58.0023
463 1 105.67 98.8809 59.6089
462 1 104.906 99.0153 60.1304
465 1 106.32 99.9696 59.2477
137 1 106.737 102.879 58.0123
136 1 105.759 102.592 58.1161
135 1 106.085 102.719 57.0716
255 1 102.839 88.776 64.4376
253 1 102.007 88.3513 62.8529
251 1 100.342 88.5142 62.4532
246 1 100.334 90.8253 63.0426
22 1 99.2376 89.0853 64.3748
254 1 102.669 88.4543 63.4819
256 1 102.822 87.8699 64.7578
257 1 101.998 88.14 64.3046
260 1 102.319 89.7368 64.5752
252 1 101.303 88.2321 62.2117
258 1 101.217 88.6007 64.1503
39 1 100.172 88.5939 64.755
250 1 100.729 88.051 63.2289
24 1 100.939 89.8865 64.7652
25 1 100.444 89.2384 65.4294
247 1 100.393 89.7128 62.706
248 1 100.672 89.1479 63.5085
244 1 101.626 90.4704 64.1757
245 1 100.998 90.3536 63.4554
243 1 102.578 90.8185 63.9391
242 1 102.661 91.8554 63.9467
40 1 100.856 87.8234 64.6478
21 1 99.3594 89.8401 63.7487
249 1 99.9948 88.6407 63.615
23 1 100.164 89.519 64.3418
177 1 100.851 87.3865 65.612
176 1 101.002 87.7341 66.6133
170 1 102.025 88.191 65.4269
168 1 101.463 88.6836 66.1144
169 1 101.204 88.5261 65.3022
259 1 101.849 89.2726 63.839
26 1 100.051 89.4109 66.2796
167 1 101.658 89.4836 65.6755
166 1 101.096 89.7918 66.2361
165 1 101.778 89.4017 66.7082
164 1 102.544 89.794 66.3693
38 1 99.4792 88.6897 65.5285
33 1 101.173 91.8216 64.4683
241 1 101.976 92.1073 63.2343
32 1 101.194 91.1959 65.1484
31 1 101.863 90.763 65.6852
35 1 100.081 91.204 65.0106
36 1 99.796 90.3658 64.73
37 1 99.2249 89.7404 65.2331
34 1 100.469 91.0517 64.2231
178 1 101.903 87.2121 65.7781
174 1 102.07 88.1911 67.6296
180 1 101.985 85.7959 65.1758
173 1 102.823 88.1154 66.9803
175 1 101.851 87.3833 67.0366
172 1 102.902 87.9194 66.0521
179 1 102.282 86.7266 65.2455
171 1 102.52 88.7871 66.0688
163 1 102.693 90.7747 66.3932
27 1 98.9992 89.5537 66.2285
28 1 99.2957 90.411 66.6158
161 1 100.967 90.5726 67.1129
162 1 101.892 90.5504 66.7986
30 1 100.879 90.7009 66.0885
29 1 99.9226 90.3626 65.9372
72 1 -4.48526 87.6853 77.9634
67 1 -2.09386 85.9513 78.807
71 1 -4.01388 87.5345 77.1395
68 1 -2.21769 86.7741 78.2484
69 1 -3.13286 86.6447 78.2279
70 1 -3.206 87.4849 77.7275
73 1 -4.48239 88.1292 78.8142
74 1 -4.09804 87.2283 78.7973
65 1 -3.16763 86.7304 80.0311
66 1 -2.70571 86.0792 79.6887
79 1 -3.23466 87.7315 80.0969
78 1 -2.42114 88.1724 79.5576
77 1 -2.15346 88.0289 78.5585
76 1 -2.89836 88.5553 78.6926
75 1 -3.3699 87.8195 78.9206
62 1 -1.65081 87.0116 79.651
64 1 -2.29531 86.7363 80.6053
80 1 -2.54731 87.2266 79.2213
63 1 -1.30823 86.7117 80.5622
61 1 -1.3585 87.0158 78.7123
230 1 85.7595 -12.7161 88.0708
231 1 85.5967 -11.7152 88.2859
233 1 84.9943 -13.113 89.2912
232 1 84.8102 -12.394 88.6642
224 1 85.9334 -13.0784 90.9312
239 1 85.9541 -11.5304 91.4576
240 1 86.7589 -11.8467 92.0462
229 1 86.6412 -12.9591 88.4941
228 1 86.5666 -11.9427 88.5326
225 1 86.8175 -13.0725 90.6204
227 1 87.0616 -11.9135 89.413
222 1 86.2345 -12.7065 92.1376
221 1 86.0778 -13.2648 93.0311
223 1 85.5119 -13.4089 91.768
235 1 84.7893 -12.0076 89.6081
234 1 85.6783 -12.461 89.2914
236 1 85.6448 -11.3945 89.4964
238 1 86.8054 -11.996 90.8929
226 1 86.7192 -12.7528 89.6193
237 1 86.0339 -11.9999 90.2022
455 1 -37.436 -18.3919 91.7159
451 1 -35.9849 -19.2191 92.6122
452 1 -36.6738 -19.0768 93.352
450 1 -36.177 -18.8455 91.6957
449 1 -36.2308 -19.7263 91.3083
448 1 -36.5823 -20.5207 91.5841
444 1 -36.8869 -19.8693 92.2896
445 1 -37.6144 -20.4522 92.0488
443 1 -37.5356 -19.9348 93.1367
442 1 -37.8913 -20.0291 94.1334
441 1 -37.3884 -20.7994 93.8943
454 1 -37.5249 -17.8537 92.6314
457 1 -37.4085 -20.2292 90.7956
453 1 -37.1872 -18.8046 92.6578
456 1 -37.4614 -19.3763 91.4426
458 1 -38.3123 -20.1454 91.2771
446 1 -36.9157 -20.9155 92.5364
447 1 -36.9215 -21.3527 91.6857
460 1 -39.048 -20.8255 91.4599
459 1 -38.1068 -21.1235 91.1151
46 1 27.8257 50.9304 97.1033
60 1 27.0427 50.0985 97.219
59 1 26.3575 50.5316 97.0043
56 1 24.8562 49.549 97.8528
49 1 27.8208 49.6354 97.8908
48 1 26.9485 50.2517 98.2235
47 1 27.1293 50.9884 97.7543
54 1 25.4788 48.8071 98.6359
55 1 25.8266 49.2261 97.8329
41 1 28.6672 52.8134 97.714
45 1 28.6465 50.909 97.6565
42 1 28.1649 52.2594 97.0018
43 1 27.9339 51.9915 97.8955
44 1 28.4678 51.3813 98.4553
58 1 25.858 50.4518 97.7816
53 1 25.2861 49.3845 99.3767
57 1 25.4353 50.176 98.5429
50 1 27.4504 49.3831 98.842
52 1 26.0774 48.835 99.4503
51 1 26.3953 49.407 98.7128
ITEM: TIMESTEP
41000
ITEM: NUMBER OF ATOMS
500
ITEM: BOX BOUNDS pp pp pp
-5.6096603123215928e+01 1.1609660312321648e+02
-5.6096603123215928e+01 1.1609660312321648e+02
-5.6096603123215928e+01 1.1609660312321648e+02
ITEM: ATOMS id type x y z
289 1 37.0223 -37.7816 -44.8589
284 1 38.7406 -35.8579 -45.1334
286 1 38.6824 -36.7388 -45.656
285 1 38.0339 -36.5379 -44.9008
294 1 37.335 -38.0662 -43.4181
292 1 38.4988 -37.0689 -44.1469
291 1 38.8467 -37.4708 -44.9285
290 1 37.9135 -37.6185 -45.1308
293 1 37.5702 -37.2814 -44.0662
288 1 37.028 -36.8365 -45.2317
287 1 37.6706 -36.4383 -45.8518
297 1 37.55 -38.8459 -44.6706
300 1 36.173 -40.0641 -44.8175
299 1 36.3806 -39.0315 -44.5611
283 1 37.9854 -35.4601 -45.4589
282 1 37.4729 -34.6596 -45.8444
281 1 37.0461 -35.5934 -45.8361
296 1 38.4107 -38.5541 -44.8709
295 1 38.1868 -38.1338 -43.996
298 1 36.7935 -38.862 -45.3629
103 1 12.259 97.5518 -31.829
101 1 12.4671 96.3786 -31.6487
102 1 12.5285 97.1217 -31.0243
119 1 13.8516 96.463 -32.0443
110 1 12.9836 95.1243 -32.7119
111 1 12.7346 96.0818 -32.6396
120 1 13.9226 97.2881 -31.726
105 1 13.2124 97.844 -32.955
106 1 14.1612 97.6715 -32.6139
118 1 13.7734 96.6723 -33.0003
104 1 13.0042 97.1108 -32.2624
113 1 13.6035 96.5533 -34.5075
112 1 13.0836 96.116 -33.6512
114 1 14.1336 95.8266 -33.9093
109 1 13.8552 95.4788 -32.8241
108 1 14.6721 96.0327 -32.758
107 1 14.7169 96.9291 -32.4278
116 1 14.0708 97.5228 -34.0185
115 1 14.6091 96.7113 -33.6381
117 1 13.2123 97.1372 -33.7221
157 1 78.3025 -35.8495 -11.6229
159 1 79.4054 -37.0763 -11.7578
160 1 78.4984 -37.0465 -11.2214
156 1 78.7843 -35.6651 -12.5092
155 1 78.7764 -36.6584 -12.5138
154 1 78.3326 -36.7233 -13.2991
144 1 79.7388 -36.0815 -12.3569
158 1 79.0868 -36.2047 -11.3003
152 1 78.8499 -37.6195 -13.0832
153 1 77.8814 -37.3663 -12.7171
146 1 79.9007 -37.1619 -12.7144
145 1 80.4625 -36.3561 -12.9584
143 1 80.2817 -36.0617 -11.5035
150 1 79.4319 -36.5229 -13.4583
151 1 79.5216 -37.505 -13.7509
149 1 79.6745 -36.2636 -14.2738
141 1 81.4224 -35.7566 -12.624
142 1 80.7693 -35.3214 -12.0966
147 1 80.483 -37.7424 -13.3377
148 1 80.3878 -36.89 -13.8615
302 1 63.9359 -7.59935 -1.27894
301 1 63.172 -6.96517 -1.65069
433 1 64.2083 -6.40863 -1.42299
434 1 64.4117 -7.13616 -2.10643
435 1 64.0787 -6.35063 -2.49043
432 1 65.1304 -6.98557 -1.14409
438 1 62.44 -6.07552 -1.80662
437 1 63.3677 -5.60898 -1.93775
304 1 63.8994 -7.68538 0.13013
303 1 64.2377 -6.97072 -0.419042
306 1 62.6314 -7.15712 0.40834
307 1 62.8847 -8.15939 -0.0815285
305 1 63.1409 -7.10021 -0.460263
425 1 65.6981 -6.18625 0.153697
308 1 63.2888 -8.5889 0.782508
440 1 63.8992 -5.84198 -0.292952
312 1 63.6945 -6.59159 0.557889
424 1 65.4601 -6.89717 0.836158
431 1 65.7043 -6.11688 -1.01371
429 1 64.7786 -5.44241 0.117145
430 1 64.8454 -6.08555 -0.63294
427 1 65.8171 -5.02316 -0.869104
315 1 63.5674 -4.79052 0.0890931
439 1 63.0735 -6.11006 -1.0109
316 1 63.2531 -4.91789 -0.914429
436 1 64.1397 -5.26005 -2.42862
319 1 64.262 -5.38616 -1.32885
317 1 63.6876 -4.10328 -0.958989
318 1 64.3376 -4.39854 -1.55691
309 1 63.8685 -8.23032 1.66139
310 1 64.4605 -7.69764 1.04182
423 1 64.7218 -6.32937 0.545285
311 1 63.4888 -7.3306 1.13959
422 1 65.1664 -5.95825 1.24024
421 1 65.2815 -5.06467 1.32425
426 1 66.3424 -5.36389 -0.0209934
428 1 65.1983 -4.69266 -0.27617
313 1 63.7739 -5.8876 1.26095
314 1 63.9977 -5.05025 0.87322
320 1 65.0261 -5.58598 -1.92636
15 1 77.0735 15.4914 44.7664
18 1 77.0746 14.4083 43.0715
19 1 77.9298 14.8493 42.6989
4 1 78.2531 13.7797 43.6422
5 1 77.8385 14.1179 44.4984
20 1 78.0774 14.3417 41.9973
1 1 79.0058 14.51 43.0338
3 1 78.5074 13.6277 42.7866
381 1 109.839 83.3174 44.0561
264 1 107.684 80.9459 43.4547
266 1 106.671 80.3645 42.1244
385 1 108.793 80.8584 44.4464
386 1 109.17 80.1317 43.8781
265 1 106.873 80.7615 42.9167
391 1 108.31 81.3339 42.3143
387 1 109.981 80.0139 43.4988
400 1 108.664 82.2749 44.5749
388 1 109.874 80.7794 42.9165
395 1 107.953 83.3865 42.5155
396 1 108.74 82.9253 42.6818
389 1 109.307 81.3131 42.7164
398 1 109.12 82.2567 43.4807
399 1 108.445 81.6133 43.8388
12 1 75.7524 15.414 44.6242
14 1 77.0025 16.4379 45.1064
13 1 76.018 16.0637 45.347
17 1 76.5691 14.8189 43.7932
16 1 76.6383 14.5872 44.8119
7 1 78.1282 15.1074 44.7227
6 1 78.7639 14.5327 44.2162
2 1 79.4359 13.6538 43.4736
261 1 107.484 80.1615 44.036
382 1 109.746 82.3635 44.3383
383 1 109.636 81.5048 44.8121
267 1 107.025 81.3442 42.0478
263 1 107.689 81.0487 44.4788
262 1 107.581 80.3463 45.0347
280 1 106.821 81.8624 45.1818
384 1 109.49 81.2902 43.8695
279 1 107.638 81.4174 45.396
393 1 107.472 82.964 41.7064
392 1 107.955 82.2431 42.2226
274 1 107.623 83.0961 46.0309
275 1 108.22 83.7102 45.5355
394 1 108.271 83.4517 41.6395
272 1 107.554 82.0601 44.3536
390 1 109.235 81.2632 41.7015
397 1 108.434 83.0745 43.6754
273 1 107.739 82.5865 45.2745
11 1 76.3326 16.1426 44.308
10 1 77.1541 16.6239 44.0093
8 1 78.1333 15.2963 43.7637
9 1 77.2831 15.7096 43.5563
277 1 109.304 82.5578 45.4057
278 1 108.597 81.7801 45.7062
276 1 108.938 83.462 44.9601
268 1 106.051 81.5284 42.3393
271 1 107.19 82.8839 43.8564
269 1 106.384 82.1499 43.0865
270 1 107.166 82.3851 43.0138
489 1 105.487 103.012 53.7207
201 1 104.237 101.28 52.4043
97 1 105.198 101.191 54.1031
99 1 107.011 101.281 53.7631
98 1 106.033 101.01 53.9828
490 1 104.488 103.26 53.6649
491 1 104.356 102.979 52.7427
203 1 104.548 101.926 53.3776
202 1 104.958 101.916 52.6357
488 1 106.341 103.759 54.0072
487 1 105.649 103.952 54.7895
493 1 102.926 102.029 52.2291
90 1 104.575 99.1187 54.7534
96 1 105.278 100.998 53.1159
100 1 106.722 101.763 52.8957
89 1 105.297 99.5319 54.607
498 1 103.697 102.519 53.493
496 1 103.626 101.64 54.1346
495 1 102.573 101.492 54.0185
494 1 102.858 101.98 53.3482
492 1 103.633 102.352 52.4069
204 1 104.805 102.239 54.3271
88 1 105.233 100.468 54.797
499 1 103.564 103.556 53.261
497 1 103.791 102.57 54.3398
205 1 105.412 102.156 55.1483
486 1 104.803 103.759 55.0899
207 1 105.862 102.059 53.8721
206 1 105.922 102.831 54.7826
500 1 102.814 104.013 53.9049
121 1 105.007 104.385 55.9383
369 1 106.813 104.651 55.0729
370 1 107.782 104.149 54.9506
373 1 108.384 103.574 55.7303
81 1 106.669 99.2214 55.074
360 1 106.041 97.8108 56.2006
95 1 105.152 100.028 53.2318
82 1 106.078 98.8798 54.5205
220 1 106.961 100.201 56.6226
341 1 108.024 98.689 54.2936
92 1 104.349 98.9152 53.679
93 1 105.366 99.0973 53.6228
91 1 104.494 99.8545 54.0205
94 1 106.081 99.8682 53.6615
84 1 105.494 98.7489 56.192
218 1 106.407 100.334 54.883
85 1 105.033 99.5111 55.9632
217 1 107.276 100.3 55.1966
219 1 106.382 100.337 55.9444
216 1 107.929 100.766 55.4617
86 1 105.368 100.442 56.3268
87 1 105.712 100.911 55.5018
208 1 106.252 101.623 54.7743
215 1 108.792 100.857 54.8355
213 1 107.508 101.503 54.7824
214 1 108.503 101.751 54.9399
212 1 108.136 101.131 54.0705
414 1 101.827 102.113 56.6674
483 1 103.319 102.631 55.9693
485 1 104.298 102.973 55.2053
484 1 103.369 103.547 55.2765
368 1 106.665 104.057 55.7495
377 1 105.094 102.672 56.1942
479 1 106.073 101.223 56.4827
478 1 107.001 101.287 55.9234
374 1 107.609 103.39 56.3845
375 1 106.621 103.099 56.3196
209 1 106.92 102.126 55.2962
211 1 107.693 102.038 53.8828
210 1 107.048 102.546 54.4336
415 1 101.406 102.926 56.3856
379 1 103.948 104.06 56.004
380 1 103.004 104.292 56.1159
123 1 105.119 103.958 57.0658
367 1 107.138 104.342 56.4829
378 1 104.557 103.36 56.1256
366 1 106.095 104.268 56.9496
122 1 104.828 104.815 56.8288
372 1 107.428 103.062 55.2265
371 1 107.883 103.395 54.3016
359 1 105.244 97.4777 55.8313
343 1 107.75 99.064 55.3898
357 1 104.504 97.2255 56.5622
358 1 105.234 96.7954 56.5673
342 1 107.725 99.6337 54.542
344 1 107.373 98.2552 55.741
345 1 106.943 99.323 56.0662
325 1 103.22 99.35 56.6652
323 1 104.507 100.428 55.5883
324 1 103.846 99.7964 55.8705
355 1 103.482 98.4135 56.3843
83 1 105.847 98.6176 55.3756
354 1 104.118 98.1421 57.089
353 1 104.508 98.9673 56.6902
346 1 107.8 99.4316 56.4382
347 1 108.649 99.4551 56.6467
481 1 102.635 103.099 54.3635
482 1 102.93 102.552 55.0433
410 1 101.158 101.476 55.7917
322 1 104.648 101.347 54.982
326 1 103.022 100.312 56.27
331 1 104.121 101.332 56.1869
477 1 107.726 102.051 56.0047
476 1 107.724 101.448 56.8028
352 1 105.201 99.5654 57.0002
351 1 106.094 99.1572 56.9595
348 1 107.932 99.3455 57.483
411 1 100.882 101.4 56.7025
413 1 102.18 101.701 57.4523
412 1 101.663 101.133 57.3727
409 1 102.054 101.164 56.2505
321 1 104.045 102.006 55.2695
182 1 103.581 102.637 57.3578
364 1 105.331 103.171 57.829
480 1 106.119 101.998 56.0855
376 1 105.762 103.334 56.1894
133 1 108.237 102.82 57.0072
475 1 108.119 100.538 56.5742
416 1 100.955 103.251 57.2469
417 1 100.504 102.419 57.0153
418 1 100.981 101.988 57.7305
183 1 103.561 103.401 56.652
184 1 103.94 104.225 57.0623
365 1 106.056 103.326 57.1541
130 1 106.842 104.027 57.8485
132 1 107.184 103.119 57.353
131 1 107.782 103.835 57.4861
124 1 104.754 104.271 57.8453
125 1 105.632 104.448 58.0103
330 1 103.771 100.769 56.8616
329 1 104.066 99.8656 57.2614
356 1 103.738 97.4594 56.0489
335 1 104.98 100.458 57.6818
337 1 104.655 98.8462 57.7731
336 1 105.43 99.511 58.1055
350 1 106.796 99.3114 57.6084
327 1 102.966 100.359 57.2857
328 1 103.87 100.519 57.9449
334 1 105.682 101.034 58.015
333 1 105.298 101.448 57.2013
468 1 106.928 100.346 59.0431
467 1 107.592 101.082 59.1984
473 1 107.658 101.575 58.0892
349 1 107.364 99.8108 58.2618
407 1 103.249 101.53 57.1852
332 1 105.041 101.525 56.2854
408 1 102.942 101.506 56.1532
197 1 104.41 101.641 57.6197
363 1 104.865 102.487 57.2898
362 1 105.942 102.411 57.6168
198 1 105.184 101.936 58.2173
361 1 106.757 102.203 56.9319
469 1 106.439 100.426 58.2499
470 1 106.004 100.183 57.3092
474 1 107.851 100.796 57.5678
471 1 106.713 100.905 57.2203
134 1 108.01 102.671 58.0559
472 1 106.59 101.674 57.8194
419 1 101.745 102.574 57.7417
420 1 102.386 103.058 56.9628
181 1 104.164 102.432 56.5443
185 1 103.882 104.914 57.7336
126 1 105.111 104.744 58.8482
127 1 105.13 103.795 58.7451
128 1 105.88 104.1 59.2918
129 1 106.166 103.637 58.4772
136 1 107.573 103.452 58.6281
137 1 107.651 102.548 59.1394
135 1 107.064 102.65 58.1625
339 1 103.761 99.4283 58.6404
338 1 103.707 98.6666 57.9689
340 1 102.726 99.6975 58.2211
195 1 104.377 100.215 58.8489
461 1 109.679 100.68 55.8922
465 1 108.954 100.884 58.2738
401 1 102.979 102.966 58.0503
406 1 103.529 101.518 58.1945
190 1 103.809 102.182 59.9071
405 1 103.826 102.441 58.3858
196 1 104.441 101.293 58.5716
199 1 105.556 101.867 59.0525
189 1 103.102 102.548 59.3664
192 1 105.412 101.59 60.2322
191 1 104.593 101.735 59.6663
140 1 107.913 100.787 60.2014
466 1 108.434 100.629 59.104
402 1 102.863 103.814 57.5017
403 1 103.669 103.943 58.0024
187 1 104.08 104.209 58.9462
404 1 104.269 103.111 57.9749
188 1 103.487 103.488 58.9946
200 1 105.954 102.563 58.5778
139 1 107.084 101.438 60.026
138 1 106.645 102.203 59.2802
186 1 104.038 104.965 58.707
463 1 109.89 101.107 56.814
194 1 104.89 100.688 59.5334
193 1 105.904 101.01 59.6817
464 1 108.981 100.941 57.3168
462 1 108.949 101.231 56.1483
252 1 104.448 89.4288 64.439
249 1 103.549 89.8426 63.8263
251 1 104.361 88.5071 64.6243
250 1 103.681 88.9503 64.1325
253 1 104.946 89.7021 63.7333
254 1 105.459 90.4319 63.8662
21 1 102.548 88.8784 63.4672
247 1 102.634 89.9226 63.2977
248 1 103.401 90.503 63.1148
245 1 101.94 90.4536 64.184
246 1 101.793 90.2921 63.2249
241 1 102.994 92.2444 64.3108
39 1 101.956 89.2356 66.2505
258 1 103.38 90.1868 64.8637
40 1 102.806 89.3609 67.031
255 1 105.291 89.8691 64.7408
256 1 104.834 90.1496 65.5295
257 1 104.052 89.6505 65.4352
22 1 101.873 89.1446 64.227
23 1 102.066 89.5318 65.0799
36 1 100.829 89.6495 64.6284
24 1 101.485 89.9178 65.6144
244 1 102.859 90.8038 64.237
260 1 104.521 91.4515 65.0402
259 1 104.027 90.8568 64.4944
35 1 100.19 89.2045 65.1305
33 1 100.194 90.4328 65.1288
32 1 100.806 90.7542 64.3214
34 1 100.534 89.8039 65.7781
243 1 102.546 91.1376 63.39
242 1 103.426 91.5315 63.6533
180 1 103.597 87.4606 64.7623
177 1 103.702 89.3279 66.4346
178 1 103.115 88.714 65.9081
179 1 103.256 88.3948 64.9308
38 1 101.711 88.6348 65.3558
168 1 102.348 90.3751 66.656
169 1 103.041 90.1332 65.9646
170 1 102.187 90.6054 65.5035
172 1 103.868 90.8328 65.6143
171 1 102.959 90.9933 65.3399
26 1 101.584 90.7435 67.3808
37 1 101.075 88.6675 64.687
27 1 101.328 91.716 67.2213
29 1 100.445 92.1491 66.5361
25 1 101.377 90.5041 66.3984
167 1 103.208 90.3641 67.0612
166 1 103.51 91.1797 66.7391
164 1 102.459 92.272 66.568
30 1 100.623 91.2337 66.1473
31 1 101.044 90.9658 65.2072
163 1 101.694 91.7467 66.1402
175 1 104.416 89.7757 67.3152
176 1 104.167 88.8319 67.0081
174 1 104.501 90.8825 67.2024
173 1 104.091 90.3294 66.4966
28 1 100.223 91.492 67.1182
165 1 103.369 91.9731 66.2455
161 1 102.467 91.3367 67.2206
162 1 102.646 91.2731 66.2192
71 1 -5.34294 87.8535 80.0512
70 1 -4.76388 87.4858 79.3532
67 1 -3.6926 88.0806 78.5416
74 1 -4.58554 88.6441 79.6511
69 1 -4.8157 87.3028 78.2571
80 1 -1.95383 88.6268 78.6488
68 1 -4.57102 88.2351 78.4541
61 1 -1.13518 88.1264 78.818
72 1 -4.54046 88.1244 80.6442
73 1 -3.86039 87.9836 79.8777
76 1 -3.75968 89.9505 79.0248
75 1 -4.56037 89.5416 79.2085
77 1 -3.89733 89.5167 78.1455
66 1 -3.45991 88.7439 79.193
65 1 -2.8302 88.4624 79.8423
62 1 -1.9699 87.552 79.087
64 1 -2.95481 87.8255 79.1638
63 1 -2.49592 87.4965 79.9511
79 1 -2.41876 88.456 77.9048
78 1 -3.1742 88.983 78.2172
232 1 87.0781 -12.1022 90.606
230 1 87.6629 -13.7862 89.8487
229 1 88.6036 -13.7711 90.3392
231 1 87.4447 -13.0222 90.4133
228 1 88.1477 -13.4425 91.1425
233 1 88.0214 -11.7589 90.8057
234 1 87.6264 -12.5028 91.391
226 1 86.7614 -14.4286 91.8353
235 1 88.4142 -12.6376 91.9559
236 1 87.9285 -13.5818 92.275
237 1 88.4289 -13.0583 92.9404
227 1 87.5401 -14.2411 91.2679
460 1 -36.1116 -18.2556 94.9674
459 1 -36.9572 -18.7356 94.8779
447 1 -37.4385 -19.6625 92.7183
458 1 -36.8711 -19.3393 94.1598
449 1 -35.949 -20.7364 92.6721
448 1 -36.4506 -19.9406 92.6366
457 1 -37.4478 -20.0856 94.0015
456 1 -38.137 -20.6357 93.5217
455 1 -37.833 -21.4718 93.2793
450 1 -36.8649 -20.8845 93.1463
224 1 86.5218 -13.0099 92.3147
223 1 86.0871 -13.4434 93.121
225 1 86.7803 -13.494 91.7331
239 1 87.6561 -11.3685 92.6135
238 1 87.6692 -12.3367 92.7464
446 1 -38.4173 -19.9108 92.8828
445 1 -37.9367 -20.668 92.441
443 1 -38.3398 -21.531 92.1814
444 1 -37.4227 -21.3061 91.9362
454 1 -38.5943 -22.0605 93.5018
453 1 -37.9103 -22.3224 92.6079
451 1 -36.7254 -21.8544 92.9358
222 1 86.4045 -14.4568 93.0976
221 1 86.2234 -15.4351 93.1913
240 1 86.776 -11.6733 92.5605
441 1 -38.9389 -20.5367 91.8449
442 1 -38.94 -20.8975 92.7387
452 1 -37.4021 -22.3661 93.4912
60 1 26.8245 51.1345 99.1525
59 1 27.7583 51.4389 99.4548
46 1 27.2555 49.7064 99.5925
42 1 27.8178 48.8983 99.0781
56 1 28.1151 52.189 100.232
54 1 27.4316 52.6447 99.4796
55 1 28.4317 52.5426 99.425
51 1 25.2384 51.2223 99.784
49 1 27.2332 50.5877 100.159
50 1 26.163 51.0929 100.084
57 1 28.8312 51.4924 100.128
48 1 28.2733 50.5735 100.104
47 1 27.9907 49.5697 100.123
58 1 28.6513 51.3876 99.2264
45 1 27.823 50.5272 99.1266
43 1 27.8266 49.433 98.2779
44 1 27.2037 50.1673 98.6029
41 1 27.7712 48.4524 99.9238
53 1 26.5509 52.1027 99.5675
52 1 25.562 52.1511 99.9944
ITEM: TIMESTEP
42000
ITEM: NUMBER OF ATOMS
500
ITEM: BOX BOUNDS pp pp pp
-5.6854196462143875e+01 1.1685419646214443e+02
-5.6854196462143875e+01 1.1685419646214443e+02
-5.6854196462143875e+01 1.1685419646214443e+02
ITEM: ATOMS id type x y z
296 1 38.0292 -37.8316 -47.18
295 1 37.1929 -37.3033 -47.2238
291 1 36.4246 -39.0464 -46.0469
293 1 36.9949 -37.6239 -46.2882
292 1 36.6413 -38.3852 -46.7954
297 1 37.7012 -38.4671 -46.6233
298 1 38.6886 -38.2116 -46.4489
299 1 38.627 -37.283 -45.9836
294 1 37.5474 -36.8057 -46.4943
300 1 39.0335 -36.7082 -46.7874
284 1 36.6282 -37.5219 -45.1192
289 1 37.8942 -38.1291 -45.626
290 1 37.1234 -38.624 -45.6379
286 1 37.5058 -38.0761 -44.5991
288 1 38.7967 -38.5682 -45.4009
287 1 38.5262 -37.8501 -44.8175
285 1 37.4663 -37.2045 -45.0707
283 1 36.9429 -37.3047 -44.1193
281 1 37.4311 -37.7867 -43.2242
282 1 37.8961 -37.2271 -43.9578
108 1 12.3767 97.0103 -34.7969
101 1 14.5362 96.916 -34.9728
119 1 13.485 96.3989 -34.5326
120 1 13.5292 96.9365 -35.3576
106 1 12.911 97.7877 -35.2995
107 1 11.9556 97.8587 -35.0536
105 1 13.6027 97.9107 -34.8022
110 1 13.1839 96.3104 -33.3911
109 1 12.4802 96.3591 -34.0287
118 1 13.1283 97.1716 -34.11
102 1 14.2551 97.0012 -34.0026
114 1 12.0146 97.3305 -33.8294
116 1 12.6825 98.0934 -34.2868
117 1 12.9625 97.8456 -33.3617
115 1 11.9493 98.2369 -33.5072
104 1 14.3057 98.1544 -34.1794
103 1 14.0998 97.7204 -33.3231
112 1 13.0797 97.1989 -32.559
113 1 12.1414 97.039 -32.8518
111 1 13.8725 96.7342 -32.9252
142 1 79.3113 -37.9218 -13.7191
156 1 81.6703 -37.2537 -14.1504
157 1 81.6225 -38.0567 -13.6624
158 1 80.5991 -37.9855 -13.5709
143 1 79.9724 -37.1515 -13.9152
155 1 80.9857 -37.0801 -13.448
145 1 80.007 -37.4635 -12.7617
141 1 79.7849 -38.4185 -12.9272
159 1 80.9729 -38.1395 -12.6356
148 1 80.0189 -36.2262 -12.9206
147 1 79.7957 -36.6889 -12.0975
144 1 79.2168 -36.9981 -13.3361
151 1 81.0398 -36.1046 -12.7472
154 1 81.7264 -37.1834 -12.9217
152 1 80.793 -36.9791 -12.3436
149 1 79.7022 -35.5898 -12.2144
146 1 79.9934 -37.6831 -11.7796
160 1 81.4318 -38.3514 -11.767
153 1 81.7761 -37.0463 -11.9819
150 1 80.5849 -35.8115 -11.8543
301 1 64.7195 -6.68798 -2.28485
432 1 64.2155 -5.67019 -2.40911
435 1 62.9051 -6.59021 -1.09512
440 1 63.5533 -7.37322 -1.54782
303 1 64.8941 -7.38654 -1.04505
302 1 65.4069 -7.19392 -1.7532
434 1 62.7589 -5.81657 -1.74066
433 1 63.599 -6.01203 -1.60233
431 1 64.4797 -5.51475 -1.4905
430 1 65.0834 -6.12377 -1.03328
319 1 63.5706 -4.82233 -1.20172
318 1 62.8854 -4.51487 -1.64978
317 1 62.4237 -4.97227 -0.900679
320 1 64.1133 -4.72924 -2.00515
427 1 65.1718 -4.97685 -0.942301
304 1 64.3474 -7.87172 -0.45972
438 1 63.0043 -7.68987 0.208933
436 1 62.8568 -6.4559 -0.196184
439 1 62.9994 -7.61327 -0.744957
437 1 63.6316 -6.86996 -0.322316
305 1 64.1405 -7.56312 0.494814
423 1 64.5561 -6.69026 0.406224
425 1 65.8391 -6.49578 -0.333362
424 1 65.2271 -7.2423 0.109743
316 1 63.156 -5.5649 -0.68352
313 1 63.4479 -5.80513 0.282664
429 1 64.2367 -6.03215 -0.522802
312 1 64.1858 -5.40056 0.550843
422 1 65.0115 -5.88569 0.264779
426 1 65.6744 -5.44064 -0.341559
315 1 63.2656 -4.78683 -0.00977576
428 1 64.2695 -4.97095 -0.481909
307 1 63.0144 -6.80011 1.00988
306 1 63.5563 -7.67917 1.30701
308 1 63.9276 -6.57045 1.39757
314 1 62.8413 -5.1835 0.843188
311 1 63.6806 -5.20354 1.40937
421 1 65.8136 -6.17233 0.810922
309 1 64.0432 -6.52699 2.37516
310 1 63.9977 -5.66487 2.10793
393 1 110.242 81.2208 41.8729
395 1 109.383 81.8835 42.1181
396 1 109.688 82.6646 41.667
397 1 109.766 83.0897 42.5542
394 1 110.441 82.1285 42.2857
20 1 77.2659 13.8667 43.8318
19 1 76.3691 14.359 43.8077
14 1 75.7107 15.4032 43.3568
12 1 77.4238 14.8823 43.9008
13 1 76.7105 15.2972 43.3241
10 1 77.8842 15.6011 43.4
9 1 77.0355 16.0583 43.7932
268 1 108.397 81.0911 43.797
267 1 109.303 80.7792 44.0008
269 1 108.938 81.5219 43.0482
391 1 110.838 81.0064 43.8001
390 1 110.901 81.8296 43.1776
392 1 110.68 80.8334 42.9462
271 1 108.98 82.7273 43.1247
270 1 109.783 81.9059 43.2886
400 1 108.568 82.1222 43.9752
398 1 110.007 82.8631 43.5569
274 1 108.144 83.5304 43.8414
272 1 109.301 83.71 43.1856
273 1 108.937 84.0728 43.9965
5 1 77.5407 14.4308 44.8109
17 1 75.8034 15.1314 45.3025
18 1 76.4806 15.0558 44.6234
8 1 77.4875 15.9627 44.6243
7 1 78.0138 15.4127 45.285
11 1 78.2176 15.2351 44.2774
15 1 76.023 15.9976 44.1007
16 1 76.0897 15.9981 45.0765
263 1 108.747 80.3674 44.7373
265 1 109.545 81.3669 45.2088
264 1 108.645 81.2812 44.8729
266 1 109.908 81.4518 44.262
387 1 111.229 81.3077 45.272
277 1 106.612 82.4175 44.4648
279 1 108.259 82.1298 45.3735
278 1 107.427 81.9225 44.818
275 1 107.425 83.1833 44.4006
399 1 109.295 82.619 44.1398
382 1 109.247 82.6129 45.3047
389 1 110.796 82.1227 44.1052
383 1 110.033 82.4563 44.7872
388 1 111.515 81.9663 44.7436
276 1 106.557 83.4006 44.6198
381 1 108.896 83.366 44.8347
4 1 76.9251 14.2254 45.4397
6 1 77.8183 14.5482 45.8066
3 1 76.8841 15.254 45.5609
2 1 76.3688 15.8462 46.1495
261 1 108.824 81.5012 46.1004
262 1 109.069 80.5242 45.5903
386 1 110.53 81.2352 45.8589
280 1 107.741 82.1992 46.3309
384 1 110.727 82.6002 45.5052
385 1 110.134 82.0987 46.1654
1 1 75.8439 15.632 46.8325
92 1 106.655 100.73 53.1106
93 1 106.051 100.964 52.6809
95 1 105.058 102.032 53.2923
94 1 105.897 101.914 52.797
99 1 106.933 102.654 53.3892
100 1 106.825 102.16 52.5111
201 1 104.108 102.864 53.4789
492 1 104.929 103.808 53.5236
96 1 105.26 102.858 53.7027
97 1 105.424 103.241 52.7734
98 1 106.187 103.29 53.4552
493 1 104.087 104.342 53.6989
490 1 106.559 104.341 53.4883
491 1 105.698 104.345 53.4698
342 1 107.914 97.1685 54.8334
341 1 107.487 98.1598 54.7029
83 1 106.607 98.8498 54.5172
84 1 107.071 99.7981 54.3039
91 1 106.251 101.187 53.861
85 1 106.929 100.787 54.726
218 1 108.294 100.119 54.9922
217 1 108.061 100.953 54.6722
419 1 102.563 102.717 54.7944
203 1 104.179 101.898 54.3147
202 1 103.718 102.589 54.4796
204 1 104.697 102.033 55.1671
90 1 106.888 101.865 54.1844
89 1 105.955 102.301 54.2182
88 1 105.877 102.254 55.1691
213 1 107.328 102.579 54.9438
215 1 108.315 102.3 54.9502
214 1 107.893 102.134 54.0999
420 1 102.475 103.646 54.4931
494 1 104.277 104.183 54.7099
206 1 104.632 103.226 54.6317
207 1 105.74 103.545 54.4887
208 1 106.613 103.964 54.5013
211 1 108.007 103.669 54.7845
212 1 107.634 103.148 54.0981
495 1 103.496 104.579 55.1124
487 1 105.462 104.408 55.1682
489 1 106.216 104.962 54.1953
488 1 106.426 104.864 55.1649
360 1 106.161 95.5457 56.1747
359 1 105.858 96.4068 56.4001
82 1 106.13 98.5464 55.4217
357 1 106.337 98.0695 56.5595
344 1 107.894 97.5541 55.8604
345 1 107.649 98.5156 55.7752
343 1 108.614 97.6757 55.2545
355 1 104.925 98.9826 56.5209
354 1 105.224 99.8944 56.3494
81 1 106.791 99.0181 55.8758
356 1 105.913 99.0059 56.4772
351 1 106.292 99.9304 56.2552
352 1 106.49 99.7366 55.2352
346 1 107.506 99.4807 55.3414
348 1 108.1 99.4886 56.6033
347 1 108.496 99.4573 55.779
411 1 102.521 101.44 55.4936
410 1 102.927 101.252 56.4019
322 1 104.47 101.068 55.4854
353 1 105.471 100.16 55.4981
323 1 104.247 100.3 56.0057
334 1 105.422 101.117 56.4121
86 1 106.883 101.255 55.6542
87 1 106.049 101.333 55.5137
220 1 107.817 101.428 56.1795
219 1 107.907 100.514 55.7197
216 1 108.569 101.412 55.3223
462 1 108.847 101.115 56.306
461 1 108.991 100.428 55.6162
412 1 101.642 101.819 55.7378
413 1 102.231 102.212 56.4451
321 1 103.709 101.865 55.3973
332 1 104.346 102.162 56.2282
333 1 105.328 102.037 56.0433
480 1 106.36 102.552 56.1161
479 1 107.291 102.561 56.3066
417 1 102.165 103.336 56.4902
496 1 103.068 103.935 55.3482
497 1 103.626 103.699 56.0937
418 1 102.989 102.965 55.6593
485 1 105.15 102.95 56.4702
205 1 104.286 102.916 55.4261
486 1 104.926 103.659 55.5936
377 1 105.954 103.549 56.1894
376 1 106.769 104.112 56.3458
209 1 107.131 103.561 55.4087
210 1 108.043 103.534 55.7405
476 1 108.824 103.22 56.3102
498 1 104.508 104.442 56.3626
499 1 104.862 105.086 55.7415
378 1 105.723 104.498 56.1912
379 1 106.006 105.358 55.9467
372 1 108.119 105.382 55.7494
371 1 107.753 104.518 55.5434
370 1 107.096 105.213 55.9606
373 1 108.047 104.832 56.5974
500 1 104.509 105.809 56.3776
380 1 105.765 106.103 55.3926
369 1 107.701 105.739 56.5573
358 1 105.748 97.4534 56.6607
340 1 106.678 98.539 57.5975
339 1 105.709 98.256 57.4079
326 1 102.331 99.7865 56.9081
327 1 102.323 99.9479 57.9357
324 1 104.202 100.016 56.7591
338 1 105.806 99.2701 57.7161
350 1 107.248 100.011 56.6738
349 1 107.189 99.0817 56.8875
328 1 102.646 101.041 57.7091
325 1 103.252 100.213 56.8472
329 1 103.713 100.698 57.6878
336 1 105.477 100.127 57.3756
330 1 104.533 100.802 57.467
335 1 105.976 100.829 57.2475
468 1 106.824 100.879 58.0003
467 1 106.875 100.079 57.6255
464 1 107.978 100.648 57.6755
463 1 108.248 100.532 56.8745
469 1 107.094 100.984 57.0165
414 1 101.366 102.409 56.8721
415 1 102.027 102.599 57.3744
409 1 103.53 101.727 57.087
408 1 103.669 102.748 56.8752
406 1 103.988 102.21 57.8803
331 1 104.546 101.552 56.898
407 1 104.516 102.549 57.2244
196 1 105.125 101.873 57.9159
470 1 106.651 101.686 56.6591
197 1 105.752 102.012 57.2018
471 1 106.852 101.903 57.6253
474 1 108.171 102.356 57.5243
475 1 109.047 102.733 57.0068
482 1 103.363 104.01 57.804
416 1 102.888 103.152 57.3269
484 1 104.571 103.524 56.9019
183 1 105.1 103.773 57.8943
181 1 106.341 103.064 57.2121
182 1 105.785 103.878 57.194
478 1 107.339 103.351 56.7984
477 1 108.22 103.559 57.0642
361 1 107.171 103.866 57.6791
483 1 104.175 104.322 57.4366
124 1 105.645 104.854 57.7349
123 1 105.088 105.079 56.9156
375 1 106.402 104.672 56.9966
374 1 107.252 104.954 57.2231
368 1 108.064 105.545 57.4741
132 1 108.171 104.376 57.7935
121 1 104.973 105.816 57.8414
122 1 105.382 106.007 56.9669
367 1 107.342 106.091 57.759
337 1 106.029 99.9245 58.2799
466 1 107.424 99.9635 58.4427
195 1 104.822 101.414 58.6774
194 1 105.611 100.904 58.318
193 1 105.056 100.271 58.9728
137 1 106.922 101.173 59.0462
465 1 107.978 100.574 58.7074
405 1 103.758 101.872 58.8098
404 1 104.324 102.746 58.6801
403 1 105.044 102.395 59.1992
198 1 105.845 102.722 58.1265
199 1 106.162 101.915 58.539
200 1 105.738 101.546 59.2498
472 1 107.319 102.28 58.4829
473 1 107.967 101.574 58.2841
481 1 103.228 103.34 58.3504
185 1 104.197 103.958 58.522
186 1 105.063 103.528 58.8784
363 1 106.327 103.783 58.196
362 1 106.922 103.137 58.1497
126 1 106.275 103.978 59.3512
127 1 106.001 103.189 59.1654
128 1 106.883 102.993 59.2869
133 1 108.356 103.352 58.2101
134 1 108.291 103.244 59.1533
130 1 107.593 104.045 58.7839
184 1 104.656 104.644 58.2843
125 1 105.611 104.557 58.7007
364 1 106.802 104.619 58.5245
365 1 106.176 105.587 58.4137
131 1 108.088 105.022 58.4941
366 1 107.212 105.874 58.7205
192 1 105.155 100.757 59.8584
138 1 106.548 101.037 59.7918
402 1 104.195 102.59 59.7426
401 1 104.322 101.595 59.7585
189 1 105.437 102.126 60.1522
139 1 106.378 101.641 60.602
140 1 106.866 102.707 60.3246
135 1 107.89 102.554 59.6895
136 1 107.327 101.777 59.7102
187 1 105.127 104.127 59.6989
188 1 105.209 103.175 59.9404
129 1 107.475 103.824 59.5855
191 1 105.13 100.853 60.9204
190 1 105.417 101.776 61.0037
242 1 103.697 90.3105 62.871
260 1 102.866 91.478 63.4717
243 1 104.423 90.976 63.2304
250 1 105.402 90.4361 63.5466
259 1 103.63 91.925 63.0037
21 1 101.89 89.417 64.7098
246 1 102.6 89.4638 63.9014
22 1 102.441 90.1084 64.8836
247 1 103.354 89.1861 64.6027
241 1 103.725 89.8978 63.751
248 1 104.273 88.8544 64.5577
249 1 104.697 89.6818 63.9315
180 1 104.401 89.8716 65.0096
30 1 102.14 91.2433 64.8814
29 1 101.46 90.4982 64.7184
245 1 102.944 90.4707 63.8781
244 1 103.706 90.9856 63.8348
169 1 103.462 91.2621 64.7351
251 1 104.617 90.777 64.2751
252 1 105.239 91.4612 63.7929
258 1 103.984 92.0862 63.8632
170 1 103.116 92.0828 64.5849
253 1 105.39 91.8258 64.8277
257 1 104.544 92.5975 64.4347
36 1 102.56 87.4085 66.1989
34 1 102.131 88.4631 65.3105
35 1 102.975 87.8087 65.4255
39 1 104.304 88.8052 66.269
40 1 105.386 88.776 66.1604
33 1 101.815 88.8808 66.2672
32 1 101.88 89.7665 65.7153
24 1 102.796 90.1788 66.2298
23 1 102.864 89.4414 65.6135
166 1 104.075 90.23 66.1545
179 1 105.028 89.582 65.5735
28 1 100.991 90.3246 65.4553
27 1 100.472 90.4286 66.2653
31 1 102.044 90.7029 65.6969
168 1 104.158 91.1367 65.2539
165 1 103.583 91.0685 66.1751
167 1 103.404 90.2468 65.2829
178 1 105.206 90.6352 65.6522
256 1 104.173 92.2195 65.1912
171 1 103.131 92.0719 65.7445
254 1 105.637 91.815 65.8149
255 1 105.053 92.6477 65.518
173 1 104.482 91.7067 66.2252
37 1 102.774 88.2156 66.6746
26 1 101.425 90.1491 66.6474
25 1 102.407 90.1655 67.19
38 1 103.404 89.0383 66.5625
164 1 102.585 91.1284 66.4867
161 1 101.507 91.2611 66.4642
175 1 103.557 91.0013 67.2822
177 1 104.925 90.6443 66.6372
176 1 104.548 90.7396 67.4998
162 1 101.972 92.0617 66.8629
163 1 103.005 91.9234 67.0665
172 1 103.711 92.2129 66.4241
174 1 104.287 91.7476 67.3528
79 1 -4.1113 89.8779 77.2251
80 1 -4.13563 90.4684 76.4152
66 1 -5.5681 88.0622 78.5619
64 1 -3.82754 88.1806 77.9243
65 1 -4.80354 87.8793 77.9928
61 1 -2.61387 88.1711 77.7291
63 1 -3.0862 88.1592 78.7017
62 1 -2.09793 88.027 78.451
75 1 -4.47158 89.1367 77.8782
74 1 -4.38798 88.8968 78.8446
77 1 -3.47977 89.8113 78.7844
76 1 -3.40064 89.1097 78.1039
78 1 -4.25427 90.2612 78.326
70 1 -3.91041 87.9932 79.6959
68 1 -4.78068 88.6517 79.8977
67 1 -4.86144 87.8519 79.2723
71 1 -2.9688 88.4032 79.8374
73 1 -3.75029 89.0501 79.5674
72 1 -2.72516 89.3294 79.6513
69 1 -4.08227 88.5482 80.5192
222 1 86.9583 -13.6915 90.3434
224 1 87.4503 -13.5328 91.3869
221 1 85.9782 -13.224 90.5045
223 1 88.0055 -13.329 90.4281
457 1 -37.337 -22.4391 92.8897
459 1 -37.9313 -21.4752 92.3138
460 1 -37.8251 -20.6393 91.8454
452 1 -37.1218 -20.456 92.7527
458 1 -36.9983 -21.7685 92.2569
453 1 -38.0451 -20.4036 92.8231
225 1 87.3702 -13.7585 92.3593
230 1 88.2344 -14.4265 92.6681
231 1 88.2636 -13.3827 92.7685
240 1 89.9516 -13.2778 92.6149
456 1 -38.0318 -22.236 93.6346
448 1 -36.7184 -22.0382 93.8957
449 1 -36.3037 -22.2098 93.111
455 1 -37.8435 -21.3042 93.3406
454 1 -38.0395 -20.5326 93.7005
447 1 -37.3435 -21.1097 94.2257
450 1 -35.8803 -21.4821 93.5755
451 1 -36.7543 -21.1981 93.1298
446 1 -36.2656 -20.8621 94.312
444 1 -37.1437 -19.6879 93.5591
443 1 -36.2625 -19.1513 93.6845
445 1 -36.2899 -20.2703 93.5391
228 1 86.9369 -14.9355 93.392
229 1 87.8771 -15.2497 93.2155
226 1 86.7472 -13.9707 93.2266
227 1 86.0525 -14.6672 93.6271
234 1 88.5179 -13.6438 93.9351
232 1 88.2563 -12.5662 93.3364
236 1 88.7813 -12.3176 94.3429
233 1 89.0776 -13.0117 93.3903
239 1 90.1175 -13.0535 93.6739
238 1 89.8031 -12.2198 93.6706
237 1 88.9152 -11.8354 93.4304
441 1 -36.2161 -19.376 94.7938
442 1 -37.04 -19.1338 94.4558
235 1 89.1611 -13.225 94.496
42 1 26.1725 50.8282 99.9238
43 1 26.2375 51.69 99.2877
44 1 27.1705 51.5209 99.0509
46 1 27.2749 52.3951 99.5814
60 1 27.0596 51.013 101.013
59 1 27.0668 50.3681 100.274
57 1 28.0524 50.4532 100.967
58 1 27.5952 49.6661 100.551
52 1 29.3249 50.8954 101.134
56 1 28.7037 50.6567 100.325
55 1 29.5424 49.967 100.319
53 1 30.3299 50.5068 101.079
54 1 30.5193 50.145 100.269
41 1 26.259 51.6759 100.438
45 1 27.2801 51.5214 100.111
49 1 28.1759 52.1579 100.342
48 1 27.6422 52.0282 101.135
50 1 29.0599 51.8336 100.127
51 1 29.7508 51.0614 100.36
47 1 27.0686 52.6108 100.416
ITEM: TIMESTEP
43000
ITEM: NUMBER OF ATOMS
500
ITEM: BOX BOUNDS pp pp pp
-5.7895918445003318e+01 1.1789591844500387e+02
-5.7895918445003318e+01 1.1789591844500387e+02
-5.7895918445003318e+01 1.1789591844500387e+02
ITEM: ATOMS id type x y z
296 1 37.6831 -38.6844 -44.4559
295 1 37.1318 -38.3001 -45.2819
291 1 38.0916 -37.4214 -46.9833
293 1 38.4678 -37.7205 -45.9475
292 1 37.5226 -37.7315 -46.208
297 1 38.4009 -38.7798 -45.0925
298 1 37.6094 -39.4329 -45.3657
299 1 37.7849 -38.6922 -46.0341
294 1 37.7697 -37.6093 -45.2262
300 1 38.0143 -39.5098 -46.6088
284 1 36.7443 -38.3639 -46.3059
289 1 38.7052 -39.1668 -47.2909
290 1 38.3676 -38.3782 -46.9187
286 1 37.894 -38.2778 -48.008
288 1 38.6477 -39.2575 -48.3157
287 1 37.8129 -39.3503 -47.9737
285 1 37.2965 -38.423 -47.2095
283 1 36.2932 -38.4255 -47.072
281 1 36.5184 -37.6578 -48.8249
282 1 36.5401 -38.1862 -48.0201
108 1 13.1027 98.9615 -34.6345
101 1 11.4771 96.8142 -35.3782
119 1 12.2748 98.081 -34.5529
120 1 11.4783 98.7322 -34.5601
106 1 11.4074 98.9068 -35.5627
107 1 12.2247 99.2671 -35.0753
105 1 12.0869 99.0904 -36.2608
110 1 12.6978 97.3231 -35.1144
109 1 13.4494 98.0862 -34.8205
118 1 12.3818 98.3066 -35.5544
102 1 11.3008 97.7531 -35.6021
114 1 13.7356 97.81 -36.5892
116 1 13.1364 99.1949 -35.7102
117 1 12.7727 98.4078 -36.367
115 1 13.6466 98.4085 -35.8139
104 1 11.6562 98.3809 -36.5377
103 1 12.0484 97.555 -36.2671
112 1 14.293 97.6951 -35.3862
113 1 14.1636 97.1165 -36.1494
111 1 13.6498 96.9453 -35.106
142 1 83.0432 -37.1647 -12.3559
156 1 81.2284 -36.9773 -12.6285
157 1 80.3629 -37.4711 -12.6822
158 1 80.4295 -38.4237 -12.6419
143 1 82.4343 -37.9133 -12.0154
155 1 81.995 -37.296 -13.2811
145 1 81.5257 -38.9896 -12.4476
141 1 82.1801 -36.6217 -12.3577
159 1 80.842 -38.9216 -13.4587
148 1 83.0206 -38.135 -12.9029
147 1 82.6484 -39.0763 -12.9649
144 1 81.4288 -37.9888 -12.2731
151 1 82.119 -37.716 -14.383
154 1 81.1788 -37.7405 -13.3367
152 1 81.2274 -38.4689 -14.3667
149 1 83.2679 -38.0458 -13.7946
146 1 81.8946 -38.4235 -13.1511
160 1 81.6263 -39.2449 -13.9201
153 1 80.7276 -37.6258 -14.0968
150 1 82.5095 -38.5616 -14.182
301 1 62.7956 -7.69191 -1.11896
432 1 63.7362 -6.66934 -1.59785
435 1 63.6606 -6.64927 0.286263
440 1 63.1512 -9.17198 -0.369924
303 1 63.938 -7.63242 -1.08859
302 1 63.3611 -8.24095 -1.67053
434 1 62.8692 -7.11689 -0.185838
433 1 63.3666 -6.5537 -0.680862
431 1 64.3051 -5.78951 -1.59794
430 1 63.8145 -4.99949 -1.25499
319 1 62.5847 -5.85039 -1.59793
318 1 62.1789 -5.19766 -1.14489
317 1 63.0634 -5.25908 -0.65219
320 1 63.3798 -5.7674 -1.94747
427 1 65.3599 -5.44752 -1.93935
304 1 64.4257 -6.88672 -0.66238
438 1 64.1808 -8.52767 -0.633477
436 1 63.9759 -7.43787 0.109327
439 1 63.344 -8.13587 -0.288433
437 1 64.6968 -7.99107 0.0375973
305 1 65.2673 -7.252 -0.183905
423 1 64.177 -5.58517 -0.525597
425 1 65.4904 -6.26538 -1.04228
424 1 65.0289 -5.83707 -0.712698
316 1 62.8617 -4.39146 -0.307742
313 1 63.5629 -4.83805 0.375003
429 1 64.4341 -4.55497 -0.595871
312 1 63.1714 -4.41116 1.28203
422 1 64.7478 -5.96408 0.219649
426 1 65.0637 -6.42889 -1.78713
315 1 62.3089 -4.94213 0.29372
428 1 64.7876 -4.65015 -1.65714
307 1 64.819 -6.17707 1.18871
306 1 65.2919 -6.72416 0.641647
308 1 64.0211 -6.31118 1.2163
314 1 62.9877 -5.73776 0.340452
311 1 63.12 -5.13589 1.53519
421 1 64.9377 -4.95044 0.282583
309 1 64.129 -5.87002 1.98552
310 1 64.1021 -5.2297 1.30716
393 1 112.269 82.1655 43.2703
395 1 113.789 82.7072 43.0948
396 1 112.937 82.9938 42.7321
397 1 112.123 83.1164 43.4941
394 1 113.176 82.2665 43.7234
20 1 75.5764 14.5899 46.0297
19 1 75.7548 15.0859 45.2357
14 1 76.6482 14.3334 45.2727
12 1 76.3178 13.2515 45.3271
13 1 75.7869 13.8796 45.2151
10 1 76.3074 13.8736 46.6915
9 1 76.8437 14.7017 46.3925
268 1 110.167 81.4014 45.1034
267 1 110.07 82.2129 45.6407
269 1 110.462 80.5811 44.5713
391 1 112.27 82.9244 44.5404
390 1 111.765 82.8119 45.3429
392 1 111.62 82.3661 44.0001
271 1 111.727 81.3076 43.5099
270 1 110.866 81.4232 44.257
400 1 111.169 83.1618 44.5181
398 1 111.119 82.8102 43.2597
274 1 109.727 80.2969 43.5345
272 1 110.962 81.5381 43.11
273 1 110.605 80.6549 43.5127
5 1 75.5087 17.0366 45.6698
17 1 77.1824 15.7121 44.3546
18 1 76.2087 15.8664 44.7992
8 1 76.914 15.2324 45.6443
7 1 76.6005 15.7413 46.4701
11 1 77.0246 13.5469 46.0883
15 1 76.5607 13.8509 44.3568
16 1 76.4408 14.85 44.4296
263 1 109.438 82.7101 46.239
265 1 110.388 83.081 45.2591
264 1 110.378 83.1689 46.2583
266 1 110.921 82.312 44.9775
387 1 111.324 82.7663 47.011
277 1 109.585 81.4136 43.991
279 1 109.768 82.7565 44.4222
278 1 110.046 82.1918 43.6537
275 1 108.846 80.6953 43.9452
399 1 111.135 83.7612 43.6012
382 1 108.869 83.839 45.6314
389 1 111.665 81.7267 45.5708
383 1 109.734 84.3899 45.4493
388 1 111.122 82.41 46.0894
276 1 109.101 80.798 44.7801
381 1 108.902 84.7783 45.9005
4 1 75.7615 17.9884 45.8852
6 1 75.8839 16.0674 45.7977
3 1 76.5146 17.2892 46.0521
2 1 76.4113 17.1907 45.0618
261 1 109.165 81.6561 45.9986
262 1 109.718 81.9412 46.8615
386 1 111.613 83.3367 46.2497
280 1 108.984 82.2765 43.7483
384 1 110.571 85.0011 45.6693
385 1 111.044 84.1791 46.0917
1 1 77.007 18.043 44.9409
92 1 107.268 102.455 53.3308
93 1 107.25 103.166 54.0274
95 1 105.923 102.924 53.7154
94 1 106.519 102.551 54.4304
99 1 106.424 105.247 55.3395
100 1 106.669 105.996 54.758
201 1 105.366 104.147 54.5472
492 1 105.25 105.332 55.1567
96 1 106.319 103.811 54.1429
97 1 106.952 104.514 53.7006
98 1 107.057 104.906 54.6557
493 1 104.317 105.247 55.5094
490 1 105.906 105.866 56.0465
491 1 105.425 106.415 55.4399
342 1 107.869 99.7539 53.1017
341 1 107.831 100.518 52.7946
83 1 106.731 101.286 53.9025
84 1 107.176 101.698 54.7378
91 1 108.184 102.377 53.7728
85 1 106.986 102.224 55.4084
218 1 109.085 101.144 54.9527
217 1 109.758 101.016 55.5545
419 1 101.832 105.99 56.6365
203 1 106.262 103.732 55.1814
202 1 105.559 103.215 54.7335
204 1 106.02 103.628 56.0008
90 1 107.997 102.515 54.6718
89 1 108.874 102.99 54.7738
88 1 108.867 103.559 54.12
213 1 108.163 102.906 55.65
215 1 109.396 102.255 55.8957
214 1 108.539 102.446 56.3061
420 1 101.275 105.531 57.0611
494 1 104.118 104.162 55.4012
206 1 107.508 103.176 56.5304
207 1 107.532 103.819 55.8825
208 1 106.813 104.613 56.0863
211 1 109.356 104.249 55.4689
212 1 108.584 103.812 55.6195
495 1 104.835 103.601 55.9151
487 1 104.978 104.86 56.3182
489 1 105.621 106.527 56.6521
488 1 105.296 105.722 56.9487
360 1 109.278 98.8027 55.0179
359 1 108.37 98.734 55.1211
82 1 106.451 100.413 54.1527
357 1 106.417 98.5836 55.4597
344 1 108.199 98.9165 54.1196
345 1 107.678 99.7304 54.1625
343 1 107.659 98.7019 53.2705
355 1 105.838 100.452 55.6499
354 1 106.01 101.002 54.9015
81 1 106.836 100.218 55.0568
356 1 106.287 99.5958 55.5758
351 1 106.868 100.965 55.8979
352 1 106.18 101.522 55.763
346 1 108.506 100.121 54.5869
348 1 107.768 100.862 54.7766
347 1 108.024 100.643 53.8231
411 1 103.559 102.905 56.8829
410 1 103.537 102.782 55.9558
322 1 104.024 101.735 54.9874
353 1 105.862 101.781 54.9331
323 1 104.758 101.153 54.4
334 1 106.781 101.695 56.6092
86 1 107.153 103.214 55.2287
87 1 107.919 103.825 54.7009
220 1 108.777 101.492 56.2057
219 1 108.442 101.728 55.3145
216 1 110.096 101.737 55.8082
462 1 108.959 100.614 57.1301
461 1 109.014 100.394 56.1899
412 1 103.26 102.431 57.7752
413 1 103.919 103.208 58.0212
321 1 103.206 101.423 55.4357
332 1 105.722 102.089 57.6474
333 1 106.059 102.035 56.6759
480 1 108.695 104.396 57.3486
479 1 109.094 104.538 56.4411
417 1 101.846 104.495 56.6051
496 1 104.076 103.826 56.5013
497 1 103.346 104.626 56.3571
418 1 102.531 105.339 56.2122
485 1 105.263 103.902 56.8783
205 1 106.568 102.859 56.2116
486 1 104.722 104.455 57.2562
377 1 108.103 105.211 56.9198
376 1 108.003 105.972 56.5792
209 1 107.723 104.981 55.8583
210 1 108.756 105.048 55.6166
476 1 108.961 102.881 58.1495
498 1 103.984 105.264 56.8166
499 1 103.451 105.119 57.5956
378 1 107.541 104.282 56.8993
379 1 106.642 104.038 57.1701
372 1 106.942 106.725 56.6934
371 1 107.053 107.413 57.1688
370 1 107.883 106.955 57.5069
373 1 107.452 106.497 55.8486
500 1 104.266 105.144 58.4397
380 1 106.026 104.93 57.3999
369 1 107.773 106.053 57.7419
358 1 107.439 98.3749 55.1013
340 1 108.346 99.4977 55.9529
339 1 107.51 99.4847 55.315
326 1 104.119 100.757 55.4164
327 1 103.837 100.267 56.1729
324 1 104.94 101.475 55.3639
338 1 107.378 100.042 56.2845
350 1 107.78 101.213 56.3334
349 1 108.156 100.684 55.6214
328 1 104.597 100.702 56.7201
325 1 104.19 101.454 55.9799
329 1 104.104 101.496 57.2768
336 1 106.068 100.178 57.3808
330 1 105.016 101.736 56.6725
335 1 106.301 100.824 56.6968
468 1 106.663 101.703 57.6586
467 1 107.622 101.305 57.4669
464 1 108.116 100.172 58.183
463 1 108.475 99.836 57.2728
469 1 106.566 102.73 57.301
414 1 103.843 104.098 57.6261
415 1 102.915 103.479 57.7075
409 1 104.353 102.537 56.5339
408 1 104.747 102.511 55.6452
406 1 105.433 102.884 56.5745
331 1 105.483 101.119 57.4246
407 1 105.534 102.357 55.6218
196 1 106.192 101.427 58.4437
470 1 107.386 102.309 57.134
197 1 106.124 102.593 58.6966
471 1 108.259 103.053 57.2621
474 1 107.837 102.511 58.4732
475 1 108.726 102.085 58.5021
482 1 104.69 103.935 58.1012
416 1 102.241 104.247 57.47
484 1 105.803 103.709 57.6964
183 1 106.264 103.983 59.4753
181 1 106.651 104.206 58.324
182 1 106.492 104.778 59.0993
478 1 109.153 103.686 56.7968
477 1 109.333 102.782 57.1967
361 1 109.12 104.489 58.1758
483 1 105.442 104.476 58.3
124 1 107.112 106.193 58.5252
123 1 106.589 105.307 58.1434
375 1 108.5 106.703 55.9582
374 1 108.158 106.524 55.0893
368 1 108.623 106.277 57.4252
132 1 109.395 104.372 60.7159
121 1 107.628 104.704 57.835
122 1 107.046 105.099 57.143
367 1 108.888 105.379 57.7211
337 1 107.129 99.9775 57.2093
466 1 108.367 101.081 57.8038
195 1 107.183 100.893 58.2249
194 1 107.845 100.884 58.9693
193 1 106.889 101.229 59.1925
137 1 107.656 102.559 60.2408
465 1 108.929 100.744 58.5543
405 1 104.929 102.862 57.399
404 1 105.196 102.748 58.2589
403 1 105.351 103.483 58.9622
198 1 106.839 102.829 58.2887
199 1 106.989 103.472 58.9985
200 1 106.287 102.962 59.5716
472 1 107.287 103.386 57.5339
473 1 107.931 103.475 58.2697
481 1 103.965 104.001 58.7033
185 1 105.721 104.49 60.3662
186 1 105.569 104.138 61.1389
363 1 108.161 104.405 58.9084
362 1 108.982 103.829 59.0133
126 1 108.261 105.476 59.8673
127 1 107.639 105.327 60.64
128 1 106.853 105.066 60.9854
133 1 108.871 103.43 60.7785
134 1 108.855 103.231 59.9812
130 1 108.418 104.515 60.3348
184 1 105.456 104.585 59.3829
125 1 107.504 106.166 59.4221
364 1 107.535 105.206 58.8302
365 1 108.312 105.633 58.7154
131 1 109.066 104.532 59.695
366 1 109.139 105.271 58.8152
192 1 106.056 100.78 59.4587
138 1 106.896 102.363 60.3994
402 1 104.986 103.877 59.9699
401 1 105.355 103.138 60.2318
189 1 105.874 102.064 61.6157
139 1 107.081 102.943 61.038
140 1 106.96 102.726 61.9623
135 1 108.324 103.097 59.2688
136 1 107.523 103.449 60.0401
187 1 106.305 103.727 60.6616
188 1 106.053 102.861 61.0372
129 1 107.365 104.512 60.0986
191 1 105.551 101.743 59.8785
190 1 106.009 101.662 60.716
242 1 107.56 90.2865 64.9584
260 1 103.092 91.1454 64.1591
243 1 106.634 90.8841 64.67
250 1 105.49 91.425 63.6785
259 1 102.846 91.9963 63.7743
21 1 105.89 89.7455 63.6613
246 1 106.118 90.3615 65.4951
22 1 105.726 89.6302 64.645
247 1 105.539 90.5141 66.397
241 1 107.437 89.7867 65.7534
248 1 105.645 91.2432 65.8041
249 1 105.629 91.1351 64.7532
180 1 105.052 91.7892 65.281
30 1 102.656 90.0812 65.0681
29 1 101.966 90.3166 65.7836
245 1 106.652 90.7257 66.0544
244 1 106.55 91.5034 65.4641
169 1 103.67 90.5344 64.6664
251 1 104.662 91.9365 63.4825
252 1 103.874 91.4399 63.5434
258 1 103.426 92.7724 63.6231
170 1 103.569 91.2469 65.2136
253 1 104.266 91.562 64.4507
257 1 103.835 93.565 63.8792
36 1 103.339 88.9629 66.5986
34 1 103.751 89.4465 64.8649
35 1 103.662 88.965 65.7027
39 1 104.777 89.9323 68.0035
40 1 104.536 90.4243 67.0832
33 1 102.907 88.9221 65.0042
32 1 102.478 89.2342 65.8148
24 1 104.315 89.8021 66.2026
23 1 105.238 89.8806 65.5659
166 1 104.549 91.069 66.2226
179 1 105.335 92.2645 64.3126
28 1 102.636 91.0552 65.5182
27 1 102.236 91.3075 66.4071
31 1 103.008 89.9833 65.9453
168 1 104.652 90.5587 64.4541
165 1 103.59 91.0751 66.6915
167 1 104.543 90.8305 65.2926
178 1 105.969 92.9048 64.3286
256 1 104.61 93.9818 63.5559
171 1 103.163 92.2014 65.1739
254 1 104.015 92.5602 64.4412
255 1 104.84 93.1205 64.0304
173 1 103.961 92.0768 66.2793
37 1 104.186 88.6775 66.7049
26 1 102.713 90.4499 66.8073
25 1 103.6 90.0249 66.7175
38 1 104.246 89.3993 67.2753
164 1 103.488 91.7408 67.4135
161 1 102.812 89.836 67.7133
175 1 105.216 93.0254 65.1648
177 1 106.878 92.5869 64.7277
176 1 106.157 92.6607 65.5184
162 1 103.548 89.9578 68.161
163 1 103.404 90.9378 68.0161
172 1 103.078 91.7135 66.0822
174 1 104.402 92.5622 65.4222
79 1 -4.51909 91.0812 78.9047
80 1 -3.7362 91.645 78.6555
66 1 -4.36057 88.5339 78.8102
64 1 -5.27388 88.067 79.3129
65 1 -4.71606 87.4585 78.9055
61 1 -4.26453 88.063 77.8319
63 1 -5.42472 87.9208 78.266
62 1 -4.92344 87.4449 77.5557
75 1 -4.63399 89.7619 79.103
74 1 -3.9616 89.5232 78.2672
77 1 -5.16015 90.3402 78.2913
76 1 -5.2992 89.3832 78.4433
78 1 -4.19123 90.6017 78.0072
70 1 -3.19967 90.4038 78.1377
68 1 -2.90588 89.114 79.0526
67 1 -3.81812 89.1782 79.393
71 1 -3.35756 90.1152 77.0557
73 1 -4.66775 89.6067 77.5234
72 1 -4.38451 90.342 76.8382
69 1 -3.28847 89.9677 79.0412
222 1 90.1609 -13.5664 93.7985
224 1 89.4019 -14.1683 92.7502
221 1 91.1365 -13.6089 94.3581
223 1 89.6465 -13.2506 92.9385
457 1 -35.5449 -19.2881 94.1163
459 1 -36.2411 -20.2435 93.4397
460 1 -35.5519 -20.582 92.9263
452 1 -36.0401 -21.4533 93.896
458 1 -35.474 -19.4732 93.1984
453 1 -36.5957 -20.9882 94.4779
225 1 88.5142 -14.5244 92.8947
230 1 87.4051 -13.0511 94.3538
231 1 87.9101 -13.0874 93.3979
240 1 88.7301 -13.7536 93.6541
456 1 -36.0053 -20.0187 94.5717
448 1 -38.4346 -22.103 92.6679
449 1 -37.5637 -21.8237 92.111
455 1 -36.8119 -19.5298 94.0981
454 1 -37.2754 -20.3164 94.0758
447 1 -37.5159 -22.3282 93.2665
450 1 -37.6872 -21.2519 92.9219
451 1 -36.9383 -21.1704 93.5054
446 1 -37.4785 -21.8615 94.1127
444 1 -37.7126 -22.3826 95.0618
443 1 -37.1768 -23.1136 95.3528
445 1 -36.7775 -22.1013 94.9383
228 1 87.8295 -14.1565 93.9356
229 1 88.1134 -13.5211 94.491
226 1 88.7356 -14.8754 93.7721
227 1 87.9851 -15.0473 94.3946
234 1 89.1618 -13.4632 95.1538
232 1 88.8198 -12.7022 93.6425
236 1 89.73 -14.5815 95.3325
233 1 89.0944 -12.7221 94.5607
239 1 89.264 -14.0685 94.3019
238 1 89.9925 -14.7815 94.3186
237 1 89.1797 -15.1447 94.7989
441 1 -36.3871 -22.4264 93.8727
442 1 -36.643 -23.0921 94.5002
235 1 90.2622 -13.8014 94.9737
42 1 30.5119 52.4971 101.321
43 1 29.8152 52.6729 100.627
44 1 29.4404 51.8291 100.12
46 1 29.546 52.0513 101.826
60 1 28.1688 51.1172 102.844
59 1 28.3035 51.6247 101.9
57 1 27.5209 51.9632 100.491
58 1 28.082 51.3583 101.015
52 1 27.1799 50.162 101.695
56 1 27.7315 52.3904 101.264
55 1 27.0885 52.3756 101.931
53 1 27.0051 51.1026 101.277
54 1 27.2194 51.4534 102.235
41 1 30.8432 52.0497 100.442
45 1 28.9058 52.1888 100.935
49 1 28.8423 50.2215 100.849
48 1 29.2171 51.1132 100.964
50 1 28.5219 50.4878 101.662
51 1 28.0767 49.8522 102.092
47 1 30.0242 51.6076 101.091
ITEM: TIMESTEP
44000
ITEM: NUMBER OF ATOMS
500
ITEM: BOX BOUNDS pp pp pp
-5.9833281593000294e+01 1.1983328159300085e+02
-5.9833281593000294e+01 1.1983328159300085e+02
-5.9833281593000294e+01 1.1983328159300085e+02
ITEM: ATOMS id type x y z
288 1 38.1844 -39.4665 -46.278
281 1 38.2064 -38.1908 -46.9616
283 1 38.3478 -39.2093 -48.2492
285 1 36.8221 -39.3866 -48.0585
289 1 38.3567 -40.3712 -46.7686
290 1 38.3301 -40.108 -47.6876
286 1 37.5146 -39.4465 -47.3135
287 1 38.4703 -39.1919 -47.2087
282 1 38.4788 -38.2048 -47.9259
291 1 37.398 -40.7434 -47.7976
295 1 37.9823 -39.3962 -49.3357
298 1 37.4062 -41.0877 -49.8016
284 1 37.566 -39.7285 -48.4952
299 1 37.9127 -40.6408 -48.9931
300 1 38.5137 -40.2947 -49.793
292 1 36.4819 -40.8228 -48.193
293 1 36.6914 -40.6033 -49.1473
296 1 37.7326 -39.5201 -50.3598
297 1 37.6307 -40.4261 -50.5395
294 1 37.032 -39.887 -49.5606
102 1 13.3711 99.919 -37.228
103 1 13.206 100.266 -36.2329
114 1 10.7649 98.8747 -38.6631
112 1 11.8062 98.7902 -39.1823
113 1 11.0986 99.4832 -39.4345
106 1 12.1708 101.073 -37.4846
105 1 12.1342 100.955 -36.4682
118 1 11.7735 99.458 -37.2041
104 1 12.1967 100.024 -36.2683
116 1 11.3843 100.336 -37.7157
117 1 11.2197 100.207 -36.7507
115 1 10.6846 99.7048 -37.9561
101 1 12.7989 99.2468 -36.7434
119 1 12.3733 100.07 -37.5719
110 1 12.1689 98.3772 -37.642
109 1 11.7347 99.0597 -38.2172
111 1 11.9442 97.8871 -38.5369
120 1 12.8309 99.2057 -37.8603
107 1 12.3041 100.731 -38.4149
108 1 11.9027 99.8785 -38.73
152 1 83.1792 -37.7624 -13.2907
151 1 83.2056 -38.5659 -13.7909
159 1 83.3587 -39.783 -12.6706
147 1 82.9816 -39.4179 -14.5107
146 1 83.355 -39.6918 -13.7031
160 1 83.7166 -40.6528 -12.9051
150 1 83.3874 -38.4444 -14.8104
154 1 84.0691 -38.8772 -12.4063
153 1 83.2004 -38.5898 -12.6186
155 1 84.1882 -38.4922 -13.2711
148 1 83.7173 -40.0567 -14.7966
149 1 83.5749 -39.209 -15.4249
158 1 84.2528 -39.8112 -13.1851
145 1 83.0361 -40.5173 -13.8796
156 1 84.3487 -38.7564 -14.206
157 1 84.6205 -39.6674 -14.1638
143 1 83.3725 -41.3185 -14.581
144 1 83.999 -40.665 -14.0177
142 1 83.0391 -40.8077 -15.3373
141 1 82.3535 -40.2607 -14.9457
302 1 65.1123 -7.97306 -2.4416
426 1 64.7505 -6.0089 -1.07692
320 1 61.0634 -5.9804 -1.41918
427 1 64.4349 -6.67392 -1.6498
428 1 64.9533 -6.95201 -2.48029
440 1 63.8762 -8.882 -0.182675
301 1 65.1125 -9.0083 -2.50518
303 1 64.6538 -7.89742 -1.57956
438 1 65.5263 -8.19481 -0.180778
439 1 64.5291 -8.16147 -0.253624
432 1 62.8219 -6.69104 -0.444083
433 1 62.9526 -7.52645 -0.327044
304 1 63.9285 -7.60326 -1.02903
425 1 64.242 -5.46674 -1.6838
319 1 61.68 -6.65276 -1.23765
318 1 62.3772 -6.01669 -1.28568
431 1 62.782 -7.05623 -1.39504
430 1 63.0491 -7.41126 -2.32439
317 1 61.9585 -5.18293 -0.760541
423 1 64.0219 -6.49061 -0.534275
429 1 63.9891 -7.13426 -2.4754
424 1 63.5921 -6.10801 -1.2744
316 1 62.9674 -4.85568 -0.498221
436 1 65.4197 -6.81173 0.171647
437 1 65.3852 -7.76202 0.76413
434 1 63.5893 -7.01227 0.379753
435 1 64.5117 -7.0907 0.452642
305 1 64.8013 -7.11934 -0.774743
422 1 63.9005 -5.51256 -0.389413
306 1 65.7982 -7.21656 -0.840973
315 1 62.9701 -5.53312 0.350084
314 1 63.8812 -5.79013 0.716768
313 1 63.8066 -4.80758 0.393641
421 1 64.5264 -4.76829 -0.46193
308 1 66.1669 -6.17833 -0.448619
309 1 65.6511 -5.25622 -0.224518
307 1 66.5124 -7.07682 -0.0609064
311 1 65.1506 -5.83153 1.0706
310 1 64.9954 -5.96445 -0.0183823
312 1 64.8288 -5.04556 0.550547
393 1 113.705 84.7723 46.7894
272 1 113.934 82.4491 46.0026
395 1 114.211 83.957 45.3197
398 1 113.807 84.141 44.3606
396 1 114.758 84.1302 44.5492
15 1 75.6248 15.3271 48.1148
16 1 75.3883 14.3209 48.2112
17 1 75.9049 13.9928 47.5225
275 1 114.338 82.9085 44.8847
269 1 112.292 81.8243 45.1314
274 1 113.321 83.3436 44.9887
273 1 113.07 83.0091 45.8429
271 1 113.247 81.8898 45.7118
280 1 113.013 80.3059 43.9911
270 1 112.448 81.3738 46.0877
277 1 114.2 81.4969 44.8621
278 1 113.453 81.9801 44.5842
392 1 114.007 83.6079 46.7267
394 1 113.778 84.6432 45.8005
279 1 112.803 81.2657 44.4075
397 1 114.255 83.4354 43.9906
391 1 113.333 83.0058 46.9149
400 1 112.943 83.0207 43.9029
399 1 112.768 84.0606 44.2754
12 1 75.7417 16.4184 45.908
11 1 75.9822 16.9358 46.7623
20 1 76.7196 14.0836 46.3395
19 1 77.1413 14.0071 47.3314
14 1 75.3751 15.9395 47.4382
13 1 75.0288 15.8595 46.5299
8 1 75.9642 14.9928 46.8457
18 1 76.6214 14.7302 47.7103
6 1 76.9892 15.421 46.3025
5 1 77.7099 15.9171 45.7003
4 1 77.4397 16.0819 44.7234
3 1 76.6883 16.067 45.4116
2 1 76.1582 16.3135 44.6231
1 1 76.0204 15.1278 44.593
276 1 114.497 82.1639 44.2762
261 1 111.597 83.8221 46.6552
268 1 111.406 81.8499 45.1935
267 1 111.524 82.6229 44.6782
266 1 112.219 83.1451 45.1144
389 1 112.688 83.8829 46.5018
388 1 112.731 84.845 46.1411
382 1 113.595 86.211 45.419
265 1 111.998 82.7684 45.8811
390 1 112.342 82.9545 46.7673
381 1 112.557 85.9869 44.9708
383 1 113.984 85.3758 45.1302
384 1 113.098 84.9794 44.9905
385 1 112.819 84.0632 45.4472
10 1 77.0407 16.6143 46.5038
9 1 76.2557 15.9587 46.8675
7 1 76.2183 14.9976 45.8703
263 1 111.275 83.3413 45.611
262 1 110.66 83.7172 46.2988
264 1 110.993 82.6304 46.2251
387 1 112.113 84.9929 45.4056
386 1 111.985 84.1291 45.6924
342 1 110.249 101.42 54.1434
341 1 109.869 101.171 53.3369
343 1 110.04 102.166 53.3418
344 1 109.801 103.085 53.5434
82 1 105.92 103.081 55.1791
345 1 110.438 102.659 54.146
347 1 109.801 103.767 55.2689
346 1 110.065 103.569 54.3748
323 1 106.406 102.873 56.2696
83 1 106.369 103.123 54.2113
91 1 110.525 105.146 53.2706
95 1 107.132 105.118 54.4521
94 1 107.792 105.317 53.5884
96 1 107.754 105.846 54.9603
92 1 109.32 105.234 53.4168
93 1 108.585 105.44 54.1496
88 1 108.479 104.439 54.2838
201 1 106.254 105.204 55.3011
97 1 108.292 106.264 55.6741
357 1 107.358 102.577 53.5755
356 1 108.085 103.343 53.8443
358 1 108.064 102.083 52.8891
339 1 109.931 102.707 56.2448
360 1 109.121 102.334 53.8998
359 1 108.926 101.714 53.1015
340 1 109.948 101.988 55.3253
326 1 106.269 102.618 57.8172
355 1 108.757 103.5 54.6681
354 1 108.117 102.695 54.7336
81 1 105.661 104.038 54.9838
351 1 108.287 101.339 54.4104
348 1 109.161 103.36 55.9988
349 1 108.835 102.624 55.4798
321 1 105.394 103.444 56.3745
322 1 106.261 103.757 55.9673
324 1 107.355 103.059 56.1689
325 1 107.229 102.748 57.2998
352 1 107.562 101.594 53.9514
353 1 107.324 102.054 54.7342
407 1 108.523 104.362 56.771
84 1 107.061 104.006 54.4025
85 1 107.585 103.506 55.1753
218 1 110.733 103.979 56.3279
215 1 110.624 105.084 56.846
219 1 109.985 104.585 56.0147
217 1 110.494 103.555 57.2405
216 1 110.403 104.301 57.6021
410 1 107 103.642 56.9612
495 1 105.792 106.199 56.824
408 1 108.206 103.602 56.3886
203 1 107.555 105.032 55.8548
202 1 107.041 104.575 55.304
204 1 107.636 104.952 56.9007
90 1 110.309 104.856 54.2245
207 1 108.823 105.474 56.18
86 1 108.3 104.007 55.4124
87 1 108.331 104.99 55.0358
89 1 109.387 104.552 54.4285
213 1 110.844 104.995 55.1777
212 1 110.239 105.793 54.9648
494 1 106.315 106.978 56.7475
98 1 108.198 107.265 55.4368
209 1 109.511 106.879 55.5261
211 1 109.524 105.286 55.3377
210 1 109.091 106.06 54.8444
493 1 106.509 106.721 55.7746
99 1 107.371 107.532 55.9039
492 1 107.197 106.439 56.2538
491 1 107.406 107.076 56.9581
100 1 107.307 106.714 55.2935
373 1 110.484 107.891 57.6307
374 1 110.906 107.324 58.2273
375 1 110.814 106.61 57.5296
327 1 106.041 103.353 57.3755
328 1 105.429 102.602 57.1671
336 1 109.236 101.86 56.2301
335 1 108.252 101.811 56.1087
338 1 109.849 102.058 57.0363
337 1 109.957 101.29 56.2381
462 1 108.954 102.363 58.6803
461 1 108.568 101.643 59.4398
463 1 109.332 102.706 59.5995
329 1 105.583 101.567 57.5966
330 1 106.35 101.895 57.0544
333 1 108.768 101.912 57.5343
334 1 108.172 102.364 57.0358
350 1 109.003 101.754 54.8294
470 1 109.024 104.385 57.7573
220 1 109.611 104.087 56.5928
411 1 106.536 104.26 57.5794
496 1 105.438 105.544 57.5046
409 1 107.436 104.084 56.2374
405 1 108.196 104.289 58.3127
205 1 108.429 105.228 57.5267
469 1 109.273 103.417 57.2836
406 1 107.845 103.94 57.4405
206 1 109.366 105.154 56.8737
214 1 110.584 105.523 56.0114
471 1 109.69 104.826 58.2519
478 1 110.66 105.214 58.7196
477 1 111.568 104.785 58.6122
417 1 105.32 105.826 59.7007
497 1 105.607 106.442 57.938
487 1 106.657 106.692 57.8662
486 1 106.55 105.957 58.4559
485 1 106.489 105.383 57.6113
379 1 108.916 106.168 58.0717
380 1 108.669 106.144 59.1738
208 1 109.527 106.078 56.0157
378 1 108.331 106.783 57.5499
122 1 107.996 106.912 59.5711
480 1 109.908 106.098 58.4967
479 1 110.278 105.611 57.9382
377 1 108.926 106.145 56.8694
419 1 105.316 106.099 61.075
420 1 105.429 106.946 60.7435
418 1 104.939 105.312 60.512
498 1 105.357 107.267 58.4345
490 1 108.05 107.822 57.3915
489 1 107.566 107.22 58.0887
488 1 106.789 107.788 57.7244
376 1 110.121 106.284 56.9816
372 1 109.514 108.107 57.8026
371 1 108.807 107.537 58.1116
195 1 107.23 102.056 58.2225
464 1 109.854 103.414 59.8863
465 1 110.141 102.925 59.032
332 1 108.131 101.301 56.9782
331 1 107.245 101.764 56.8683
196 1 107.648 102.867 58.3558
468 1 108.635 103.231 57.9284
467 1 109.044 103.739 58.6639
475 1 110.095 104.234 58.8309
466 1 109.734 103.382 58.308
412 1 105.893 104.627 57.1176
415 1 105.219 105.642 58.582
413 1 105.056 104.358 57.6528
404 1 107.242 104.8 58.1855
197 1 107.139 103.77 58.2714
484 1 107.404 105.82 57.6172
474 1 109.463 104.507 59.4351
198 1 106.582 103.776 59.1846
472 1 109.006 105.339 58.7613
473 1 109.848 105.44 59.3208
476 1 110.947 104.34 59.2149
416 1 104.498 105.427 59.3024
499 1 105.005 107.405 57.5205
500 1 105.912 108.013 57.2725
414 1 105.346 104.745 58.3107
482 1 107.382 106.451 58.8527
481 1 106.798 107.244 58.8276
483 1 107.971 105.693 58.4352
181 1 109.076 105.658 60.0137
121 1 108.752 107.432 59.1845
361 1 110.496 104.511 60.3817
123 1 107.638 107.618 59.9739
369 1 108.269 108.452 59.4816
124 1 107.892 107.026 60.6465
368 1 108.881 107.757 60.1549
367 1 109.092 106.85 60.0657
365 1 110.769 106.277 59.4159
366 1 109.91 106.311 59.8851
370 1 108.091 108.117 58.6466
192 1 107.123 102.769 59.2103
194 1 107.075 101.69 59.1202
191 1 108.13 102.672 59.2619
193 1 106.787 102.239 59.9621
403 1 106.277 104.878 58.8625
200 1 108.426 103.959 59.4718
401 1 106.539 105.693 59.716
199 1 107.499 104.236 59.3148
136 1 110.482 102.641 60.2843
362 1 110.656 105.058 61.2082
134 1 109.485 103.29 61.5371
135 1 110.333 102.704 61.2028
402 1 105.903 104.97 59.8107
183 1 107.453 105.474 59.2898
182 1 108.27 105.041 59.5546
184 1 107.934 105.95 60.0832
364 1 110.906 106.863 60.2311
129 1 108.613 104.58 60.4011
363 1 110.691 105.818 60.6143
131 1 109.524 104.194 60.6731
125 1 108.898 106.957 61.0339
126 1 109.812 106.322 60.8638
189 1 107.382 102.984 60.3794
190 1 108.257 102.589 60.1564
138 1 108.679 102.55 61.1866
187 1 107.106 104.721 60.1978
188 1 106.65 103.814 60.4481
137 1 109.496 102.369 60.5666
139 1 108.115 103.298 61.349
133 1 108.825 104.091 61.5289
185 1 107.15 106.29 60.4295
186 1 106.682 105.444 60.8969
128 1 108.69 105.351 61.0748
132 1 109.858 104.393 61.5647
130 1 108.675 103.575 60.3927
127 1 109.636 105.527 61.2778
140 1 107.68 104.209 61.0139
21 1 106.406 92.293 65.795
260 1 103.794 92.3201 63.5397
168 1 105.26 92.6062 65.4951
259 1 104.681 92.6628 63.4547
251 1 106.186 92.4288 64.3636
252 1 105.643 91.9181 63.8262
253 1 104.834 91.6554 63.1867
254 1 105.188 90.7913 63.1845
250 1 106.942 92.6847 64.8593
179 1 106.258 93.6072 66.1625
258 1 104.386 92.4283 64.337
257 1 103.637 91.8892 64.5809
256 1 104.358 91.4196 64.0832
255 1 104.384 90.5208 63.9029
178 1 105.82 93.549 65.2519
34 1 106.623 88.8873 66.3027
35 1 105.765 88.3382 66.679
33 1 106.531 89.9549 65.978
32 1 107.245 90.5843 65.9408
22 1 107.285 92.0782 65.9893
29 1 106.266 91.6322 65.0386
30 1 107.025 91.7114 64.5985
169 1 104.749 93.3767 64.9067
28 1 105.387 91.1575 64.6138
167 1 105.446 91.8058 66.143
243 1 107.186 94.2594 66.3559
246 1 106.151 93.7037 67.5564
249 1 107.463 93.0577 65.6611
23 1 107.513 91.3812 66.5908
242 1 107.838 94.3213 67.2146
241 1 108.632 94.4599 66.8225
170 1 104.512 93.3244 65.8479
171 1 105.223 93.4974 66.4099
180 1 105.968 92.6997 66.6523
174 1 107.291 95.3129 66.1879
248 1 107.004 93.1435 66.7405
244 1 106.208 94.5137 66.867
175 1 107.489 94.7519 65.4795
176 1 107.383 93.9331 64.9259
177 1 106.468 94.1333 64.823
36 1 106.387 88.6658 67.457
37 1 105.947 89.3412 67.9406
38 1 106.721 90.0015 67.8158
31 1 107.083 90.719 65.0552
165 1 105.414 92.264 67.4445
26 1 105.591 90.7627 66.1981
25 1 106.484 91.2962 66.1682
40 1 106.792 90.7095 66.9246
24 1 106.745 91.7363 67.1025
166 1 105.695 91.5335 67.0079
247 1 106.631 92.8415 67.5373
245 1 106.749 94.4379 67.8086
27 1 105.762 90.5893 65.2913
172 1 105.497 94.4214 65.9517
173 1 106.407 94.8288 65.7135
161 1 105.989 89.634 66.8234
162 1 105.614 90.5937 67.3874
163 1 106.083 90.8771 68.0157
39 1 107.015 89.7444 66.9225
164 1 105.441 91.4531 68.0334
71 1 -6.39697 89.2606 77.1424
72 1 -6.65759 89.4853 77.9558
63 1 -3.93152 90.9885 79.8071
62 1 -4.61672 90.2576 79.6021
61 1 -4.79773 90.0742 78.5962
76 1 -5.20782 90.9893 78.6248
73 1 -6.82507 90.2412 77.4083
74 1 -5.96752 90.4754 77.8879
77 1 -5.12209 91.6682 79.2501
78 1 -4.42598 91.9859 79.945
70 1 -5.55221 89.9158 76.9009
64 1 -4.23505 91.1578 78.9896
65 1 -3.54496 90.3596 79.1824
75 1 -5.8392 91.4154 77.9244
66 1 -3.76936 90.0172 78.2366
67 1 -3.93386 90.9908 78.0506
68 1 -4.86324 91.0858 77.6723
79 1 -5.2915 91.665 80.3346
69 1 -4.63082 90.1052 77.4707
80 1 -6.23911 91.2046 80.2503
449 1 -37.4893 -21.7035 96.412
448 1 -36.642 -21.1697 96.685
447 1 -37.1847 -20.719 96.081
452 1 -36.7062 -22.2445 94.5654
441 1 -37.7266 -22.1657 93.0978
450 1 -36.6509 -22.193 96.5892
451 1 -36.8267 -22.3181 95.6003
459 1 -36.6341 -23.4409 95.6815
460 1 -35.7191 -23.6508 96.017
458 1 -36.9706 -23.1707 94.8093
225 1 90.8114 -15.4155 95.272
226 1 90.0457 -14.8947 94.8193
231 1 91.1503 -13.4759 95.9081
228 1 90.0062 -13.7648 95.1092
224 1 90.918 -15.776 96.079
223 1 91.8564 -16.0969 95.7011
240 1 90.0442 -14.7113 96.007
222 1 91.9189 -15.1293 95.6809
232 1 91.5662 -13.4666 96.8174
443 1 -36.7337 -21.2238 93.8521
442 1 -37.3124 -21.2947 92.976
446 1 -37.8367 -20.8416 95.3437
444 1 -37.6212 -21.3522 94.0771
445 1 -37.0764 -21.1905 94.9488
454 1 -37.95 -23.1888 95.2383
453 1 -37.6311 -22.2093 94.921
456 1 -37.9379 -22.8699 94.1485
455 1 -38.2812 -23.7277 94.5302
457 1 -36.9536 -23.0876 93.8099
227 1 89.8028 -14.2515 94.3524
236 1 90.0221 -15.7019 97.282
237 1 89.8668 -15.6556 96.3832
238 1 89.1276 -15.0281 96.683
230 1 90.8347 -14.3442 95.426
229 1 90.8805 -13.5376 94.6686
234 1 90.7316 -14.6775 97.2164
239 1 89.1536 -15.0848 95.6456
221 1 91.5245 -14.8961 96.4322
235 1 90.7949 -15.4033 97.8804
233 1 90.6799 -14.063 96.5523
49 1 27.3722 53.0341 102.797
58 1 28.6085 52.4035 103.257
48 1 27.4114 52.0354 102.479
57 1 29.5306 52.4403 103.593
45 1 27.9921 50.58 102.706
43 1 29.1094 50.5676 103.139
44 1 28.866 50.8021 102.286
41 1 29.8297 51.52 103.069
52 1 30.2352 52.6816 102.722
51 1 29.2567 52.9271 102.743
53 1 31.1729 52.7897 102.165
54 1 31.5532 52.6557 103.039
59 1 28.516 52.2049 104.223
50 1 28.3647 53.3092 102.722
47 1 28.4774 51.9216 102.349
56 1 30.545 52.2051 103.683
55 1 30.9256 51.7321 102.97
42 1 29.1988 51.3162 103.899
46 1 28.229 51.3719 103.183
60 1 28.35 53.1315 103.978
ITEM: TIMESTEP
45000
ITEM: NUMBER OF ATOMS
500
ITEM: BOX BOUNDS pp pp pp
-6.5495620439091624e+01 1.2549562043909221e+02
-6.5495620439091624e+01 1.2549562043909221e+02
-6.5495620439091624e+01 1.2549562043909221e+02
ITEM: ATOMS id type x y z
297 1 39.0396 -44.5656 -52.6294
296 1 39.5533 -43.6019 -52.6818
293 1 37.6583 -43.5383 -53.2856
298 1 38.5036 -44.6601 -51.727
299 1 37.8329 -44.8743 -52.3455
300 1 37.1517 -44.1003 -52.5174
295 1 38.8623 -43.5735 -51.8445
294 1 38.1771 -43.696 -52.5009
292 1 38.654 -43.2334 -53.3399
291 1 38.7423 -43.1378 -54.2416
285 1 36.9535 -45.1091 -54.2208
283 1 38.2798 -44.5062 -53.4043
290 1 37.7248 -43.11 -54.1577
286 1 36.9775 -44.0829 -53.9707
284 1 37.321 -44.7919 -53.3688
287 1 37.8124 -44.3637 -54.4747
282 1 39.0763 -44.1137 -53.8517
289 1 37.8095 -43.4097 -55.0723
288 1 37.7299 -44.364 -55.5173
281 1 39.3584 -45.1101 -53.709
113 1 10.1744 104.879 -41.9469
112 1 9.47496 104.478 -42.4838
110 1 9.89805 103.036 -41.4091
111 1 9.36705 103.663 -41.817
114 1 10.4382 104.105 -41.586
115 1 11.3122 103.49 -41.7977
109 1 10.1715 102.812 -42.4044
119 1 10.5998 103.447 -43.6794
120 1 9.61764 103.717 -43.3678
108 1 10.3839 103.724 -42.6422
116 1 12.0968 104.107 -41.809
106 1 11.2677 104.489 -42.4029
107 1 10.4868 104.648 -42.9354
118 1 11.3868 103.776 -43.091
104 1 11.469 104.754 -43.4666
101 1 8.99315 104.264 -44.0348
102 1 9.79359 104.738 -43.8097
117 1 12.2732 104.22 -42.8366
105 1 11.8493 105.167 -42.4339
103 1 10.6544 104.54 -44.0623
142 1 88.8227 -44.6556 -15.6161
141 1 87.9716 -45.023 -15.8655
149 1 88.3217 -43.5607 -16.1405
145 1 86.816 -44.4394 -15.2813
143 1 88.3232 -44.0453 -15.0241
144 1 87.3487 -43.8765 -14.6849
147 1 87.0885 -43.2961 -15.7547
146 1 87.2419 -44.2083 -16.1331
148 1 87.8294 -42.7868 -16.0606
157 1 87.175 -43.6269 -17.0845
151 1 88.3957 -43.6002 -17.4597
150 1 88.7512 -43.0442 -16.8578
156 1 87.336 -43.1627 -18.0321
160 1 86.1873 -43.831 -15.9239
159 1 86.4548 -44.3308 -16.785
154 1 86.9704 -44.8999 -17.8568
158 1 86.4606 -43.8385 -17.6968
152 1 88.2938 -44.4262 -16.9185
153 1 87.4319 -44.7953 -16.939
155 1 87.6623 -44.1446 -18.0262
302 1 66.8641 -9.88755 -2.73218
301 1 67.3818 -9.02841 -3.20402
430 1 64.6517 -9.84858 -2.75657
428 1 65.2013 -9.10966 -3.45803
429 1 65.4028 -10.1906 -3.32992
303 1 66.1147 -9.41551 -3.17894
319 1 63.7353 -9.15108 -1.84187
431 1 65.1966 -9.74349 -2.02846
427 1 64.8818 -8.91921 -4.33826
304 1 66.3226 -9.10321 -2.31211
320 1 63.5571 -9.9557 -2.41478
318 1 63.5855 -8.2919 -2.11781
424 1 65.2343 -8.48656 -2.62945
426 1 65.0649 -8.08042 -3.87901
425 1 64.4552 -8.529 -3.24423
440 1 66.2551 -9.53093 -0.630227
439 1 66.0461 -10.073 -1.48594
438 1 67.114 -10.0029 -1.46264
432 1 64.9226 -9.33817 -1.14461
433 1 65.4208 -8.55592 -1.23603
434 1 66.3577 -8.61104 -1.12728
435 1 67.0806 -8.68184 -0.379086
305 1 66.8673 -8.30114 -2.39796
436 1 67.5209 -8.28678 -1.31816
306 1 66.1436 -8.28505 -3.1253
307 1 66.2738 -8.07838 -3.94908
317 1 64.1149 -8.12204 -1.26858
315 1 65.3125 -7.09592 -1.1297
423 1 65.4721 -7.43606 -3.03001
422 1 65.1447 -6.72417 -3.80607
310 1 66.547 -7.03747 -2.62561
308 1 67.0342 -7.74646 -3.25982
309 1 67.4441 -7.16094 -2.32624
316 1 64.8585 -7.91856 -1.8002
313 1 66.867 -7.67745 -0.646219
421 1 66.1491 -6.92714 -3.63575
437 1 67.3093 -9.20466 -1.7665
314 1 65.7409 -7.6755 -0.60822
311 1 65.9675 -7.68946 -2.07888
312 1 66.6712 -7.65522 -1.59183
280 1 121.187 87.2764 50.1735
400 1 119.671 85.6905 47.5345
397 1 120.669 87.3112 46.3444
1 1 77.3107 15.1195 46.7487
2 1 76.7866 14.2941 47.1387
4 1 77.7872 14.0755 47.7602
3 1 77.7393 13.996 46.7137
268 1 117.156 84.8316 46.3716
269 1 117.424 84.3817 47.067
279 1 120.883 87.0923 49.1863
277 1 119.839 85.5475 48.633
267 1 118.001 85.0231 46.0864
266 1 117.557 85.5009 45.3767
274 1 118.432 86.3422 47.8904
278 1 120.133 86.5989 48.7478
275 1 118.306 85.84 48.6775
276 1 119.232 86.2539 49.0832
399 1 120.376 86.5731 47.6677
385 1 117.226 86.7636 44.3825
398 1 120.539 86.4625 46.7207
395 1 119.405 87.3036 46.5224
396 1 120.159 87.6126 47.1098
381 1 119.427 86.3095 44.8812
387 1 116.597 85.8592 44.813
383 1 118.715 85.7521 45.2773
384 1 118.125 86.5901 44.7721
382 1 118.957 86.4424 45.7532
20 1 78.1986 15.8381 49.6233
13 1 79.5385 13.9245 47.9072
8 1 78.192 15.3781 48.6225
7 1 78.5613 14.7942 49.3075
6 1 78.6707 13.86 49.2298
5 1 78.455 14.0155 48.2779
12 1 79.7923 14.7509 47.634
11 1 79.21 15.0471 48.4226
10 1 79.155 15.8033 47.7286
270 1 118.243 84.8541 47.2897
271 1 118.393 85.6731 47.094
263 1 117.319 86.1379 47.0874
264 1 117.998 86.6105 46.8777
265 1 117.917 86.2283 45.9975
390 1 118.26 87.272 45.8914
272 1 119.02 86.3178 46.9611
273 1 119.295 86.7002 48.0153
262 1 116.709 85.8702 46.2503
261 1 116.33 86.8452 46.3502
389 1 117.352 87.2322 46.1222
386 1 116.364 86.2092 43.9716
392 1 119.008 88.0894 47.2587
394 1 119.524 87.9131 45.7302
388 1 116.799 86.668 45.3967
393 1 119.466 88.5138 46.4006
16 1 77.2749 14.936 47.8474
17 1 76.9106 15.6241 48.2831
19 1 77.2637 15.7071 49.2975
15 1 78.1193 15.2668 47.417
14 1 78.7337 14.4512 47.3136
9 1 78.4834 16.2239 48.4044
18 1 76.5447 15.0649 49.1407
391 1 118.311 88.0692 46.4737
341 1 114.214 107.286 54.8939
357 1 113.094 108.487 56.5697
358 1 112.134 108.195 56.2808
359 1 112.22 107.362 55.8998
343 1 113.709 108.169 54.5752
356 1 113.074 107.41 56.3745
344 1 114.667 108.676 54.9727
94 1 112.485 112.774 55.4084
92 1 112.754 112.348 54.2194
91 1 112.312 111.593 54.5776
351 1 112.541 106.772 58.7906
342 1 113.52 108.017 55.4889
354 1 112.424 106.322 56.3595
352 1 112.096 106.876 57.9618
353 1 111.902 106.744 56.9023
360 1 112.33 106.586 55.0959
350 1 113.183 106.335 58.1466
345 1 114.977 107.878 55.4408
81 1 112.761 111.199 56.178
82 1 111.867 111.102 55.6286
83 1 111.275 110.369 55.2589
84 1 111.205 109.319 55.4045
85 1 111.44 109.611 56.2967
355 1 112.996 106.713 57.0816
346 1 114.832 108.505 56.1797
95 1 112.023 112.505 55.9068
93 1 113.059 112.065 55.2683
88 1 112.971 109.954 56.0995
87 1 112.498 109.382 56.8008
89 1 112.363 109.687 55.5339
90 1 112.378 110.554 54.7789
213 1 114.497 110.453 56.5726
96 1 112.875 112.168 56.3683
210 1 113.82 110.022 57.7676
212 1 114.133 109.495 56.3132
337 1 115.269 107.831 57.3234
323 1 111.18 107.682 57.6528
335 1 115.627 108.09 58.8394
339 1 116.08 107.511 56.8415
340 1 115.505 107.464 56.405
349 1 113.776 107.138 58.0876
336 1 115.48 108.631 58.0184
321 1 111.078 107.945 55.7486
322 1 111.347 107.946 56.7844
324 1 111.998 108.311 57.7418
408 1 111.857 109.573 57.6535
86 1 111.602 108.92 56.915
409 1 111.233 110.32 57.5622
347 1 114.406 107.7 56.4705
348 1 114.03 107.165 57.1498
220 1 113.037 108.001 57.9086
218 1 114.501 108.307 57.8777
201 1 111.825 111.692 56.543
202 1 111.065 111.009 56.4951
203 1 112.01 110.582 56.6257
219 1 113.794 108.191 57.218
207 1 113.911 110.514 59.0678
211 1 113.482 109.776 57.1175
214 1 114.886 110.567 57.6665
493 1 110.915 111.694 58.8346
492 1 111.435 111.253 58.0065
97 1 113.683 112.39 56.8976
100 1 114.72 111.801 58.0625
209 1 114.22 109.421 58.3572
208 1 114.783 110.247 58.6747
98 1 113.772 111.299 56.644
99 1 113.906 111.478 57.7007
332 1 114.494 107.95 58.9986
328 1 111.114 106.701 58.9087
329 1 111.771 107.386 59.3467
326 1 111.099 108.436 58.1959
330 1 112.666 107.769 59.1771
325 1 111.959 108.642 58.6195
334 1 115.191 107.25 59.4866
331 1 113.695 107.564 59.2098
338 1 116.269 108.052 57.6227
333 1 114.743 107.043 58.5305
413 1 110.917 110.025 60.034
410 1 110.91 110.473 58.5311
327 1 110.782 107.548 58.71
411 1 111.388 109.551 58.7607
407 1 112.768 109.174 57.9627
406 1 113.381 108.942 58.667
470 1 115.781 108.745 59.6667
469 1 114.965 108.429 59.8698
468 1 114.368 107.929 60.4599
217 1 114.512 109.067 57.1772
216 1 115.407 108.916 56.9828
496 1 110.65 111.065 59.559
485 1 111.595 110.885 59.1866
412 1 110.574 109.315 59.3487
204 1 112.541 110.463 57.5433
205 1 112.185 110.286 58.5241
206 1 113.046 110.399 58.5371
215 1 115.392 109.647 57.725
479 1 114.683 110.711 61.6182
495 1 109.938 111.109 58.8913
497 1 110.174 111.621 59.9714
494 1 110.11 111.844 58.238
487 1 111.949 112.269 58.0967
491 1 112.29 111.291 58.3169
378 1 112.522 111.443 60.9793
484 1 112.388 110.704 59.5378
379 1 112.162 112.316 60.913
377 1 112.95 111.788 59.9639
375 1 114.315 110.949 60.4541
376 1 113.37 110.83 59.9764
499 1 111.121 112.26 60.808
488 1 112.751 112.657 57.7708
500 1 111.194 112.217 59.8412
490 1 113.235 111.737 58.4542
372 1 114.521 112.087 61.0924
373 1 114.524 112.164 60.0585
192 1 111.175 107.686 60.4844
194 1 112.215 106.691 61.9792
461 1 113.708 105.062 61.5803
195 1 113.206 106.719 61.7083
196 1 113.194 106.717 60.7334
191 1 112.191 107.393 60.3023
462 1 113.662 105.508 60.8771
465 1 114.492 106.146 60.2508
197 1 113.097 106.687 59.7469
198 1 113.142 107.741 60.0754
405 1 112.639 109.486 59.114
199 1 113.099 108.743 59.9018
467 1 114.055 107.039 59.9898
466 1 114.318 106.504 59.2758
475 1 115.069 108.44 61.0805
476 1 115.761 108.947 61.5811
415 1 109.833 109.38 60.322
416 1 109.917 110.467 60.5432
414 1 110.76 109.101 60.3841
403 1 112.066 108.841 59.7007
404 1 111.885 109.808 59.6849
483 1 111.896 111.344 60.1804
183 1 113.101 108.762 61.9652
471 1 115.183 109.012 59.1361
474 1 114.414 109.088 60.6744
472 1 114.253 109.222 59.5371
473 1 114.641 109.921 60.2943
478 1 114.934 109.868 61.3037
477 1 115.127 109.263 62.1888
486 1 111.935 111.941 59.1794
482 1 111.624 110.608 60.7745
380 1 111.687 111.468 61.4582
480 1 114.145 110.104 62.0958
365 1 114.131 112.103 63.0451
498 1 110.897 111.414 60.5819
481 1 111.73 110.138 61.6591
489 1 112.924 111.852 57.42
370 1 113.347 112.219 61.3186
371 1 113.97 111.564 61.2815
121 1 113.981 110.173 61.1559
374 1 114.404 111.347 59.4455
193 1 111.855 107.291 61.261
190 1 112.394 108.29 60.6657
463 1 114.118 106.092 61.4055
137 1 114.26 106.064 62.797
136 1 115.209 106.25 62.7089
188 1 112.871 107.694 62.0274
200 1 113.272 109.748 59.9178
189 1 113.15 107.859 61.0551
464 1 114.608 106.757 61.1612
131 1 114.029 107.521 61.5363
130 1 114.446 108.231 61.9251
418 1 111.025 109.027 61.5574
401 1 112.246 109.307 61.5577
402 1 111.922 109.285 60.6319
187 1 112.548 107.186 62.926
182 1 113.124 108.988 61.0794
181 1 114.064 109.14 61.6923
129 1 115.34 108.244 62.426
361 1 115.556 111.378 62.4009
417 1 110.608 109.899 61.0731
420 1 111.822 108.224 62.0641
185 1 112.608 107.954 63.6638
122 1 113.205 110.764 61.5617
124 1 113.075 109.814 61.8883
184 1 112.765 108.526 62.7406
367 1 113.237 110.591 62.851
366 1 113.703 111.549 62.4864
126 1 113.516 109.602 62.7552
364 1 113.498 111.467 63.4611
363 1 114.165 110.854 63.5162
123 1 112.831 110.051 60.96
369 1 112.678 111.803 61.929
368 1 112.427 111.126 62.359
138 1 113.361 106.244 62.6345
135 1 115.322 107.23 62.8376
139 1 112.857 105.95 63.3247
140 1 112.336 106.65 63.8926
134 1 114.487 107.225 63.3115
133 1 113.65 107.712 62.7527
132 1 114.252 107.106 62.3195
186 1 111.846 107.741 62.9742
128 1 114.604 108.179 63.1188
127 1 114.303 109.027 62.7448
362 1 114.678 111.092 62.6771
419 1 111.419 108.277 61.2572
125 1 112.563 109.757 62.651
253 1 111.385 95.0275 65.4266
254 1 110.53 94.9812 65.2179
260 1 110.45 97.639 66.3219
259 1 110.101 96.8307 65.9444
256 1 111.397 95.0861 66.8833
255 1 110.622 95.1069 66.1122
28 1 110.961 93.4937 67.3609
29 1 111.392 94.1156 66.6417
30 1 112.239 94.482 66.9434
31 1 112.82 94.0445 67.7574
257 1 110.421 95.4307 67.0791
252 1 112.08 95.1475 66.1546
258 1 110.748 96.049 66.3453
251 1 112.07 95.8263 66.7991
250 1 111.253 96.0438 67.3023
169 1 109.273 95.3032 67.7724
177 1 109.694 96.3122 67.3538
176 1 109.122 96.2063 66.4422
34 1 112.112 94.5312 69.5177
33 1 112.455 94.6242 68.5802
26 1 111.051 94.5961 67.7511
27 1 110.422 94.2806 67.0778
25 1 111.344 94.7742 68.5621
32 1 111.949 93.999 67.9988
168 1 109.776 95.8726 68.3581
167 1 110.624 95.5525 68.1927
21 1 111.804 95.4538 67.9525
22 1 112.633 95.2594 67.5037
249 1 111.196 97.0164 67.042
170 1 108.375 95.8083 67.8422
171 1 108.534 96.5417 68.3018
172 1 109.345 96.8507 68.3046
179 1 110.69 96.514 68.7195
178 1 110.482 96.6568 67.8664
243 1 110.369 98.5694 68.5924
173 1 109.39 97.5225 67.6296
174 1 109.496 97.3875 66.5723
175 1 108.879 96.706 67.0886
35 1 112.934 95.1582 69.4425
36 1 113.422 94.5581 68.9146
38 1 111.969 93.3785 69.6183
161 1 109.59 96.2457 69.7054
39 1 111.392 93.6292 68.9397
166 1 110.031 94.7559 68.0559
162 1 109.894 97.3031 69.6762
40 1 110.51 94.1644 68.9468
24 1 111.983 95.4298 69.1165
23 1 112.802 95.6587 68.423
165 1 110.031 95.015 68.9218
180 1 111.648 96.323 68.5017
248 1 112.159 97.1158 67.0282
247 1 112.398 96.4199 67.6675
246 1 112.553 97.3058 68.069
244 1 111.295 98.2546 68.6887
245 1 111.498 97.3596 68.1379
242 1 110.262 97.4881 68.4209
241 1 110.594 97.9525 67.686
37 1 112.938 93.6688 69.1544
164 1 110.748 95.6005 69.2249
163 1 110.636 96.4634 69.7275
73 1 -8.08732 94.5949 81.8573
71 1 -7.28762 93.4636 81.1457
70 1 -8.35144 93.3758 80.8605
69 1 -8.41166 94.3206 80.1987
68 1 -8.55026 94.1337 79.2604
72 1 -7.94365 93.6816 81.7843
61 1 -5.60419 93.3098 80.7537
66 1 -6.8146 94.0231 80.0005
76 1 -7.59052 95.5971 81.2517
74 1 -8.85613 94.2404 81.2833
75 1 -8.55351 95.1215 81.0642
64 1 -5.89682 95.1792 79.7523
67 1 -7.61913 94.5351 79.5345
62 1 -6.02338 94.213 81.144
77 1 -7.83382 95.3048 80.2923
79 1 -6.94946 94.7111 81.5374
80 1 -6.36546 94.4897 82.4018
63 1 -5.90125 95.0786 80.7236
65 1 -6.41893 94.4891 79.366
78 1 -7.66632 94.5553 80.772
441 1 -39.2188 -23.7493 99.6016
442 1 -39.2128 -24.6595 99.2401
455 1 -40.7932 -25.2377 99.0519
456 1 -39.9418 -24.9951 98.3739
457 1 -39.6336 -24.0574 98.5538
444 1 -40.1043 -25.2813 99.7355
443 1 -39.5082 -24.6182 100.133
227 1 95.4323 -16.857 99.9253
459 1 -40.7662 -23.7462 98.7387
454 1 -41.656 -25.3251 98.5731
453 1 -40.9793 -24.8276 98.1033
452 1 -40.7657 -25.7959 98.0857
451 1 -40.1341 -26.545 98.378
458 1 -40.2205 -23.9143 99.4555
446 1 -40.4168 -26.2821 99.5017
445 1 -39.7332 -25.8177 99.0356
239 1 93.629 -17.3947 99.7365
225 1 94.939 -17.7571 99.8843
223 1 94.5023 -18.7551 99.8389
222 1 93.7095 -19.1163 100.423
226 1 94.6805 -17.1795 99.2236
228 1 95.0101 -16.975 100.87
230 1 95.4018 -17.6567 101.534
229 1 96.0175 -17.5696 100.767
231 1 96.358 -17.3371 101.826
460 1 -40.0191 -23.0425 98.8059
450 1 -40.0763 -26.6693 97.3647
449 1 -40.9902 -27.1969 97.5168
448 1 -41.8141 -26.7897 98.1197
447 1 -41.2185 -26.6162 99.0484
236 1 93.4248 -17.2867 101.67
237 1 93.8697 -17.0218 100.779
238 1 93.0608 -16.747 100.447
224 1 95.5486 -18.5972 99.8273
240 1 93.3255 -17.0673 98.9317
234 1 94.4648 -17.1602 101.792
221 1 93.9732 -18.2512 100.631
233 1 95.1883 -16.5472 101.808
232 1 95.9993 -16.6438 101.284
235 1 94.2036 -18.042 101.743
45 1 30.7961 55.1499 107.617
44 1 29.9171 55.2566 107.853
48 1 30.0436 53.3521 107.527
47 1 29.4898 53.9134 107.039
55 1 29.1422 51.9664 108.505
49 1 30.8128 53.7012 107.434
50 1 31.0392 52.7447 107.684
51 1 30.7376 52.1658 106.834
52 1 30.0899 52.1021 107.616
53 1 29.5874 52.6924 106.919
43 1 29.0619 55.0147 107.379
59 1 29.8889 53.2118 108.573
46 1 30.202 54.4084 107.151
58 1 29.7399 54.1871 108.239
57 1 29.0394 53.5239 107.944
41 1 28.2635 54.3543 107.707
42 1 28.6302 55.1683 108.243
56 1 28.7684 52.9704 108.753
60 1 30.3825 53.0895 109.356
54 1 28.9761 52.5214 107.693
ITEM: TIMESTEP
46000
ITEM: NUMBER OF ATOMS
500
ITEM: BOX BOUNDS pp pp pp
-6.7347386257369521e+01 1.2734738625737012e+02
-6.7347386257369521e+01 1.2734738625737012e+02
-6.7347386257369521e+01 1.2734738625737012e+02
ITEM: ATOMS id type x y z
287 1 38.1645 -45.7792 -54.4159
289 1 37.2532 -45.271 -53.6898
288 1 37.1903 -46.0585 -54.2683
285 1 39.1925 -44.9045 -54.7025
283 1 38.8658 -46.0187 -55.1338
284 1 39.3733 -45.3847 -55.6655
281 1 38.2057 -46.9429 -53.9936
286 1 39.0436 -45.7292 -54.1131
293 1 38.3169 -44.9368 -55.277
290 1 38.2396 -44.8686 -53.7941
292 1 38.0684 -44.0247 -55.3958
291 1 37.8332 -44.3369 -54.4706
282 1 38.7823 -46.8489 -54.6852
299 1 37.6927 -44.5911 -56.7848
297 1 38.3168 -45.4735 -56.1491
298 1 38.5788 -44.4876 -56.2804
300 1 38.2869 -44.2559 -57.3955
294 1 37.4162 -45.3828 -55.2208
296 1 38.2671 -46.4613 -55.983
295 1 37.8095 -46.3242 -55.2114
120 1 9.87974 105.34 -43.3062
101 1 9.4554 106.16 -43.9421
119 1 9.59791 104.899 -44.1442
118 1 9.17999 104.841 -45.0348
102 1 9.03834 106.657 -44.6239
104 1 9.08677 106.344 -45.598
103 1 8.63544 105.808 -44.8894
109 1 10.9179 105.076 -44.1059
111 1 11.5567 106.013 -43.7646
115 1 9.73672 104.7 -45.8508
108 1 10.49 105.896 -44.1058
116 1 9.2135 104.574 -46.6017
117 1 8.86834 105.304 -45.8887
113 1 10.7611 105.723 -45.1552
112 1 11.646 105.706 -44.6709
106 1 9.7787 105.732 -44.8699
107 1 10.1214 106.614 -44.7703
105 1 9.8141 105.729 -45.7816
110 1 10.9993 105.506 -43.2192
114 1 10.3755 104.789 -45.0953
154 1 88.9297 -44.6866 -16.0419
156 1 89.4351 -44.764 -17.1694
155 1 89.2422 -43.9567 -16.475
153 1 88.3311 -45.095 -16.77
152 1 88.2847 -46.0672 -16.533
157 1 90.1671 -44.183 -17.0699
159 1 90.1519 -44.8477 -16.2182
158 1 90.2891 -43.9875 -16.0329
151 1 87.4324 -45.9307 -16.9233
150 1 87.8674 -45.8898 -17.8105
142 1 88.7325 -46.6911 -17.5678
141 1 88.9686 -45.7584 -17.4349
145 1 89.8268 -46.2951 -17.6838
147 1 90.4106 -45.2718 -17.9257
146 1 90.5484 -45.8821 -17.0851
160 1 89.4579 -45.6713 -16.3427
149 1 88.5487 -45.2439 -18.2673
143 1 88.7747 -46.3798 -18.4807
148 1 89.5499 -45.51 -18.3724
144 1 89.6862 -46.674 -18.5228
427 1 65.522 -10.0514 -3.73881
426 1 64.7244 -9.50823 -3.91098
307 1 66.3697 -8.33441 -3.98895
422 1 64.5255 -8.49156 -3.7495
320 1 64.9566 -8.94785 -1.52959
430 1 65.622 -9.65846 -2.23239
429 1 65.4458 -10.6762 -2.36339
303 1 66.4156 -10.3303 -2.06394
302 1 66.6018 -10.8835 -2.61339
425 1 64.7639 -9.77569 -2.93841
428 1 65.1295 -10.7471 -3.29973
304 1 66.3234 -9.88765 -2.89486
424 1 63.8338 -9.45592 -3.1925
306 1 65.4271 -8.5808 -3.35573
301 1 67.3202 -10.9565 -3.39811
305 1 66.1539 -9.12901 -3.35402
423 1 64.4651 -8.67508 -2.83285
421 1 64.5925 -7.61792 -4.4829
310 1 66.9808 -8.10318 -2.3162
308 1 65.7765 -7.63514 -3.76586
309 1 66.2729 -7.8194 -2.90805
432 1 66.0163 -9.59843 -1.16886
431 1 66.164 -8.96129 -1.95565
439 1 68.9908 -9.85646 -2.18027
438 1 68.3072 -9.65969 -2.9446
318 1 64.3184 -7.81681 -2.3996
319 1 64.3773 -8.05368 -1.40835
317 1 65.2796 -8.0405 -2.35423
433 1 66.958 -9.45035 -1.49264
434 1 67.6607 -10.0486 -1.99717
436 1 67.2461 -8.80538 -3.15602
437 1 67.3845 -9.78789 -3.08059
316 1 65.2738 -7.07051 -2.71612
315 1 65.5212 -6.6876 -1.94414
311 1 66.7778 -7.05937 -2.0201
312 1 66.1065 -7.76753 -1.81692
440 1 69.5182 -9.0088 -1.79805
435 1 67.7053 -9.01412 -2.36322
314 1 65.107 -7.20186 -1.17865
313 1 65.6177 -8.05362 -1.022
386 1 121.085 86.5802 45.1519
387 1 120.872 85.7363 45.6761
266 1 120.58 85.687 46.6861
383 1 121.437 86.5207 47.0701
388 1 119.974 85.9449 45.3111
385 1 121.594 86.6032 45.9374
384 1 122.318 86.4511 46.6097
381 1 121.977 88.0352 46.023
3 1 77.1892 14.8645 47.8821
1 1 78.7754 13.6775 48.4867
262 1 118.295 87.5631 46.7567
268 1 119.345 86.1034 47.2341
267 1 119.611 85.5464 46.461
261 1 117.69 87.1714 46.1213
264 1 119.547 87.0951 46.1525
265 1 120.503 86.7002 46.3191
390 1 120.133 87.0188 44.9238
389 1 120.257 86.1454 44.4403
395 1 121.577 88.5713 47.0653
382 1 121.742 87.3877 46.7134
397 1 122.709 87.6842 48.2944
398 1 121.916 88.1914 48.6596
391 1 120.595 87.4888 45.637
394 1 120.674 88.7597 46.9087
393 1 120.981 88.049 46.4503
2 1 77.8548 14.2853 48.2831
4 1 77.5916 15.7422 47.9852
14 1 76.5798 15.4106 50.0385
13 1 77.2364 15.7671 50.7848
16 1 78.0222 14.7017 49.3592
15 1 77.1743 14.6901 49.8388
12 1 78.1531 15.465 51.2356
10 1 78.9458 14.4741 50.3392
269 1 119.39 86.4471 48.1301
270 1 120.341 86.6764 48.0058
271 1 119.663 87.2587 47.4018
263 1 118.823 86.7091 46.386
400 1 122.121 86.6636 48.332
274 1 120.778 87.8809 48.5758
272 1 120.445 87.6324 47.2989
273 1 120.313 88.443 47.8498
399 1 121.605 87.3617 47.9399
392 1 120.049 88.0912 45.9205
396 1 122.29 88.307 47.7173
6 1 77.7469 15.7611 49.7742
5 1 77.3357 15.6366 48.9716
17 1 78.6331 14.7876 48.5995
19 1 78.2247 14.7664 46.7878
18 1 78.9508 14.9909 47.5037
20 1 78.3966 13.9283 47.3302
8 1 79.0694 15.2061 49.5182
7 1 78.4717 15.8321 48.9992
11 1 78.2121 15.0018 50.3817
9 1 78.8995 14.1406 49.4935
275 1 121.072 88.0189 49.4772
277 1 121.946 88.3735 50.4792
276 1 120.914 88.2271 50.4209
279 1 121.261 88.7077 51.4583
278 1 121.467 87.7476 51.0432
280 1 121.205 89.522 50.9719
360 1 115.427 106.486 54.7494
341 1 113.363 111.005 56.7207
343 1 114.094 110.324 57.7121
344 1 114.931 110.503 57.0696
83 1 113.886 113.601 58.1953
90 1 114.256 111.466 57.1607
92 1 115.352 112.651 57.0539
91 1 114.428 112.299 56.8755
93 1 116.348 112.816 57.2031
354 1 113.667 108.396 58.0599
321 1 112.902 107.521 58.4449
358 1 114.775 106.875 56.0207
359 1 114.529 106.429 55.2313
357 1 115.021 107.594 56.6815
356 1 114.536 108.283 57.0557
342 1 113.441 110.02 57.0642
345 1 115.953 110.819 57.01
346 1 115.705 109.769 56.811
340 1 117.646 111.163 59.4272
347 1 116.258 108.937 56.5184
84 1 113.523 113.44 57.1944
85 1 114.465 113.456 56.881
89 1 113.529 112.057 57.5611
88 1 113.141 112.487 56.7518
212 1 115.763 111.892 57.8831
202 1 112.248 112.564 57.693
81 1 112.744 114.221 59.123
82 1 112.934 113.528 58.2846
203 1 112.761 111.964 58.3136
98 1 115.696 113.748 60.3467
213 1 116.697 111.984 57.9254
94 1 115.714 113.132 58.1022
95 1 116.391 113.689 58.5098
201 1 111.795 113.391 58.0289
96 1 115.624 113.602 59.1699
352 1 114.431 107.701 59.2646
353 1 114.243 108.769 58.8648
355 1 113.596 108.302 57.1037
349 1 115.863 108.257 57.6929
348 1 115.553 108.515 56.7972
323 1 112.697 108.315 59.2527
322 1 112.48 108.505 58.282
324 1 113.137 109.164 59.6778
220 1 113.343 109.395 58.0722
219 1 114.106 109.145 57.5251
337 1 117.49 109.329 58.2856
336 1 116.768 108.715 58.0119
218 1 115.079 109.582 57.8311
339 1 117.599 110.37 59.0053
338 1 118.267 109.466 58.8786
87 1 112.994 113.043 55.9096
408 1 112.47 111.421 57.5396
86 1 114.044 113.437 55.9099
407 1 113.325 111.125 57.7434
210 1 114.678 112.428 58.406
211 1 114.858 111.535 58.049
217 1 115.867 110.115 57.8492
216 1 116.411 110.957 58.0015
215 1 116.255 111.252 59.091
409 1 112.093 110.482 57.8012
492 1 112.452 112.404 60.1206
204 1 113.49 111.984 59.0395
214 1 116.618 112.167 58.9134
488 1 114.239 114.343 60.3963
97 1 116.015 112.984 59.7135
99 1 115.324 114.647 60.1688
489 1 114.286 113.567 59.6866
328 1 112.561 109.821 60.3808
351 1 115.12 107.511 58.6526
350 1 114.863 108.352 58.0508
333 1 116.405 110.095 59.0029
466 1 116.161 107.666 58.9154
326 1 111.849 109.855 58.7795
327 1 111.941 109.851 59.7298
329 1 113.142 110.185 59.7521
330 1 113.773 109.855 59.1299
331 1 114.544 110.25 58.9789
335 1 116.268 109.325 58.3493
332 1 115.465 110.646 58.689
334 1 116.86 109.406 59.1897
411 1 111.261 111.152 59.0126
412 1 112.124 110.809 59.3392
325 1 112.631 109.35 58.9447
405 1 112.97 111.068 58.8446
209 1 115.564 112.369 58.7433
406 1 113.9 111.207 58.474
471 1 117.279 110.391 61.2299
495 1 111.565 113.839 59.099
410 1 111.563 111.18 58.0656
485 1 113.319 113.72 60.3728
205 1 114.249 112.372 59.5768
491 1 113.108 112.948 59.6487
207 1 115.126 111.985 59.9024
206 1 114.216 111.471 59.9317
208 1 115.106 111.678 59.0442
374 1 116.167 112.522 60.6814
493 1 112.218 111.946 59.289
494 1 112.036 112.958 59.1253
487 1 113.614 114.576 59.6327
486 1 112.716 114.483 60.1768
490 1 113.591 113.679 59.1014
100 1 116.268 115.178 60.1242
462 1 116.98 107.578 60.1256
196 1 116.047 109.343 59.9749
197 1 115.433 109.83 59.2755
467 1 116.666 108.266 59.4626
465 1 115.437 108.115 59.3838
192 1 112.698 108.608 60.3506
191 1 112.529 108.088 61.0148
190 1 112.153 108.389 61.9175
198 1 114.975 109.891 60.1168
469 1 117.458 108.399 60.9869
468 1 116.981 108.916 60.1679
415 1 112.966 111.495 61.6615
413 1 112.002 111.387 60.1713
414 1 112.362 111.896 61.0825
403 1 113.374 111.578 60.5848
404 1 113.024 111.185 59.821
402 1 113.266 110.69 60.9942
199 1 115.881 110.4 60.0862
472 1 116.336 110.539 60.9886
200 1 115.013 110.887 59.8682
474 1 117.616 110.327 60.1611
473 1 116.775 109.994 60.2407
470 1 117.705 109.476 61.1041
416 1 113.8 111.038 62.0252
496 1 112.195 113.604 59.8679
498 1 110.291 113.656 60.1655
484 1 113.449 114.16 61.1167
483 1 113.827 113.328 61.4977
482 1 113.41 112.724 60.8745
376 1 115.367 110.911 60.8853
375 1 115.881 111.614 60.5502
497 1 111.228 113.457 60.1022
499 1 110.472 113.155 60.9973
500 1 110.243 112.556 60.2383
377 1 114.388 110.868 60.8008
373 1 115.531 113.049 61.158
461 1 117.208 107.416 59.1193
194 1 114.205 108.997 60.1523
195 1 115.177 108.815 60.2186
463 1 116.241 107.844 60.2281
132 1 116.391 108.409 61.6875
464 1 115.279 107.659 60.1439
419 1 112.704 110.525 61.863
193 1 113.526 108.203 59.9202
420 1 111.751 110.837 61.6186
188 1 112.898 109.171 61.1945
189 1 112.295 109.414 61.9501
131 1 117.159 108.831 62.1188
475 1 117.764 111.295 60.4431
130 1 116.63 109.608 62.6714
418 1 113.612 110.213 62.5455
417 1 114.185 110.231 61.7824
401 1 113.6 109.753 60.6454
183 1 115.375 108.864 61.3643
182 1 116.248 109.095 60.9528
181 1 116.362 109.552 61.6365
124 1 114.944 110.856 62.0987
478 1 116.572 111.873 61.9752
477 1 116.874 111.558 61.1446
476 1 116.777 111.131 60.3092
378 1 114.437 111.541 61.332
481 1 112.471 113.288 60.9805
123 1 115.318 109.963 61.5436
480 1 115.952 111.087 62.9934
121 1 115.796 111.083 61.7655
122 1 115.887 110.245 62.2068
479 1 115.842 111.935 62.4654
379 1 113.783 112.259 61.6628
380 1 113.795 112.778 62.4628
369 1 114.568 111.79 62.5335
370 1 114.938 112.518 61.9162
371 1 115.354 112.022 61.3724
372 1 114.8 112.679 60.7058
187 1 113.205 108.786 62.1617
139 1 113.757 108.45 60.9208
138 1 114.537 108.067 60.7894
137 1 115.437 107.84 61.2046
136 1 115.435 107.968 62.1709
135 1 114.983 108.247 62.7968
134 1 116.033 108.18 62.9529
185 1 114.49 109.167 62.1319
184 1 114.427 109.224 61.2064
186 1 113.682 109.155 62.782
133 1 115.65 108.955 62.362
129 1 116.463 109.552 63.537
128 1 115.66 108.999 63.7734
125 1 114.674 110.162 62.651
126 1 115.154 109.654 63.1802
127 1 114.638 109.05 63.7949
368 1 114.956 111.823 63.2449
367 1 114.879 112.732 63.3105
363 1 116.416 113.091 65.2382
361 1 115.718 112.39 63.7412
362 1 115.591 112.564 64.8855
365 1 115.367 113.748 63.7315
366 1 115.148 113.684 62.6918
364 1 116.079 113.295 64.4421
140 1 114.089 108.088 61.7261
253 1 113.759 97.0643 66.836
254 1 113.533 96.0909 67.0181
255 1 112.953 95.3794 67.007
252 1 113.984 97.5716 67.6253
176 1 111.868 95.1894 67.6435
259 1 112.671 98.1808 67.0163
258 1 112.33 97.2355 66.7255
260 1 111.811 98.5767 67.044
28 1 113.617 94.1674 69.5231
29 1 113.942 94.4618 68.7651
27 1 113.186 94.9295 69.8882
30 1 114.868 94.3189 68.674
31 1 114.534 95.1645 68.29
170 1 109.931 96.9991 69.0892
169 1 109.608 96.0949 69.0912
256 1 112.265 95.9913 66.5236
257 1 111.874 96.5926 67.327
26 1 114.122 95.0249 70.4447
251 1 113.529 96.6487 68.0396
22 1 112.942 96.0913 68.9712
177 1 112.103 95.6536 68.5289
174 1 110.945 96.5705 66.7654
175 1 111.211 95.5925 67.1328
250 1 113.418 97.3787 68.6181
249 1 112.786 97.4721 67.7461
178 1 112.521 96.5332 68.1589
248 1 113.415 98.387 67.8864
247 1 113.21 99.405 67.6787
173 1 110.118 96.5195 67.2937
241 1 112.359 98.4267 68.3445
39 1 115.208 96.9311 67.6897
40 1 114.728 96.592 66.8443
33 1 114.612 96.0337 69.5977
32 1 113.84 95.4249 69.0061
36 1 115.611 97.0158 68.6193
37 1 114.923 97.5881 68.8669
168 1 110.3 95.4166 68.8523
25 1 113.558 95.882 70.0362
167 1 110.885 95.936 68.3203
166 1 111.269 96.1039 69.0973
165 1 111.839 96.6902 69.419
164 1 111.087 97.3377 69.4347
21 1 113.181 95.6917 68.1462
24 1 113.977 96.7113 70.1746
23 1 113.592 96.6442 69.3083
171 1 110.576 97.1326 68.2224
172 1 110.257 97.537 67.3455
179 1 111.622 96.8638 68.2094
180 1 112.057 97.5263 68.8095
246 1 112.363 99.6293 67.3497
245 1 111.393 99.6395 67.3811
243 1 110.976 98.2007 67.7752
244 1 110.684 99.1704 67.9381
242 1 111.8 97.9142 67.8724
34 1 114.954 95.2872 69.1578
38 1 114.516 96.8119 68.3811
35 1 115.514 96.0541 68.9042
161 1 110.227 99.3428 69.0203
162 1 110.643 98.3437 68.834
163 1 111.495 98.2654 69.2585
69 1 -8.12209 95.5603 80.8576
68 1 -8.06085 94.5701 80.819
66 1 -9.78227 94.9058 80.1788
67 1 -8.87917 94.4479 80.0505
65 1 -8.93469 95.4143 80.0999
77 1 -8.90376 96.2738 81.637
64 1 -8.06806 95.1806 79.7273
73 1 -7.28085 95.8018 81.3053
70 1 -8.22643 95.5573 81.7979
72 1 -7.10279 94.813 81.5345
74 1 -7.50398 96.7261 81.1527
71 1 -8.10685 94.5827 81.9486
78 1 -9.54925 97.0462 81.2487
61 1 -6.00221 94.5302 80.379
62 1 -6.88304 94.8886 80.5549
75 1 -7.32537 96.6071 82.0579
76 1 -8.20597 96.9176 82.0403
79 1 -8.69352 97.3514 80.8849
63 1 -7.39103 94.4528 79.7537
80 1 -8.77091 96.4812 80.5592
450 1 -40.5092 -24.7648 100.073
448 1 -40.986 -24.2734 99.1714
449 1 -39.9935 -24.2408 99.3759
451 1 -39.4951 -25.0727 100.053
454 1 -40.701 -26.3697 101.086
453 1 -40.3404 -25.6538 100.621
452 1 -39.3857 -25.9032 100.577
456 1 -40.2741 -27.3123 100.747
459 1 -41.711 -26.9254 100.696
457 1 -40.5899 -26.7586 100.037
446 1 -40.3539 -25.4945 99.2687
447 1 -40.4393 -24.9047 98.5142
455 1 -40.7739 -27.0971 101.554
444 1 -41.7148 -26.7364 99.2694
445 1 -40.8867 -26.3221 98.9883
441 1 -40.8493 -27.5468 99.375
442 1 -40.5512 -27.1902 98.5367
443 1 -41.5373 -27.3324 98.4901
458 1 -41.3047 -26.0772 100.112
460 1 -42.4032 -26.5847 100.138
223 1 95.0975 -19.3817 101.789
225 1 95.0558 -17.9579 101.71
224 1 94.5778 -18.5722 102.298
239 1 97.2728 -17.5156 101.506
240 1 97.5633 -17.5668 100.456
227 1 96.5407 -18.916 102.572
226 1 95.6872 -18.5571 102.339
222 1 95.9632 -19.094 101.393
221 1 96.3204 -18.2715 101.485
238 1 96.4943 -17.1246 101.601
237 1 96.6729 -17.7763 102.416
228 1 96.3862 -19.8524 102.141
230 1 95.2519 -19.0445 103.561
229 1 95.9841 -19.6835 103.083
232 1 95.6262 -18.1006 103.47
235 1 96.3795 -17.1871 103.239
236 1 95.6264 -17.477 102.594
234 1 96.9132 -17.4491 104.022
233 1 96.5949 -18.234 103.588
231 1 96.0548 -18.9196 104.124
51 1 29.6503 55.5864 108.554
53 1 30.2004 54.1211 109.043
47 1 29.0698 53.8331 108.746
46 1 29.6613 53.2586 108.179
55 1 31.4491 54.7036 108.595
52 1 29.981 54.6651 108.263
59 1 30.3818 55.2708 110.861
57 1 31.2918 54.2173 109.841
54 1 30.7487 54.8857 109.205
48 1 29.1778 53.93 109.754
49 1 29.9408 54.4607 109.987
50 1 29.687 55.1699 109.387
41 1 30.8857 53.2622 110.541
44 1 30.3927 52.1329 109.324
43 1 30.0745 52.7609 109.828
58 1 30.8132 54.4228 110.742
42 1 30.0568 53.4865 110.4
45 1 30.3138 53.1436 108.878
56 1 31.2775 53.7661 108.827
60 1 30.5899 55.4269 110.022
ITEM: TIMESTEP
47000
ITEM: NUMBER OF ATOMS
500
ITEM: BOX BOUNDS pp pp pp
-6.8275590971815120e+01 1.2827559097181609e+02
-6.8275590971815120e+01 1.2827559097181609e+02
-6.8275590971815120e+01 1.2827559097181609e+02
ITEM: ATOMS id type x y z
297 1 37.7381 -45.8545 -55.1602
299 1 38.5044 -45.4302 -54.5528
298 1 38.5436 -45.7181 -55.4847
300 1 39.5297 -45.3326 -54.8396
296 1 37.5326 -46.6592 -54.6741
294 1 38.0297 -46.848 -55.5046
283 1 39.1621 -46.2802 -57.4604
295 1 38.4674 -46.6818 -54.6605
284 1 38.4822 -46.8717 -57.0122
293 1 38.0293 -46.2819 -56.2076
292 1 37.4851 -47.1249 -56.4036
281 1 39.0658 -46.3201 -56.1766
282 1 39.6864 -45.9865 -56.7699
289 1 37.9306 -44.7785 -55.9155
288 1 39.058 -44.9868 -56.0676
287 1 38.5355 -45.513 -56.8609
286 1 37.5462 -45.3882 -56.9323
290 1 37.1211 -45.3227 -55.9419
291 1 36.9254 -46.2919 -56.2962
285 1 37.6854 -46.3226 -57.2808
116 1 9.01301 105.724 -44.7606
118 1 10.0601 105.4 -45.3646
115 1 8.43404 105.606 -45.5462
114 1 8.29809 106.182 -46.3397
117 1 9.8875 106.125 -44.7403
113 1 8.72825 105.861 -47.2077
105 1 8.26202 106.658 -45.2273
104 1 9.15527 106.853 -44.7074
119 1 10.433 106.32 -45.7483
101 1 10.8844 106.926 -46.6889
103 1 9.82931 107.289 -45.2481
109 1 9.35049 105.873 -46.3523
108 1 9.84491 106.647 -46.6835
106 1 8.96599 106.898 -45.7793
111 1 10.4155 106.201 -47.5905
112 1 9.38326 106.432 -47.7012
102 1 10.2299 107.471 -46.1389
107 1 8.99828 106.838 -46.7621
120 1 10.5281 105.728 -46.4754
110 1 9.85629 105.375 -47.1561
143 1 88.9614 -46.5932 -17.0381
144 1 88.7278 -45.8562 -16.4782
148 1 89.8633 -45.4269 -17.6569
142 1 89.9233 -46.6272 -17.4609
150 1 90.585 -45.1664 -16.7039
141 1 90.6775 -45.9716 -17.4768
149 1 89.7024 -45.7093 -16.7836
145 1 88.2721 -45.7566 -17.4155
147 1 89.0979 -45.9763 -17.9031
146 1 88.9464 -45.0588 -17.4512
156 1 90.7658 -46.819 -18.8946
157 1 91.6681 -46.9405 -18.5737
151 1 90.6989 -45.9999 -16.2036
153 1 91.6702 -46.3668 -17.0485
152 1 90.8634 -46.7669 -16.83
160 1 90.3747 -45.9545 -18.5019
154 1 91.5671 -47.3322 -17.5312
155 1 90.7333 -47.2165 -17.9299
159 1 91.3892 -45.8456 -18.2822
158 1 92.3014 -46.2646 -18.2947
421 1 63.6263 -9.53121 -3.83616
427 1 65.001 -10.0973 -3.25975
428 1 64.9359 -10.1821 -2.24661
301 1 68.3319 -9.55354 -3.98727
424 1 64.0809 -8.91505 -1.791
426 1 64.0515 -10.0365 -2.91877
425 1 63.8993 -9.9048 -1.84979
306 1 66.8693 -9.68194 -4.05038
305 1 66.2165 -10.2555 -3.66104
438 1 67.804 -8.80436 -3.37532
436 1 66.8622 -8.98258 -2.7943
437 1 67.7131 -8.61358 -2.53304
422 1 63.7468 -8.97554 -2.89996
307 1 66.31 -8.92316 -3.64128
308 1 66.0059 -7.8214 -3.84301
429 1 65.5757 -9.59697 -2.54447
303 1 67.6192 -10.0842 -2.46661
302 1 68.461 -9.83287 -3.04515
434 1 67.2491 -8.47233 -1.37211
320 1 64.5012 -10.4702 -1.201
430 1 65.9566 -9.80654 -1.66575
423 1 64.6542 -9.2248 -2.5111
304 1 66.7067 -10.0282 -2.9719
431 1 65.9325 -9.0855 -0.969537
435 1 66.6865 -9.11317 -1.91044
439 1 67.3674 -8.51709 -4.19917
440 1 66.8223 -7.77785 -4.4254
318 1 64.923 -9.48041 -1.43836
317 1 65.1301 -8.5736 -1.87167
310 1 66.974 -7.8026 -2.28167
309 1 66.6499 -7.93012 -3.21397
312 1 65.7815 -7.07242 -3.16033
316 1 65.888 -8.47985 -2.58323
315 1 65.135 -8.8383 -3.32798
311 1 66.8486 -6.94844 -2.8473
432 1 65.99 -8.16964 -1.09029
433 1 66.7852 -7.66386 -1.06232
319 1 64.843 -9.69197 -0.512794
314 1 64.651 -8.23688 -2.72395
313 1 65.1396 -7.3555 -2.49366
389 1 122.953 86.8308 46.1822
388 1 122.211 86.3831 46.0195
386 1 123.209 86.0388 46.9184
387 1 122.948 85.7019 46.0654
385 1 123.206 86.5988 47.8483
390 1 122.482 87.5978 45.7725
392 1 121.74 88.3997 46.6486
391 1 122.677 88.4221 46.3171
381 1 122.326 86.4984 49.3998
19 1 77.9483 14.2941 51.5443
18 1 77.2869 14.3889 50.9548
20 1 77.2153 15.0617 51.8956
263 1 122.085 86.9058 47.0272
268 1 120.167 86.3857 47.3387
267 1 121.034 85.9468 47.6099
266 1 121.49 86.1812 48.4267
383 1 123.842 86.465 48.6934
265 1 122.218 86.8402 48.0691
384 1 123.82 87.3246 48.0326
262 1 122.056 85.9023 47.0536
261 1 121.191 86.2543 46.6805
264 1 122.675 87.5746 47.3913
271 1 121.116 86.9909 47.8746
382 1 123.074 87.0632 49.0124
393 1 120.822 88.4307 46.8803
272 1 120.506 87.4314 48.5554
395 1 121.159 88.2379 47.9173
394 1 120.196 88.6072 47.868
1 1 78.0107 14.097 48.6534
3 1 76.8652 13.7878 48.737
2 1 77.3267 14.7341 48.4965
17 1 76.6271 14.8083 50.3878
4 1 77.3793 14.3772 49.4915
269 1 120.057 87.4417 47.5225
270 1 120.898 87.3509 47.0558
400 1 123.104 87.9324 48.4103
274 1 121.914 88.1939 48.7319
399 1 122.829 88.7464 48.1406
397 1 121.702 89.2182 48.264
273 1 121.483 87.3782 48.8556
398 1 122.002 88.9882 47.4131
396 1 120.947 88.8502 48.7005
16 1 76.4832 15.4584 49.62
15 1 77.0131 15.9601 48.9664
8 1 77.4298 15.4415 50.9706
9 1 77.0751 16.2055 50.4655
14 1 77.5905 15.7497 48.1251
6 1 78.4903 14.6671 49.652
5 1 77.6513 15.2324 49.6852
7 1 78.2068 15.0155 50.6857
275 1 122.707 88.0598 49.4755
11 1 78.6999 15.6896 49.7294
10 1 77.9803 16.0518 50.3513
13 1 78.3654 15.4241 48.7358
12 1 78.0577 16.2844 49.2306
278 1 121.479 89.6617 49.1618
276 1 122.342 88.9915 49.5908
279 1 121.875 90.258 48.513
280 1 122.217 90.0818 47.5413
277 1 122.18 90.0109 49.8166
359 1 115.257 109.477 56.0254
360 1 114.628 110.077 55.2754
87 1 113.577 114.122 57.7306
86 1 113.02 113.781 58.5815
358 1 115.626 110.416 56.0705
357 1 116.672 110.558 56.2658
356 1 116.144 110.014 56.976
355 1 115.658 109.221 57.5773
348 1 117.836 109.092 57.3643
347 1 116.797 109.472 57.5976
342 1 115.457 111.971 58.3527
344 1 117.175 111.8 57.5778
346 1 117.216 110.31 57.2931
341 1 115.414 111.679 57.5403
90 1 115.264 114.852 58.2027
345 1 116.689 111.041 57.4039
88 1 113.975 113.385 57.9395
91 1 115.782 114.085 58.5552
92 1 115.54 113.148 58.2647
93 1 116.494 113.499 57.9373
84 1 114.284 115.003 58.8398
85 1 113.369 114.473 59.292
321 1 115.268 110.295 57.5865
351 1 116.648 108.932 56.4557
322 1 114.521 109.622 57.6105
354 1 116.232 108.865 58.2929
349 1 117.663 109.519 56.5173
350 1 117.462 108.519 56.2339
336 1 117.523 109.635 58.2597
220 1 113.708 111.81 57.9018
409 1 113.547 111.894 59.1014
343 1 116.454 112.253 57.9188
219 1 114.52 111.205 58.122
218 1 115.468 110.942 58.5379
217 1 116.341 111.447 58.4681
337 1 117.448 109.249 59.1901
335 1 117.693 110.596 58.6759
410 1 112.602 111.663 58.9024
408 1 113.714 112.835 58.6997
407 1 114.574 112.618 58.194
406 1 114.714 113.256 59.0476
212 1 117.116 112.479 59.6349
211 1 116.951 112.737 58.5982
332 1 116.351 110.542 59.5009
216 1 117.113 111.738 58.8481
202 1 112.536 114.196 60.0958
203 1 112.883 113.32 60.0092
89 1 114.674 113.894 58.1849
210 1 116.833 113.429 59.1484
94 1 116.99 114.282 58.5301
213 1 118.087 112.687 59.2729
201 1 112.18 115.258 60.0304
82 1 115.544 114.231 59.7085
83 1 114.989 114.837 59.6097
95 1 117.319 114.403 59.4097
352 1 116.838 108.137 57.1102
466 1 116.274 108.419 59.2849
461 1 117.614 106.296 58.3619
323 1 114.145 109.364 58.5795
353 1 116.068 108.087 57.7237
193 1 114.571 109.297 59.7829
465 1 116.838 107.924 58.6434
467 1 116.681 108.548 60.0948
326 1 114.064 110.824 59.0106
324 1 115.174 109.143 58.6785
327 1 113.114 110.851 59.5232
329 1 114.499 110.6 59.9111
325 1 114.784 110.167 58.8245
330 1 115 111.142 59.4269
331 1 115.959 111.449 59.3715
196 1 116.264 109.553 59.5443
197 1 115.334 110.028 59.6304
199 1 115.814 111.27 60.9163
333 1 115.965 109.894 58.4904
334 1 116.8 110.497 58.4402
339 1 118.198 110.647 59.9764
338 1 117.36 109.945 59.9101
411 1 112.675 112.559 59.1376
412 1 112.81 112.136 60.0418
405 1 114.401 112.335 59.36
404 1 113.959 112.124 60.3542
206 1 114.471 113.149 60.5786
208 1 115.584 112.497 59.2087
200 1 115.434 112.039 60.2368
215 1 117.938 111.92 58.344
340 1 118.322 109.746 59.4447
491 1 113.999 113.383 61.67
493 1 113.298 114.55 60.617
494 1 112.714 114.278 61.4335
204 1 113.792 113.16 59.8666
205 1 114.401 113.818 59.9092
97 1 116.711 114.034 60.1789
209 1 116.191 113.071 59.8575
207 1 115.167 113.122 59.8907
214 1 118.431 111.774 59.2011
495 1 111.746 114.192 60.884
497 1 111.654 112.932 61.2146
81 1 115.612 113.798 60.661
496 1 112.287 113.448 60.832
489 1 113.813 112.2 62.5473
487 1 113.062 113.931 62.6171
490 1 113.936 112.549 61.6413
96 1 116.356 114.54 59.3245
464 1 117.39 108.252 58.0274
462 1 117.768 107.269 58.6256
192 1 113.648 108.944 60.1845
191 1 112.809 109.071 59.8792
194 1 114.897 108.556 59.4951
139 1 113.802 109.206 61.2088
138 1 114.503 108.552 60.8024
195 1 115.67 108.901 59.907
183 1 115.775 109.619 61.8464
137 1 114.791 107.73 61.4
469 1 117.126 109.158 61.7673
468 1 116.564 108.429 61.1256
463 1 117.763 107.215 57.6871
182 1 116.208 110.386 61.1698
328 1 113.552 110.12 60.096
188 1 112.904 109.523 60.8051
401 1 114.69 111.391 60.5154
184 1 115.339 109.832 60.8736
198 1 115.506 110.744 60.1798
471 1 117.581 109.583 60.9659
472 1 117.207 110.386 61.4984
473 1 117.145 110.809 60.7019
474 1 116.67 111.651 60.2165
470 1 117.961 109.484 61.8609
413 1 111.881 111.763 60.5621
414 1 111.533 111.578 61.5212
402 1 114.076 111.273 61.3097
403 1 113.301 111.226 60.4456
377 1 115.892 112.488 61.2716
378 1 115.062 112.039 61.2579
376 1 116.843 112.643 61.8418
375 1 116.934 111.836 61.2604
477 1 118.559 112.386 61.0827
476 1 118.151 112.114 60.1806
475 1 117.393 111.513 59.9468
499 1 110.472 113.169 61.3409
500 1 110.589 112.975 60.3045
492 1 113.654 113.727 60.9313
481 1 113.135 112.779 60.9374
483 1 112.207 113.102 62.2398
482 1 112.959 113.168 61.7462
373 1 117.455 113.446 60.7715
371 1 116.445 114.133 61.2441
372 1 116.589 113.256 60.9306
374 1 117.409 112.508 60.8582
498 1 111.237 113.386 61.9561
485 1 112.8 113.782 63.5647
486 1 112.271 114.182 63.0588
488 1 113.772 113.127 62.569
484 1 112.071 112.996 63.2663
98 1 116.119 114.927 60.3057
99 1 115.227 114.865 60.7002
100 1 114.36 114.563 60.9486
190 1 112.283 108.608 60.7215
187 1 113.493 110.151 61.5114
140 1 113.175 108.7 61.5225
136 1 114.312 108.327 62.0418
135 1 114.954 109.044 62.365
133 1 116.084 108.856 62.5934
132 1 116.359 109.873 62.7033
131 1 116.998 110.542 62.8676
419 1 112.518 110.528 60.8865
189 1 111.861 109.375 60.7024
418 1 112.159 110.257 61.7012
417 1 112.504 111.095 61.9685
185 1 114.58 110.331 61.0723
186 1 114.219 110.181 62.1935
125 1 115.808 112.546 63.5914
123 1 115.012 112.211 62.5622
122 1 114.545 111.468 62.2248
130 1 116.628 110.76 63.9617
181 1 116.475 109.403 61.0713
420 1 111.711 110.741 60.2762
415 1 112.259 112.205 61.6038
416 1 113.044 111.675 61.4413
369 1 116.529 113.705 62.2896
124 1 116.056 112.313 62.748
121 1 115.283 110.719 62.1024
479 1 117.675 111.761 62.0054
478 1 117.954 111.377 61.1006
379 1 115.057 113.059 61.4081
380 1 114.99 113.246 62.4289
370 1 117.336 113.853 61.8303
366 1 116.881 114.354 63.1054
127 1 115.96 111.082 62.7469
134 1 115.548 109.169 63.1849
128 1 115.279 110.259 63.0402
126 1 116.405 111.806 63.5458
129 1 115.913 110.26 63.6297
480 1 118.128 110.772 62.0179
368 1 116.05 114.523 62.4282
367 1 117.01 114.753 62.2419
361 1 118.636 111.904 62.5521
365 1 117.57 113.63 63.3711
362 1 118.228 112.339 63.2735
364 1 117.105 112.845 63.2513
363 1 117.425 111.941 63.0187
255 1 114.461 96.5496 67.7117
256 1 114.619 95.8277 66.8114
254 1 114.927 96.9265 66.8704
174 1 112.351 95.5849 67.252
258 1 113.87 97.2773 67.255
253 1 114.506 97.829 66.5605
40 1 114.676 96.3579 68.8303
260 1 113.412 98.8214 66.7669
259 1 113.235 97.8713 67.013
173 1 111.734 95.1851 67.9272
176 1 113.172 96.2768 67.2864
175 1 113.341 95.2582 67.1427
167 1 112.729 95.5442 68.3214
21 1 113.926 96.3139 69.6571
31 1 114.556 98.1645 69.4354
172 1 110.849 95.6993 67.9665
257 1 113.996 96.5713 66.5117
171 1 111.686 96.2851 67.9539
179 1 113.529 96.9077 68.2145
242 1 111.622 97.6652 67.6881
249 1 113.456 98.3071 69.1736
178 1 112.8 97.4307 67.8353
252 1 114.417 98.2395 67.3928
251 1 114.222 98.7562 68.3694
38 1 115.07 97.5415 67.6603
39 1 115.399 96.7976 68.3222
243 1 112.276 98.1759 67.1811
244 1 111.632 98.8266 66.8344
241 1 111.822 98.6709 68.0973
248 1 112.8 98.0447 68.7304
245 1 112.388 99.1875 67.2846
247 1 112.796 99.0233 68.4823
246 1 112.998 98.7872 67.8041
27 1 114.969 96.1349 70.4484
28 1 115.39 96.4662 69.7676
29 1 114.837 97.1894 69.2962
30 1 114.234 97.5487 68.7077
169 1 111.833 95.1046 69.4064
168 1 112.704 95.5461 69.2992
166 1 112.765 96.46 68.7485
22 1 113.828 97.3269 69.779
177 1 112.307 96.8602 67.0953
33 1 116.055 97.6088 69.2428
32 1 115.478 98.2441 69.6473
34 1 115.916 97.7685 68.2327
35 1 115.186 98.554 68.1885
170 1 111.795 95.9062 68.8315
165 1 112.251 96.5797 69.6937
164 1 111.716 97.0361 69.0829
180 1 113.643 98.0057 68.0328
250 1 113.572 99.2574 69.1447
23 1 113.93 97.9298 70.4862
36 1 115.695 98.4485 67.2847
37 1 115.812 97.4373 66.8872
162 1 110.358 96.3577 68.6322
163 1 111.108 96.4378 69.4531
161 1 109.93 96.9365 67.9496
26 1 114.847 96.3924 71.4323
25 1 114.056 96.6994 70.7311
24 1 114.781 97.4456 70.6732
64 1 -9.239 95.7982 80.3301
66 1 -8.12467 95.2378 80.2319
67 1 -7.17386 95.0939 79.6478
68 1 -7.20417 94.7364 80.5612
63 1 -9.63661 95.5406 79.5702
61 1 -10.166 95.4496 81.0322
62 1 -9.99157 94.8101 80.2167
65 1 -8.41065 95.9895 79.8506
80 1 -10.7231 96.5786 81.2069
69 1 -7.05192 95.7137 80.6898
79 1 -9.74744 96.5263 81.0908
71 1 -7.4744 96.4771 81.6104
72 1 -7.95583 96.7566 80.7306
77 1 -8.54946 97.0296 81.5328
73 1 -7.48184 96.7554 79.8136
70 1 -7.90067 95.7351 81.2425
78 1 -8.94206 96.1318 81.3814
74 1 -7.65088 97.6765 80.2287
75 1 -7.60056 97.594 81.2342
76 1 -8.59022 97.7613 80.8298
444 1 -39.5347 -25.9512 101.575
443 1 -39.9178 -25.7 100.674
442 1 -39.9506 -24.7833 101.141
445 1 -39.7567 -26.7273 100.98
446 1 -40.3483 -26.9082 101.765
448 1 -41.415 -27.2641 100.483
447 1 -40.9531 -26.5079 101.062
459 1 -41.4021 -26.24 99.9646
441 1 -39.926 -23.8286 100.998
457 1 -39.622 -26.2974 99.5504
460 1 -40.9295 -25.534 100.429
458 1 -40.3805 -26.4588 100.06
453 1 -41.8622 -27.5509 99.4397
452 1 -40.9648 -27.9618 99.7383
450 1 -39.9862 -27.3666 99.8889
449 1 -40.4046 -27.5772 100.748
451 1 -40.28 -27.8934 98.9928
240 1 98.7429 -18.0299 102.637
455 1 -40.4942 -26.301 98.8686
456 1 -40.3623 -25.5717 99.4595
454 1 -41.1028 -27.0077 99.0542
223 1 96.6209 -18.3382 102.109
222 1 96.4516 -17.4897 102.28
225 1 96.9552 -18.9215 103.134
221 1 96.9134 -16.8895 101.513
238 1 98.3061 -18.841 103.353
239 1 98.2642 -17.8797 103.598
228 1 96.8341 -20.1194 104.764
224 1 97.2998 -18.0591 102.971
226 1 96.9301 -19.8496 103.701
229 1 96.0341 -20.3169 104.081
227 1 96.3805 -19.3497 104.551
232 1 96.025 -18.4329 103.993
235 1 97.1703 -18.1679 104.091
236 1 97.3522 -19.0358 104.347
237 1 98.0309 -19.697 103.765
230 1 95.1829 -19.926 103.918
231 1 95.9252 -19.312 103.478
234 1 96.97 -18.0263 105.129
233 1 96.3219 -17.6006 104.386
47 1 32.1609 54.2245 110.823
53 1 30.7669 53.9744 109.515
46 1 31.9324 54.8719 110.194
45 1 30.9789 55.3221 110.17
56 1 29.0927 53.588 109.657
51 1 31.3439 53.1785 110.227
52 1 31.7122 53.8804 109.586
55 1 29.3465 53.5783 110.566
44 1 30.5619 54.9026 111.041
43 1 31.5405 55.3005 111.136
48 1 32.0428 53.2666 110.965
49 1 31.1659 53.7469 111.326
42 1 32.5567 55.5431 111.11
57 1 29.7185 54.296 109.303
50 1 31.173 54.1579 110.551
60 1 28.868 54.6022 110.291
54 1 30.2921 53.5908 110.313
41 1 32.7764 56.4468 110.621
58 1 29.5945 55.0937 109.797
59 1 28.6512 55.3125 109.532
ITEM: TIMESTEP
48000
ITEM: NUMBER OF ATOMS
500
ITEM: BOX BOUNDS pp pp pp
-6.9896403854954670e+01 1.2989640385495579e+02
-6.9896403854954670e+01 1.2989640385495579e+02
-6.9896403854954670e+01 1.2989640385495579e+02
ITEM: ATOMS id type x y z
285 1 37.524 -46.8558 -55.9574
283 1 38.7446 -47.8265 -56.53
284 1 37.8308 -47.6508 -56.4877
291 1 39.053 -46.0329 -56.7077
293 1 38.0261 -46.7623 -57.0496
292 1 38.5136 -46.7531 -56.3273
281 1 37.6358 -47.9654 -58.0595
282 1 38.4277 -47.7452 -57.5385
289 1 37.8508 -45.8971 -57.852
286 1 36.9547 -46.9208 -56.8204
290 1 38.3227 -45.3822 -57.0474
288 1 37.2662 -46.6825 -58.0354
287 1 36.6858 -47.2872 -57.7917
297 1 38.8811 -47.2286 -58.5278
296 1 39.5542 -47.4962 -58.034
294 1 38.6928 -46.4279 -57.6421
295 1 39.2375 -47.0387 -57.1911
299 1 38.8906 -48.3421 -58.3172
298 1 38.5082 -47.8722 -59.1734
300 1 39.7183 -48.3376 -58.8687
112 1 7.91692 107.053 -46.6067
111 1 7.05176 106.836 -47.1561
110 1 7.68208 106.783 -47.7867
120 1 8.35397 108.483 -48.5418
114 1 9.33258 107.411 -47.1818
113 1 8.80594 106.739 -46.7279
109 1 8.10046 107.686 -47.648
108 1 8.35358 108.063 -46.7542
107 1 8.76162 108.553 -47.5059
101 1 9.36405 108.95 -48.6029
102 1 9.21705 108.574 -49.5874
115 1 8.86724 106.963 -47.8524
116 1 9.70424 106.977 -48.2899
118 1 8.34465 107.089 -48.922
105 1 10.3974 107.493 -47.6956
117 1 9.30632 106.702 -49.1116
104 1 10.7526 108.091 -48.5109
106 1 9.65394 108.005 -48.0097
119 1 8.96118 107.739 -48.7251
103 1 9.92989 107.998 -49.1074
155 1 91.3825 -47.0756 -17.2284
147 1 92.4564 -46.7222 -18.1407
156 1 90.4681 -46.8181 -17.5652
157 1 90.3612 -47.0697 -18.5868
160 1 91.106 -46.1414 -18.0902
159 1 91.7729 -46.0738 -18.7162
158 1 91.175 -46.8256 -19.0941
154 1 90.9204 -47.8976 -17.2324
144 1 93.2611 -48.1225 -17.579
143 1 92.4656 -48.0389 -17.0484
142 1 92.1689 -47.8028 -17.9253
141 1 91.5244 -47.2091 -18.2294
153 1 90.5799 -47.9942 -18.176
152 1 91.3119 -48.7203 -18.1762
145 1 94.0671 -47.7163 -17.823
146 1 93.2587 -47.13 -18.0049
148 1 92.7982 -47.0222 -19.0628
149 1 92.847 -48.0085 -18.7608
150 1 92.3392 -48.7125 -18.3173
151 1 91.6836 -48.1713 -18.9808
421 1 65.6359 -11.0685 -3.01796
305 1 66.6699 -9.40542 -2.89425
306 1 65.903 -9.36632 -3.55354
301 1 67.6541 -10.0808 -4.69985
439 1 66.2206 -9.59471 -4.63433
308 1 66.1191 -8.66224 -4.23035
440 1 67.0233 -9.16421 -4.79754
427 1 65.8803 -10.4754 -0.494242
426 1 65.5612 -11.121 -1.18321
429 1 66.5408 -10.6713 -1.67051
303 1 68.1155 -9.77536 -3.35571
304 1 67.3451 -10.0854 -2.71909
302 1 67.7327 -10.4653 -3.86667
422 1 65.1263 -10.8398 -2.26266
423 1 64.1574 -10.7323 -2.09359
314 1 64.2573 -8.11288 -2.96898
307 1 66.2113 -8.52468 -3.3379
316 1 65.2275 -8.58253 -3.28211
315 1 64.4625 -8.54985 -3.72901
438 1 66.8107 -10.1152 -3.89062
436 1 67.1094 -8.26859 -4.01462
437 1 67.1027 -9.21274 -3.78405
309 1 66.2239 -7.74195 -4.25446
312 1 65.4431 -7.67735 -2.56032
313 1 64.7689 -8.28223 -2.12817
310 1 66.0486 -6.9673 -3.63479
311 1 66.2983 -7.01356 -2.64343
428 1 65.8542 -9.93308 -1.2625
425 1 64.846 -10.1037 -1.21868
320 1 65.4893 -8.20757 -1.40763
318 1 65.3626 -9.78321 -2.13216
430 1 66.6522 -9.5906 -1.86578
424 1 64.5182 -10.9609 -1.21997
431 1 65.8928 -8.99433 -1.9262
317 1 64.8176 -9.56195 -2.93876
432 1 66.4774 -8.16237 -2.182
434 1 67.7195 -8.66696 -3.28688
435 1 67.9649 -8.64665 -4.35567
433 1 66.9497 -7.9734 -2.98244
319 1 65.0285 -9.07595 -1.39991
387 1 125.58 87.776 48.4908
261 1 125.046 87.7561 50.1942
388 1 125.155 86.8968 48.7474
389 1 124.624 87.4034 48.0384
390 1 125.141 87.7631 47.3692
392 1 124.642 88.4325 46.5756
391 1 125.046 88.6833 47.5068
14 1 78.2794 14.5022 51.3077
267 1 123.956 87.2446 48.7031
262 1 124.726 87.7512 49.3384
386 1 125.658 88.6269 49.0126
268 1 123.841 86.2874 48.4275
271 1 122.211 87.8711 47.9439
269 1 123.586 86.7063 47.7068
270 1 123.142 87.5357 47.9537
263 1 124.661 88.5698 48.519
265 1 123.163 88.2352 49.0361
385 1 125.018 89.1787 49.6002
384 1 123.966 88.9796 49.6589
393 1 124.178 87.5538 47.0818
395 1 123.611 88.2965 46.0531
394 1 123.81 87.3369 46.2779
398 1 123.836 88.2403 47.7929
264 1 123.933 88.5913 48.7231
399 1 124.127 89.1593 47.3132
280 1 125.627 89.9046 49.1859
3 1 76.6496 15.8579 51.5961
4 1 76.6651 16.7104 51.4984
1 1 75.8852 14.2686 51.49
2 1 76.0785 15.2638 51.2252
16 1 77.1846 15.1118 50.8646
13 1 77.9817 13.5388 51.5656
15 1 77.4566 14.3059 50.883
12 1 78.5274 13.6626 50.8048
272 1 121.603 87.9935 48.7773
381 1 122.87 88.1276 50.9768
266 1 123.232 87.2569 49.2465
273 1 122.204 88.6437 49.31
383 1 123.063 88.5875 49.9834
382 1 123.691 88.4574 50.6587
396 1 123.147 88.0753 46.8529
274 1 123.001 89.2619 49.156
275 1 122.601 89.3633 48.3531
400 1 123.95 90.2853 47.575
397 1 123.062 88.6978 47.4801
278 1 123.754 89.5375 48.3257
276 1 122.98 90.0008 47.7695
279 1 124.683 89.7048 48.8574
18 1 76.473 15.9845 50.5212
17 1 76.8094 15.1916 49.9642
8 1 78.2214 15.4248 50.7439
5 1 77.5058 16.3383 51.1407
6 1 77.4264 16.0897 50.2976
7 1 77.9236 15.4511 49.8088
11 1 78.3158 14.1126 50.0006
9 1 79.213 15.6175 50.6872
10 1 79.166 14.5911 50.3671
277 1 123.278 90.3268 48.5904
19 1 75.6984 16.358 50.3143
20 1 76.3184 16.1499 49.3896
350 1 118.353 112.824 56.3994
359 1 117.518 114.366 56.1425
351 1 117.953 111.883 56.2387
349 1 118.25 112.528 57.4849
360 1 118.307 114.024 56.3518
358 1 117.268 113.597 56.7393
357 1 117.495 113.299 57.8107
463 1 118.87 110.683 58.1348
352 1 117.498 112.361 56.7601
353 1 116.88 111.833 57.1267
464 1 118.005 110.463 57.674
322 1 115.244 112.638 57.9708
355 1 116.854 111.365 58.3196
347 1 118.229 114.009 57.5571
348 1 118.946 113.324 57.4201
321 1 115.447 113.47 57.8755
219 1 116.202 113.971 58.9123
356 1 116.998 112.481 58.228
345 1 118.359 115.011 58.2446
346 1 119.033 114.551 57.9452
220 1 116.04 113.026 58.826
341 1 117.263 114.279 58.1615
343 1 117.259 114.895 57.2525
344 1 117.954 115.543 57.4612
87 1 116.376 115.643 58.1173
88 1 117.354 115.399 58.5111
93 1 116.996 114.619 59.1455
461 1 120.541 111.132 59.0485
194 1 115.684 109.688 59.4584
466 1 117.948 109.919 58.8414
465 1 117.791 110.767 58.4988
462 1 119.581 110.644 58.8751
323 1 116.014 112.227 57.6255
324 1 115.752 111.336 58.1737
354 1 116.786 110.918 57.4218
333 1 118.129 111.809 58.5557
336 1 119.324 111.779 60.514
337 1 118.651 111.326 59.7728
340 1 120.555 110.045 60.1941
326 1 115.127 111.815 58.938
218 1 116.607 113.606 59.7276
325 1 116.132 112.063 58.8638
330 1 115.9 112.755 60.3789
332 1 117.235 111.815 59.2158
334 1 119.01 111.754 58.5789
335 1 119.449 111.921 59.5537
410 1 113.147 113.074 59.5001
411 1 112.607 113.847 59.9354
409 1 113.788 112.613 58.8571
408 1 114.358 113.331 58.994
342 1 116.406 114.508 57.7985
407 1 113.997 114.003 59.6403
405 1 114.963 114.424 59.801
208 1 117.561 113.419 60.0218
217 1 117.138 113.4 58.9358
211 1 119.269 113.598 59.829
331 1 116.672 112.575 59.6362
216 1 118.173 112.978 58.5229
213 1 119.811 112.772 58.7157
215 1 118.711 113.7 58.5824
214 1 119.603 113.653 58.1671
86 1 116.003 115.409 58.936
92 1 116.272 114.686 59.7816
406 1 114.389 114.695 59.1282
89 1 117.849 115.232 59.3835
91 1 117.217 114.837 60.0903
210 1 118.978 112.668 60.0749
85 1 115.932 116.231 59.4823
90 1 116.947 115.645 59.5071
84 1 116.323 115.864 60.337
94 1 117.991 114.286 59.4981
96 1 119.833 114.724 60.4432
95 1 118.822 114.747 59.9636
138 1 116.954 110.456 62.8208
467 1 118.905 109.304 58.7185
191 1 114.461 110.663 60.0266
190 1 114.018 109.966 60.5777
189 1 114.889 110.401 60.9882
192 1 114.611 109.933 59.0722
188 1 114.926 111.196 60.702
193 1 115.246 110.614 59.508
184 1 115.582 112.383 61.3767
196 1 117.168 110.554 59.9068
195 1 116.6 109.969 59.4513
338 1 118.781 110.634 60.5014
419 1 113.064 111.071 60.0896
420 1 112.882 112.044 59.9762
327 1 114.161 111.703 59.3463
328 1 114.727 112.287 59.7252
403 1 113.719 113.914 60.7764
329 1 115.641 111.955 60.0672
197 1 116.63 111.104 59.6221
198 1 116.076 110.668 60.3163
339 1 119.661 110.423 60.3392
473 1 117.569 111.547 60.3661
412 1 112.231 113.003 60.2645
413 1 112.223 113.522 61.0916
404 1 114.096 114.74 60.323
200 1 116.638 111.928 61.3999
401 1 114.599 112.782 60.8089
474 1 117.529 112.374 60.7191
212 1 120.133 113.172 59.7049
476 1 119.265 112.481 61.3953
475 1 118.454 112.177 60.906
374 1 118.028 113.175 60.9294
500 1 116.723 114.341 64.6213
202 1 114.505 115.8 61.1538
495 1 114.666 113.659 63.1463
496 1 114.047 114.039 63.9278
203 1 115.313 115.266 60.5795
204 1 115.354 114.446 61.1658
492 1 115.11 113.458 61.5036
82 1 117.846 115.808 60.1765
206 1 116.313 114.084 61.2408
205 1 116.165 115.044 61.235
207 1 116.935 113.26 60.8142
81 1 117.615 115.12 60.945
97 1 119.672 115.487 61.0905
209 1 118.082 112.726 59.5961
372 1 118.854 113.751 61.1656
373 1 118.221 114.017 60.5329
201 1 114.109 115.016 61.7076
493 1 114.421 113.98 61.5209
83 1 117.152 116.417 60.4448
99 1 118.233 115.435 61.6844
98 1 118.666 115.355 60.9557
137 1 116.42 111.093 63.4513
136 1 116.357 112.073 63.3204
468 1 118.967 109.358 59.6701
139 1 116.692 109.993 62.0783
140 1 115.926 110.071 61.3392
183 1 115.804 111.631 62.3175
181 1 117.116 111.491 62.7803
469 1 119.129 109.367 60.5529
471 1 117.784 110.163 61.7228
470 1 118.201 109.724 60.929
418 1 113.417 110.823 61.0202
417 1 114.015 111.637 60.6883
402 1 113.979 113.036 60.0427
187 1 115.697 111.299 61.2739
186 1 114.961 111.009 61.9886
185 1 114.955 111.957 61.5889
121 1 114.61 112.69 64.1099
199 1 116.761 111.096 60.9494
182 1 116.513 111.123 62.0566
472 1 117.657 110.629 60.8317
480 1 117.609 111.363 61.6396
414 1 113.088 112.965 60.7977
415 1 113.096 112.707 61.723
490 1 114.977 112.763 62.2841
481 1 113.556 114.091 62.1117
416 1 113.707 112.06 61.4258
378 1 116.29 113.212 61.89
122 1 115.12 112.785 63.4766
377 1 116.046 112.745 62.475
376 1 116.883 112.472 62.418
375 1 117.635 112.372 61.7135
479 1 118.621 111.221 62.0897
478 1 118.171 111.951 62.5561
477 1 118.518 112.794 61.925
499 1 116.249 115.101 65.2693
498 1 115.686 114.306 65.1276
497 1 114.894 114.017 64.5956
483 1 113.337 113.036 63.556
491 1 114.157 113.168 61.9919
482 1 113.429 113.428 62.5857
379 1 115.762 113.673 62.7411
371 1 118.35 114.392 61.6088
369 1 117.091 113.652 62.6198
370 1 117.396 114.135 61.7589
494 1 114.609 113.998 62.3241
100 1 117.423 115.972 61.6148
367 1 116.736 115.159 63.3429
135 1 116.507 111.609 64.3256
134 1 117.029 110.746 64.7398
133 1 117.454 110.711 63.7667
132 1 117.387 111.598 63.7843
128 1 117.774 112.437 64.4478
131 1 118.32 111.81 63.8663
127 1 117.667 112.472 63.3278
129 1 117.742 111.546 64.7575
489 1 114.182 112.568 62.8132
123 1 115.775 113.178 63.9787
125 1 116.535 114.154 63.7258
124 1 115.569 114.251 63.8243
126 1 117.039 113.175 63.5993
362 1 118.778 114.048 63.6663
363 1 118.351 113.22 63.3363
361 1 118.182 113.868 64.4487
485 1 113.225 111.727 63.0513
486 1 113.853 110.908 63.0636
484 1 112.911 112.646 62.9377
487 1 114.22 111.768 63.5965
488 1 114.818 111.831 62.8477
380 1 115.519 114.478 62.3913
365 1 117.548 114.243 63.4732
364 1 118.081 113.957 62.7201
366 1 117.66 115.266 63.1492
368 1 116.522 114.483 62.6539
130 1 118.391 110.948 64.3797
174 1 114.428 96.4994 67.2442
175 1 113.349 96.3973 67.3433
256 1 115.483 96.7527 67.2384
177 1 112.6 97.224 67.0742
258 1 114.691 97.4824 66.6906
176 1 113.621 97.1507 66.7653
257 1 115.733 97.5172 66.5763
255 1 115.103 97.6245 67.6628
254 1 115.153 98.5139 67.7929
242 1 113.212 97.3898 68.0596
178 1 112.862 98.1395 67.2976
243 1 114.094 97.3766 68.4396
260 1 114.097 98.9933 65.4093
259 1 114.59 98.3464 66.0083
246 1 113.591 98.2677 68.5153
253 1 115.325 99.3868 67.449
252 1 115.968 99.5181 68.1155
38 1 117.011 99.2476 68.6965
36 1 116.743 98.6006 69.8227
37 1 116.974 99.5847 69.5676
244 1 114.413 97.903 69.2544
245 1 113.655 98.5864 69.2428
172 1 113.928 95.6308 68.1228
173 1 114.204 95.6111 67.0437
167 1 116.197 97.2055 68.262
168 1 116.221 97.2144 69.3951
170 1 114.915 96.3888 68.2497
161 1 116.017 96.62 70.4483
162 1 115.075 96.3379 70.4186
171 1 114.876 95.495 67.8626
166 1 115.173 97.3235 68.6699
164 1 114.351 96.7929 69.3228
179 1 113.798 98.042 67.3953
40 1 116.701 98.2699 67.8364
39 1 116.686 98.2996 68.7371
241 1 112.315 97.0604 68.0932
248 1 114.309 99.1817 67.6403
249 1 114.488 98.8336 68.5883
251 1 115.573 98.8287 68.7799
30 1 116.577 99.4917 70.5835
180 1 113.556 98.9007 66.9329
35 1 116.165 97.8084 70.3184
33 1 115.878 99.1846 69.8202
34 1 115.732 98.1853 69.5664
247 1 113.347 99.1244 68.0796
250 1 115.11 99.6281 68.7694
169 1 115.811 96.4408 68.8102
163 1 114.93 96.0733 69.4502
165 1 115.183 97.0984 69.5982
21 1 114.492 97.8714 70.7746
22 1 114.647 98.5886 71.148
27 1 114.839 100.473 70.9127
28 1 115.61 99.6226 71.0515
29 1 116.393 100.197 71.2722
23 1 114.909 99.0273 70.3186
31 1 116.064 100.199 70.37
32 1 115.742 100.056 69.4469
24 1 114.396 99.2304 69.6177
25 1 113.876 98.6672 70.3839
26 1 114.135 99.6484 70.5599
63 1 -9.54247 96.2158 81.4167
62 1 -9.54555 96.9274 82.0804
64 1 -8.6943 96.232 82.0816
66 1 -7.95715 95.6676 80.4219
65 1 -8.59759 95.7086 81.217
67 1 -8.85972 95.9544 80.1701
73 1 -8.93352 98.9153 79.5925
74 1 -9.57916 98.6228 79.0832
61 1 -10.21 97.5922 81.4886
70 1 -10.5393 97.8087 80.4423
68 1 -9.62801 96.2075 80.3732
69 1 -10.4037 96.7368 80.3469
80 1 -8.91558 97.646 81.7701
79 1 -8.92186 96.8279 80.9668
72 1 -9.32221 98.7053 80.4448
77 1 -8.22793 97.8419 80.8807
78 1 -8.01222 96.6907 81.0548
71 1 -9.62466 97.6446 80.455
76 1 -8.26746 98.1355 80.0234
75 1 -9.10395 97.8644 79.604
452 1 -40.8471 -25.1731 101.131
451 1 -41.3905 -25.9631 101.086
453 1 -40.2377 -25.748 101.581
459 1 -39.9302 -27.781 101.899
458 1 -40.8424 -27.5054 102.2
455 1 -39.7542 -26.7471 101.613
454 1 -39.2371 -25.941 101.386
457 1 -40.8389 -26.7619 101.666
450 1 -40.4777 -26.0777 100.601
456 1 -40.2586 -27.2462 101.001
449 1 -41.1907 -26.0473 99.8993
448 1 -40.8915 -27.0111 99.8507
447 1 -41.2492 -27.0133 100.794
445 1 -40.9693 -28.01 101.297
460 1 -40.1815 -28.5895 102.353
444 1 -40.651 -28.0534 100.365
443 1 -40.1454 -28.6442 101.098
442 1 -41.0375 -28.9496 100.863
441 1 -41.7374 -28.8569 101.522
221 1 100.237 -17.7864 103.842
446 1 -41.5927 -27.9653 100.515
223 1 99.5563 -18.1618 102.949
224 1 99.2454 -18.3372 103.922
240 1 97.1949 -21.3904 105.791
222 1 99.4011 -17.3148 103.26
230 1 96.949 -19.7684 105.32
231 1 96.8535 -18.8853 104.864
226 1 98.8464 -19.6186 104.957
229 1 97.9643 -19.9145 105.63
237 1 97.0539 -20.0755 106.403
225 1 99.6004 -19.2979 104.175
232 1 97.3838 -18.7142 105.736
235 1 98.7162 -20.1396 106.552
236 1 97.9164 -19.5357 106.631
238 1 97.6421 -20.2334 107.273
239 1 97.3838 -20.9588 106.722
233 1 98.2031 -18.9158 105.389
228 1 98.0187 -20.6623 104.995
227 1 97.961 -19.7606 104.507
234 1 98.8532 -19.2048 106.062
56 1 31.8126 55.9317 111.088
52 1 30.108 54.7035 112.272
57 1 31.4886 56.8815 111.302
58 1 32.3323 56.7514 111.979
53 1 30.5309 55.7077 112.447
59 1 33.0794 56.1736 111.815
55 1 31.178 55.2043 110.864
51 1 30.4681 54.7884 111.493
49 1 31.5659 55.5313 112.298
54 1 30.8785 55.7806 111.527
48 1 31.2324 55.0156 113.006
60 1 33.4602 56.9822 111.647
44 1 32.0153 53.896 111.112
50 1 31.3684 54.5746 111.874
47 1 30.9237 54.1364 112.797
46 1 30.4803 53.7676 111.872
45 1 30.9939 53.9233 111.018
43 1 31.7939 53.5248 112.016
42 1 31.3275 52.9004 111.477
41 1 30.4715 52.6033 112.012
ITEM: TIMESTEP
49000
ITEM: NUMBER OF ATOMS
500
ITEM: BOX BOUNDS pp pp pp
-7.4078147052159878e+01 1.3407814705216072e+02
-7.4078147052159878e+01 1.3407814705216072e+02
-7.4078147052159878e+01 1.3407814705216072e+02
ITEM: ATOMS id type x y z
298 1 39.0972 -50.8625 -60.3825
300 1 38.7376 -49.429 -59.5632
281 1 37.9427 -50.7267 -60.5344
282 1 38.5517 -49.9774 -60.6749
296 1 39.5274 -50.7749 -61.4947
299 1 39.1169 -50.3301 -59.5675
287 1 37.1966 -49.7479 -61.106
288 1 37.0702 -50.7486 -61.3629
297 1 39.935 -51.2351 -60.7153
294 1 38.2866 -50.5815 -61.5737
289 1 37.4504 -50.9576 -62.3052
284 1 39.2429 -48.6631 -61.1968
283 1 39.4043 -49.5659 -60.7718
286 1 38.1053 -49.468 -61.4564
285 1 38.3413 -49.0033 -60.6659
293 1 39.0472 -49.9258 -61.8258
291 1 38.6556 -50.6095 -62.6286
292 1 39.6068 -50.401 -62.5318
295 1 38.7732 -51.5106 -61.4815
290 1 37.7577 -50.0495 -62.7337
118 1 6.66215 111.482 -51.945
117 1 6.86075 110.493 -51.8326
102 1 6.85888 111.675 -52.9514
103 1 6.58789 111.269 -53.7363
110 1 8.93493 111.428 -50.3991
115 1 7.87917 110.569 -51.1199
116 1 7.73058 110.945 -52.0049
120 1 7.72617 111.628 -50.3175
109 1 8.63283 111.558 -51.3635
107 1 8.34762 110.326 -52.6175
106 1 7.62088 110.776 -53.0774
119 1 7.11871 111.604 -51.12
105 1 7.37133 109.932 -52.6813
104 1 6.55638 110.304 -53.2525
101 1 7.8734 111.806 -52.5893
111 1 8.83421 110.417 -50.5697
112 1 9.55112 110.564 -51.2866
113 1 8.76556 109.99 -51.6444
108 1 8.72841 111.244 -52.2435
114 1 7.73553 109.752 -51.6363
153 1 95.8083 -50.8994 -19.2845
152 1 94.927 -50.8595 -19.0029
151 1 94.7515 -49.9047 -19.3891
142 1 94.5007 -51.8303 -20.6174
149 1 93.5994 -50.1427 -19.8808
150 1 93.9292 -50.1073 -18.9315
157 1 96.3031 -49.9911 -19.8435
160 1 95.3165 -50.9892 -21.1195
159 1 96.1789 -50.4983 -20.9977
158 1 95.5178 -50.3009 -20.2319
141 1 95.3949 -51.428 -20.1401
147 1 94.5568 -49.5358 -20.5298
146 1 94.2052 -50.2885 -21.0542
148 1 93.7811 -49.0915 -20.0721
154 1 96.2019 -51.8432 -19.2104
144 1 93.8778 -51.17 -19.5736
143 1 94.4989 -51.8785 -19.6672
145 1 94.5617 -50.8675 -20.1394
156 1 96.6281 -50.976 -19.9041
155 1 96.2686 -52.0091 -20.1187
439 1 67.5472 -10.7739 -5.97605
301 1 68.4085 -10.2153 -5.8218
302 1 68.4651 -10.9758 -5.28291
438 1 67.0548 -11.0976 -5.25322
308 1 65.6625 -11.9192 -4.05048
440 1 67.4934 -11.6645 -6.54217
436 1 66.9512 -9.97392 -5.24551
437 1 67.5172 -10.6063 -4.71477
435 1 67.537 -9.3764 -4.91795
309 1 65.2132 -11.0819 -4.4233
421 1 66.309 -11.5367 -3.25576
317 1 65.3994 -10.6685 -3.47395
305 1 67.9491 -11.562 -3.79504
304 1 68.3972 -10.7365 -3.96112
303 1 68.3452 -10.0896 -4.69783
314 1 65.5663 -8.68771 -3.97872
315 1 65.6041 -9.2107 -4.82209
306 1 67.1047 -11.6972 -4.25975
307 1 66.3526 -11.9801 -4.71927
316 1 65.4979 -10.0528 -4.22858
434 1 68.3254 -8.95031 -4.58649
312 1 66.5269 -9.19075 -3.911
310 1 66.1852 -10.8915 -4.74408
311 1 66.575 -10.1284 -4.20437
433 1 67.961 -9.21214 -3.75447
422 1 66.5114 -12.4629 -3.26427
424 1 66.9109 -11.6023 -1.7259
426 1 66.9371 -9.95473 -2.01104
423 1 67.1178 -12.052 -2.54525
425 1 66.8859 -10.862 -2.22281
429 1 68.7797 -11.323 -2.99695
428 1 67.8395 -11.0735 -2.8638
318 1 66.3535 -10.5496 -3.09006
430 1 69.0129 -10.3898 -2.98424
313 1 65.7315 -9.33964 -3.23914
319 1 67.1548 -10.8732 -3.72009
320 1 67.3473 -9.99076 -3.32244
431 1 69.061 -9.47304 -3.19765
432 1 68.2529 -9.71766 -2.94824
427 1 67.9295 -10.2577 -2.1517
394 1 130.194 88.8683 49.833
395 1 129.817 89.0165 48.8377
396 1 129.068 89.424 48.4699
392 1 130.028 89.9658 49.7469
269 1 128.39 88.9377 49.1421
270 1 128.44 88.3059 48.4038
393 1 129.259 89.2921 49.9158
389 1 128.433 89.8817 50.3563
271 1 128.06 89.2332 48.0734
398 1 129.345 90.6179 48.7885
397 1 128.777 89.8351 49.2649
390 1 128.937 90.6095 49.8541
391 1 129.801 90.974 49.579
399 1 128.528 90.3481 48.2225
400 1 127.774 90.9035 47.6461
276 1 128.243 90.8617 49.0732
20 1 78.2512 14.2153 50.5944
267 1 127.572 89.0831 50.0263
268 1 128.277 88.5711 50.0765
266 1 127.107 89.9629 50.4897
388 1 129.278 90.0625 50.9026
272 1 127.334 88.8244 48.5993
273 1 127.087 89.714 48.0849
265 1 126.867 89.7686 49.6147
384 1 128.087 92.7918 50.1642
264 1 126.326 90.5042 49.028
387 1 129.568 90.8774 50.6688
262 1 127.605 91.6982 49.837
386 1 128.51 91.1809 50.5706
263 1 126.781 91.4121 49.3535
275 1 127.685 90.4055 49.7444
274 1 127.359 90.3647 48.6922
278 1 128.326 92.0821 49.308
277 1 128.702 91.487 48.5637
385 1 128.642 92.1239 50.3083
280 1 128.267 92.679 48.4687
279 1 127.746 92.0003 48.4516
15 1 77.9349 16.1452 51.8353
12 1 79.1006 15.429 53.229
11 1 78.8567 15.6574 54.1448
16 1 77.2145 15.7649 51.2567
17 1 77.9044 15.3532 50.7574
8 1 78.4754 13.6521 53.0226
7 1 77.6787 14.259 53.0432
9 1 79.4073 13.9576 53.1692
10 1 79.164 14.6734 53.898
19 1 77.4593 13.9241 51.3411
18 1 77.2037 14.6507 50.8926
6 1 78.4009 14.6698 52.7637
381 1 126.451 93.1266 51.5066
383 1 127.26 93.0539 50.6385
382 1 127.337 92.9673 51.7127
261 1 126.829 92.0981 50.371
1 1 79.8898 15.1922 50.9919
14 1 77.4894 15.7666 52.7427
13 1 78.4799 15.662 52.6963
2 1 78.9452 15.4496 51.2074
3 1 78.2403 15.1338 51.7835
4 1 78.9206 14.4152 51.4784
5 1 79.1979 14.7663 52.3032
350 1 122.3 117.334 58.491
351 1 122.89 117.071 59.3766
359 1 120.901 117.128 57.1624
360 1 119.862 117.353 57.0663
354 1 121.956 115.757 58.2224
464 1 121.368 113.475 60.2942
463 1 121.766 114.008 59.4688
322 1 119.633 116.732 57.9915
353 1 122.613 116.264 58.8488
323 1 120.432 116.461 58.0677
349 1 121.254 117.252 58.5423
352 1 122.941 116.251 59.8282
321 1 118.808 116.259 58.3617
358 1 121.601 117.698 57.3139
357 1 122.153 117.351 56.5522
347 1 120.277 118.252 59.4316
348 1 120.36 117.28 58.8356
87 1 121.267 120.656 61.4716
342 1 119.163 118.586 58.7806
343 1 119.951 119.123 59.1858
344 1 120.145 118.472 58.4884
346 1 121.032 118.843 59.2142
194 1 119.793 115.457 57.9669
192 1 119.03 114.868 59.8753
195 1 120.604 115.111 57.834
466 1 120.457 113.2 61.301
467 1 119.981 112.296 61.4123
324 1 120.016 116.016 58.9062
193 1 119.295 115.228 58.9591
355 1 121.363 116.007 57.3893
465 1 120.55 114.07 60.5746
462 1 122.133 115.077 59.3843
461 1 122.89 115.1 60.055
409 1 118.303 118.718 60.1095
327 1 118.378 115.779 59.7804
326 1 119.279 116.266 59.5232
356 1 122.226 116.495 57.1276
325 1 120.021 115.653 59.83
333 1 121.84 116.895 59.7599
332 1 121.403 116.219 59.2582
216 1 121.657 117.828 59.5201
334 1 121.297 116.798 60.5964
335 1 121.099 115.925 61.2357
213 1 121.221 118.163 61.5641
410 1 118.183 117.726 59.8842
408 1 119.258 118.702 59.9381
219 1 119.804 117.284 59.7778
220 1 119.079 117.215 59.0347
217 1 120.782 117.543 59.8987
341 1 118.32 118.346 59.0437
94 1 120.086 119.252 60.283
215 1 122.413 117.891 60.2591
214 1 121.516 117.932 60.6671
406 1 119.162 118.124 61.5873
93 1 120.005 120.199 59.6566
86 1 120.444 120.778 61.5624
90 1 119.98 118.695 61.1957
345 1 121.147 118.192 58.632
88 1 121.043 119.854 61.2859
89 1 120.635 119.081 61.9426
85 1 120.748 120.25 62.3066
190 1 118.744 113.879 60.7971
470 1 118.996 113.247 62.6952
468 1 120.541 112.003 62.0999
469 1 119.688 112.664 62.4178
340 1 122.518 113.313 61.3908
419 1 117.844 115.79 60.7647
191 1 118.186 114.249 60.0248
188 1 118.017 112.931 62.154
196 1 120.227 114.963 58.8317
197 1 121.014 115.002 59.1403
198 1 120.638 114.897 60.1247
199 1 120.148 115.36 60.9813
473 1 120.153 114.824 62.8222
472 1 119.331 114.343 62.6014
337 1 121.983 115.535 60.9099
338 1 121.673 114.662 60.4605
339 1 122.006 113.838 60.9634
420 1 117.336 115.871 59.8957
412 1 118.302 116.996 60.7432
417 1 118.859 116.036 61.6609
414 1 117.387 116.939 62.4448
328 1 119.006 115.941 60.6147
329 1 119.279 117.086 60.738
401 1 118.309 117.679 62.4607
330 1 119.965 116.442 60.5137
331 1 120.493 116.537 59.7636
474 1 120.209 113.822 62.784
475 1 120.486 114.165 61.9032
209 1 119.771 115.476 62.0979
336 1 121.415 115.706 60.2619
210 1 120.285 116.327 61.719
411 1 117.831 116.807 59.7504
407 1 119.173 118.168 60.7342
403 1 118.273 118.844 61.2121
402 1 118.082 118.088 61.7437
218 1 120.281 117.66 60.5788
207 1 119.677 116.967 62.19
208 1 119.659 116.092 62.6804
374 1 121.916 116.871 63.345
373 1 122.034 117.757 63.6054
211 1 120.94 116.956 61.7452
212 1 120.378 117.712 61.6246
404 1 118.437 118.962 62.1978
405 1 119.364 118.837 62.3524
203 1 119.585 117.645 64.0234
92 1 119.136 119.829 60.2686
91 1 119.269 119.485 61.2059
81 1 119.569 118.598 63.5624
96 1 121.642 119.176 61.6601
95 1 120.905 118.899 60.8486
98 1 122.105 118.476 62.6387
84 1 119.853 119.758 62.1409
83 1 119.701 120.22 63.0804
82 1 119.117 119.524 63.5911
139 1 121.325 113.43 63.9916
140 1 122.296 113.855 63.9667
471 1 119.175 113.713 61.736
418 1 117.766 116.215 61.63
189 1 118.315 113.003 61.067
187 1 118.1 113.903 61.9513
186 1 117.471 114.593 62.375
182 1 119.302 115.052 63.2846
480 1 121.184 114.775 64.3105
479 1 122.09 114.848 63.9552
415 1 117.87 116.694 63.2891
416 1 118.399 116.465 62.4696
184 1 118.587 114.786 61.9578
183 1 118.718 115.387 62.7051
185 1 117.808 114.905 61.3801
490 1 118.173 114.495 63.3706
200 1 119.578 114.668 60.9526
375 1 121.599 115.827 63.4045
477 1 121.671 113.897 62.5444
476 1 121.216 114.595 61.8738
413 1 117.611 117.221 61.3611
493 1 118.222 116.628 64.2476
481 1 118.125 115.25 66.0081
491 1 118.41 115.268 63.8934
492 1 118.783 116.069 63.4809
494 1 118.704 116.132 64.7586
206 1 119.729 117.829 62.5394
378 1 119.618 115.782 64.0744
371 1 123.208 116.638 64.1843
370 1 122.319 116.38 64.5339
372 1 122.892 117.246 63.3137
201 1 118.606 118.685 63.9446
202 1 118.719 117.71 64.2309
204 1 120.232 117.799 63.5074
205 1 120.418 116.957 63.0506
99 1 121.613 117.473 62.491
97 1 122.287 118.421 61.5133
100 1 120.859 118.128 62.6036
486 1 117.413 113.966 64.7642
138 1 120.405 113.589 63.9798
137 1 119.752 112.915 63.6567
181 1 119.277 114.414 63.899
484 1 117.467 114.894 64.2884
489 1 118.353 113.778 64.0073
485 1 117.284 113.969 63.8363
487 1 117.933 114.296 65.4889
122 1 119.283 114.314 65.5752
488 1 118.404 114.5 64.7436
136 1 120.125 112.576 64.5556
377 1 120.442 116.043 63.667
376 1 120.987 115.204 63.4519
478 1 121.69 114.352 63.3901
127 1 121.51 114.878 65.4429
483 1 117.658 115.821 64.3586
482 1 117.99 115.471 65.1078
495 1 119.64 116.062 65.3526
379 1 119.388 116.72 64.1822
369 1 121.357 116.068 64.3708
125 1 120.224 115.086 65.7787
126 1 120.904 115.509 65.2162
363 1 120.044 116.917 65.0837
365 1 121.263 116.651 65.2336
364 1 120.74 117.432 65.5857
362 1 119.136 117.007 65.1338
380 1 119.205 116.973 63.1702
367 1 120.851 117.534 64.4176
368 1 121.044 116.84 63.9127
366 1 121.659 117.439 64.8347
134 1 121.085 113.976 65.0509
133 1 120.77 114.025 65.8758
132 1 121.792 113.645 65.7698
129 1 123.244 115.436 64.8156
130 1 123.105 114.44 65.3133
121 1 119.061 115.288 65.1903
135 1 120.386 113.169 65.2611
128 1 122.26 115.238 64.9312
131 1 122.189 114.017 64.9656
496 1 119.383 115.511 66.218
498 1 119.233 116.67 66.2072
497 1 118.592 116.101 65.923
123 1 120.025 114.057 64.84
124 1 120.119 114.997 64.6664
500 1 121.077 116.575 66.4283
361 1 119.597 117.523 65.7654
257 1 119.187 99.4655 68.3394
259 1 119.217 101.243 67.8119
260 1 118.57 101.835 68.203
499 1 120.181 116.812 66.2994
173 1 118.994 98.967 69.5297
171 1 120.085 99.1179 68.7333
177 1 116.952 98.6285 69.9636
175 1 118.2 99.3239 68.8162
176 1 117.755 99.0008 69.5865
174 1 118.663 98.4187 68.8067
256 1 119.357 100.023 69.1167
258 1 119.1 100.357 67.9229
178 1 117.302 98.0329 69.3763
179 1 116.653 98.7131 68.8952
180 1 116.804 99.6351 69.1467
255 1 118.428 100.524 68.8686
254 1 117.768 100.863 69.2109
40 1 120.549 102.383 69.8448
248 1 117.778 101.282 70.7401
253 1 118.474 101.519 69.2014
172 1 119.836 98.9238 69.8671
241 1 117.575 97.9876 70.5083
242 1 118.127 98.3989 71.2743
243 1 118.298 99.4209 71.0058
164 1 119.222 99.6402 70.2416
170 1 120.371 100.026 68.8112
166 1 118.654 100.747 70.0141
169 1 120.06 100.886 68.4812
167 1 119.477 100.539 70.4316
168 1 119.787 101.025 69.4799
246 1 116.901 100.471 70.7227
244 1 117.877 99.711 71.8642
245 1 116.996 100.081 71.5308
249 1 117.175 101.225 69.9958
251 1 118.146 102.314 70.8095
39 1 119.898 101.807 70.3319
247 1 117.852 100.42 70.6525
250 1 117.48 102.203 70.2263
252 1 118.615 101.948 70.0451
38 1 120.686 101.435 70.7615
163 1 120.273 99.5276 70.6225
162 1 120.472 100.356 69.9297
165 1 118.448 99.9014 69.7226
161 1 120.81 100.424 70.92
25 1 117.23 101.741 71.5701
34 1 119.219 102.242 71.0936
21 1 118.601 100.867 71.8432
36 1 119.81 101.329 71.3682
35 1 119.012 101.335 70.8484
24 1 118.106 101.878 71.8413
26 1 116.493 102.362 70.9956
23 1 118.116 101.388 72.6595
32 1 119.172 102.992 69.2766
37 1 120.089 102.141 71.4549
30 1 118.001 102.784 68.6961
33 1 119.291 102.663 70.2096
31 1 118.188 102.84 69.695
22 1 117.727 100.735 71.9212
28 1 116.533 101.954 69.695
29 1 117.632 101.996 69.267
27 1 116.069 102.694 70.1209
74 1 -11.9362 99.68 81.1742
67 1 -10.7456 100.019 82.664
66 1 -10.2841 99.0054 82.8212
68 1 -11.6177 99.3687 82.798
69 1 -12.4329 99.5688 82.1759
70 1 -11.9966 100.455 82.641
71 1 -12.6895 100.938 82.3082
73 1 -11.4426 100.236 81.8755
72 1 -11.9317 101.112 81.6838
76 1 -11.112 99.0859 81.7689
75 1 -11.0261 99.4863 80.7485
65 1 -9.38923 98.4397 82.5568
63 1 -9.05016 99.3433 81.8853
79 1 -10.4475 101.274 81.4337
78 1 -10.2469 100.648 82.0834
61 1 -10.0398 100.66 83.2303
80 1 -9.90582 100.685 80.9516
77 1 -10.4278 99.937 81.6038
62 1 -9.55137 99.9671 82.4876
64 1 -9.95238 99.0463 81.9465
448 1 -42.0762 -28.3813 103.811
449 1 -41.7327 -28.8644 104.537
445 1 -43.9109 -28.7031 103.034
444 1 -43.5194 -28.7771 102.207
442 1 -42.4532 -28.7134 102.215
441 1 -42.8235 -28.5454 103.174
446 1 -43.5856 -28.4713 103.965
443 1 -42.8998 -28.2382 101.41
457 1 -43.4124 -29.561 103.526
447 1 -42.7801 -28.4157 104.566
455 1 -42.5457 -30.1426 104.625
456 1 -43.159 -29.3761 104.485
452 1 -42.6861 -30.3177 105.865
451 1 -41.7517 -30.1933 105.699
450 1 -41.4156 -29.744 104.875
453 1 -42.4708 -30.9748 105.195
454 1 -42.0509 -30.9958 104.473
459 1 -42.3413 -29.5461 103.293
460 1 -43.0536 -29.7604 102.559
458 1 -42.9553 -30.3595 103.55
223 1 102.88 -21.9856 109.143
227 1 101.848 -22.8637 108.637
225 1 101.544 -21.638 108.72
224 1 102.502 -21.3284 109.055
221 1 102.119 -20.6734 109.966
222 1 102.56 -21.4962 110.001
240 1 101.564 -21.6148 110.037
228 1 101.814 -23.2835 107.766
230 1 101.74 -21.2962 107.743
226 1 100.967 -22.3412 108.499
229 1 101.864 -22.2441 107.696
231 1 100.908 -20.7721 107.632
232 1 101.358 -20.0912 108.05
233 1 100.423 -19.9282 108.391
239 1 100.767 -21.6032 109.853
237 1 99.5118 -21.5816 108.693
235 1 100.364 -20.6732 109.327
236 1 100.52 -21.3129 108.686
238 1 99.8908 -21.6772 109.65
234 1 101.084 -20.0149 109.165
45 1 31.1801 57.1133 116.06
42 1 30.3524 57.4177 115.21
44 1 31.8557 57.0525 115.385
55 1 33.4705 55.3249 115.862
51 1 32.215 56.0172 113.887
54 1 32.837 55.9183 115.614
56 1 33.5716 54.3721 115.402
57 1 32.7773 54.8316 114.943
46 1 31.0076 56.1539 116.04
41 1 30.562 58.0338 116.101
43 1 31.1982 57.1818 114.673
52 1 32.6758 56.6013 114.476
50 1 31.2272 56.1419 113.985
47 1 31.9571 56.3393 116.145
53 1 33.3365 55.8484 114.646
49 1 30.8346 56.1231 114.941
59 1 32.4802 54.4839 116.346
58 1 32.1168 55.1303 115.577
60 1 31.8944 55.3329 116.585
48 1 31.8635 56.0412 115.161
ITEM: TIMESTEP
50000
ITEM: NUMBER OF ATOMS
500
ITEM: BOX BOUNDS pp pp pp
-7.7354113980206904e+01 1.3735411398020773e+02
-7.7354113980206904e+01 1.3735411398020773e+02
-7.7354113980206904e+01 1.3735411398020773e+02
ITEM: ATOMS id type x y z
294 1 38.8763 -52.8625 -64.5092
289 1 39.2389 -52.424 -62.7947
296 1 37.8085 -53.3775 -64.2101
291 1 38.2432 -52.7722 -62.5185
292 1 37.7175 -52.5508 -63.3692
295 1 38.6838 -53.3703 -63.7024
286 1 39.4994 -51.6573 -63.7797
290 1 38.433 -51.8251 -62.8543
293 1 38.5164 -52.2775 -63.8729
281 1 38.75 -52.6568 -65.6896
288 1 39.3643 -51.4739 -62.6259
298 1 39.2511 -53.7891 -64.8831
297 1 38.4123 -54.22 -64.3668
287 1 40.0622 -51.043 -63.1416
285 1 39.1499 -51.1398 -64.5187
282 1 38.2606 -53.4378 -65.3075
283 1 38.0116 -52.46 -64.8936
284 1 38.6446 -51.8362 -64.9225
299 1 39.7312 -53.3277 -65.4996
300 1 39.2482 -54.2073 -65.8251
103 1 5.22779 113.931 -54.4172
104 1 5.2867 113.902 -53.4429
106 1 6.55108 113.518 -54.4817
105 1 5.9619 113.108 -53.7367
113 1 6.98075 112.207 -55.5631
114 1 7.54729 112.569 -54.908
118 1 8.45966 113.176 -55.153
117 1 7.87906 113.739 -54.5652
116 1 7.21559 114.277 -55.0378
107 1 6.20937 112.699 -54.815
108 1 5.947 113.459 -55.3795
102 1 5.8759 114.683 -54.2778
101 1 6.41692 114.178 -53.6598
115 1 7.29134 113.329 -55.4565
109 1 6.50922 113.683 -56.2334
111 1 7.73497 113.259 -56.4415
110 1 6.90891 112.793 -56.4008
112 1 7.9455 112.516 -55.9252
119 1 8.41045 113.898 -55.9463
120 1 7.47824 114.321 -56.1392
146 1 98.1452 -52.928 -22.0976
160 1 96.498 -52.9474 -20.5647
159 1 97.3124 -52.39 -20.4985
142 1 97.5834 -53.4473 -20.2786
143 1 98.4633 -52.9049 -20.2559
155 1 96.0766 -53.5396 -21.6354
144 1 99.0867 -52.636 -20.969
145 1 98.1946 -52.3961 -21.3314
153 1 96.8942 -54.18 -22.2646
158 1 97.2306 -53.1111 -21.2832
141 1 96.7563 -53.8947 -20.8064
156 1 95.9495 -52.6421 -22.0264
149 1 99.0782 -54.0461 -20.806
147 1 99.0903 -52.7425 -22.0111
148 1 99.1364 -53.8413 -21.7091
151 1 97.9452 -53.9781 -22.0224
157 1 96.9575 -52.7521 -22.1471
154 1 96.1413 -53.581 -22.6377
152 1 97.3331 -54.4841 -21.4568
150 1 98.2881 -53.4482 -21.2325
438 1 69.0971 -12.0218 -6.40006
440 1 69.226 -12.8862 -4.97999
302 1 69.0929 -10.7022 -5.93061
439 1 69.1967 -12.9196 -5.91908
436 1 68.0947 -12.5994 -5.96276
301 1 68.7452 -9.89539 -5.91876
308 1 66.037 -12.5328 -5.52513
309 1 65.6969 -12.0855 -4.69276
307 1 66.9464 -12.249 -5.47421
310 1 66.1859 -11.8724 -3.87822
305 1 68.066 -12.7181 -4.79452
306 1 67.7537 -11.8608 -5.15971
316 1 66.6335 -10.7738 -3.37317
311 1 67.1357 -11.5197 -4.24602
437 1 68.3463 -11.6024 -5.92119
304 1 68.7418 -12.0672 -4.62888
303 1 69.2513 -11.2556 -5.09022
314 1 64.9743 -11.3279 -4.40809
315 1 65.5928 -11.0575 -3.59854
312 1 66.6214 -10.6974 -4.37344
435 1 67.325 -12.1881 -6.43201
434 1 66.3668 -11.5735 -6.35983
422 1 67.953 -12.2846 -3.64417
421 1 67.3875 -13.0984 -3.95135
423 1 68.797 -11.8202 -3.44289
428 1 69.6212 -10.6996 -4.23022
319 1 67.779 -10.4384 -4.17881
429 1 69.6758 -9.87879 -4.92645
317 1 67.5836 -11.021 -3.19189
318 1 67.2936 -9.94581 -3.46437
320 1 68.3701 -11.2308 -4.07868
430 1 68.8329 -9.83419 -4.44896
431 1 68.4026 -10.4706 -5.04584
432 1 67.5202 -10.2884 -5.30931
313 1 65.8313 -10.9008 -4.78463
433 1 66.9314 -10.9776 -5.6316
424 1 69.183 -12.5623 -2.82815
425 1 69.6595 -12.7993 -3.81863
426 1 69.7562 -12.1273 -4.47767
427 1 69.9906 -11.514 -3.79889
271 1 133.424 91.5806 49.7399
273 1 132.042 91.3303 50.3148
399 1 132.525 92.0801 49.5798
400 1 133.342 92.3351 50.2978
269 1 132.636 90.0189 49.4529
270 1 132.873 90.8961 49.7035
272 1 133.06 91.2702 50.5873
395 1 132.193 93.2264 52.2348
265 1 131.518 90.7869 51.3648
274 1 131.893 91.1494 49.2839
396 1 132.058 92.8298 51.4145
397 1 132.858 93.0441 50.9457
264 1 131.064 91.2201 50.7314
263 1 130.263 91.5931 50.3165
276 1 131.365 92.0187 49.9478
398 1 132.269 92.3304 50.4926
391 1 131.367 92.2242 51.0507
277 1 131.346 92.5324 49.1308
278 1 130.375 92.4493 49.3961
280 1 129.473 93.6888 49.6774
279 1 129.918 92.9075 50.1967
20 1 77.5246 13.611 53.5063
18 1 78.7954 14.0124 52.392
17 1 79.3298 14.9685 52.3513
1 1 78.7766 13.1303 54.15
268 1 131.589 90.0111 49.7649
394 1 132.875 92.3343 51.9468
389 1 131.29 93.4675 51.8117
267 1 132.222 89.9436 50.4311
266 1 132.465 90.6154 51.1934
275 1 131.01 91.1451 49.5498
393 1 131.94 91.9485 52.0427
388 1 131.878 94.0136 51.3536
392 1 132.246 91.7136 51.3088
262 1 129.506 91.568 49.5654
390 1 131.212 93.09 50.8535
387 1 131.75 94.8776 51.7458
386 1 131.244 94.6362 50.9377
261 1 128.879 92.3632 49.5027
384 1 130.776 93.6572 49.7935
383 1 131.802 93.5217 49.7493
385 1 130.502 94.1153 50.5994
19 1 78.2253 13.2697 52.7764
4 1 78.8049 14.8343 54.1843
16 1 79.9031 14.453 52.9643
2 1 79.0481 13.8031 53.4085
3 1 78.7155 14.704 53.1617
5 1 77.7288 14.8985 54.1378
15 1 79.8307 13.5375 52.7905
381 1 132.496 93.5551 48.8435
382 1 132.801 93.6944 49.7624
7 1 78.9003 16.0302 54.0167
8 1 78.3309 16.4064 53.216
9 1 78.7879 16.1702 52.3835
14 1 80.3873 13.8399 53.689
12 1 79.9302 15.631 54.3478
10 1 79.7295 15.9889 52.5897
6 1 78.0282 15.9754 54.4058
13 1 80.0711 14.6883 53.9384
11 1 79.6983 15.5027 53.3756
357 1 122.647 118.106 57.6983
194 1 121.41 118.209 59.9412
195 1 121.871 118.594 59.172
322 1 123.068 120.091 59.4299
359 1 122.08 119.855 58.2423
323 1 122.792 119.299 60.023
355 1 123.084 119.06 58.9386
356 1 123.257 118.23 58.5572
360 1 121.374 119.493 58.8173
358 1 122.27 118.734 58.2637
463 1 123.522 115.01 61.4714
193 1 121.016 118.204 60.8261
196 1 122.418 117.738 59.516
197 1 123.412 117.807 59.5651
354 1 123.865 119.475 59.4385
462 1 122.921 114.622 62.2603
321 1 122.822 120.662 58.7217
324 1 123.181 119.841 60.7001
326 1 121.757 119.25 60.5834
353 1 124.147 119.923 60.3412
332 1 123.465 118.935 61.2842
351 1 124.292 119.793 61.3534
341 1 121.827 120.767 59.1438
342 1 122.38 121.348 59.4705
220 1 122.737 120.144 62.0976
349 1 123.926 121.272 61.7551
347 1 122.722 121.274 61.4345
348 1 123.444 120.658 61.3779
344 1 123.076 120.777 60.2528
345 1 123.313 121.68 60.6412
350 1 124.6 120.61 61.3576
343 1 122.108 120.681 60.2082
346 1 122.419 121.847 60.6726
191 1 121.902 117.144 60.127
190 1 121.984 117.539 60.9832
464 1 123.662 115.981 61.3959
465 1 124.152 115.712 62.275
327 1 121.132 119.806 61.0852
192 1 120.996 117.234 60.5185
325 1 122.37 119.476 61.2787
198 1 122.918 118.209 60.4007
336 1 125.074 117.908 61.2516
337 1 125.51 117.097 61.7291
338 1 124.55 116.672 61.4166
461 1 122.529 115.364 61.8096
419 1 120.508 120.567 60.8496
420 1 120.927 121.424 60.3528
412 1 119.395 120.047 62.3236
411 1 119.099 121.028 62.0157
328 1 121.371 119.207 61.8094
329 1 121.624 118.345 61.5659
330 1 122.541 118.301 61.5155
334 1 124.156 118.802 62.6421
331 1 123.158 118.555 62.2224
333 1 123.61 119.515 62.0875
352 1 124.293 119.103 60.7111
410 1 119.972 121.324 61.8943
219 1 122.99 121.065 62.4367
407 1 121.086 120.934 61.8907
217 1 124.668 121.019 62.5019
218 1 123.681 121.277 62.9609
216 1 124.732 120.13 63.1465
215 1 124.186 120.516 63.5179
214 1 123.199 120.77 63.7241
409 1 120.697 121.952 61.4986
408 1 121.645 121.356 61.2666
92 1 122.803 122.544 61.7817
94 1 124.394 121.95 62.6269
95 1 124.612 121.721 63.429
93 1 123.511 122.126 62.485
188 1 120.209 117.003 61.5572
467 1 123.855 117.061 63.388
468 1 122.979 116.593 63.8653
189 1 121.233 116.969 61.5491
187 1 120.144 117.095 62.5215
471 1 123.22 116.397 62.4533
466 1 124.267 116.736 62.5328
475 1 124.363 118.007 63.3708
340 1 125.351 116.114 62.3272
339 1 125.056 115.743 61.3964
184 1 122.14 118.049 62.5152
185 1 121.137 117.763 62.3363
209 1 121.354 118.873 63.4097
200 1 123.944 117.541 61.0421
199 1 123.128 117.374 60.6674
476 1 125.073 118.461 62.7478
418 1 120.413 119.964 61.8062
417 1 119.982 119.097 61.8797
207 1 121.147 120.345 63.8657
335 1 124.611 118.589 61.6107
210 1 121.872 119.285 62.7683
211 1 121.549 120.264 62.583
402 1 121.743 123.136 63.2873
413 1 119.777 119.813 63.3199
406 1 120.603 120.74 62.6374
213 1 122.531 120.329 63.0573
212 1 121.992 121.194 62.7499
97 1 124.859 120.523 64.605
403 1 121.776 122.254 63.7329
404 1 120.902 122.01 63.8335
90 1 121.531 122.292 62.7472
91 1 121.751 122.327 61.7758
84 1 124.875 121.939 66.2475
88 1 123.258 122.916 63.2023
89 1 122.518 122.463 62.8136
96 1 125.043 121.305 64.0478
87 1 123.789 122.621 63.9738
86 1 124.346 122.021 64.6028
85 1 125.141 121.967 65.3021
469 1 122.632 115.713 63.8389
137 1 125.18 114.36 64.4185
470 1 123.398 115.554 63.1597
472 1 122.917 116.989 61.5797
474 1 124.533 117.682 62.3579
477 1 125.625 117.653 62.8582
478 1 125.672 116.692 63.2386
186 1 120.986 116.709 62.6653
490 1 122.053 117.106 62.3229
182 1 123.369 118.107 63.4607
183 1 122.493 118.557 63.3063
473 1 123.608 117.576 62.1578
376 1 123.164 119.351 63.2212
414 1 119.091 119.125 63.2568
415 1 119.969 118.762 62.841
416 1 120.173 118.101 62.1032
208 1 120.874 119.569 63.4576
492 1 121.726 117.537 63.3319
380 1 121.173 119.503 64.7324
205 1 122.819 121.629 64.1242
377 1 122.207 119.618 63.8424
374 1 124.277 118.909 63.7988
375 1 123.376 119.255 64.0691
401 1 121.964 123.113 64.3058
206 1 122.035 120.74 64.0076
204 1 122.445 121.104 64.8646
100 1 123.853 121.01 64.5144
373 1 125.158 118.523 64.3995
98 1 123.995 119.86 64.6931
99 1 123.062 120.171 64.5378
372 1 125.623 119.031 65.126
405 1 120.905 121.513 62.974
81 1 123.168 120.692 66.7266
82 1 123.435 121.604 66.8225
83 1 123.947 121.549 65.945
136 1 124.901 115.277 64.94
486 1 119.738 115.502 64.2113
489 1 121.791 116.027 62.1081
485 1 119.846 116.379 64.2674
181 1 122.888 117.271 62.9786
139 1 124.075 115.761 64.2383
138 1 124.47 114.921 63.752
134 1 124.962 116.051 66.2568
123 1 122.658 116.647 64.9775
140 1 125.014 115.886 63.7241
131 1 125.807 117.98 65.965
491 1 122.073 116.606 63.0908
484 1 120.662 116.013 64.3437
488 1 121.081 115.574 62.619
482 1 120.653 117.008 63.6603
378 1 122.206 119.576 64.7805
480 1 124.506 117.583 64.4651
124 1 123.511 117.44 64.9003
479 1 125.281 117.346 63.9723
128 1 125.043 117.204 65.4854
129 1 125.626 116.764 64.8786
493 1 121.512 118.12 64.2079
483 1 121.376 116.443 63.9673
494 1 122.187 117.465 64.3734
379 1 121.586 119.598 65.5184
362 1 123.193 118.763 66.3114
369 1 123.686 119.438 65.7034
363 1 123.676 119.269 67.1135
368 1 123.961 120.485 65.4728
370 1 124.549 119.078 65.8951
371 1 124.855 119.629 65.006
203 1 122.783 121.245 65.92
202 1 122.894 120.224 65.6263
367 1 124.646 120.792 66.164
366 1 124.546 120.959 67.0082
201 1 121.909 120.668 65.8953
487 1 120.402 115.371 63.4554
122 1 121.699 116.52 65.3413
133 1 124.339 116.802 66.7261
135 1 124.866 116.14 65.3863
132 1 125.232 117.352 66.6597
481 1 120.484 117.896 63.4401
121 1 120.812 116.838 64.989
496 1 122.229 118.195 65.3756
125 1 123.796 118.408 64.8279
126 1 124.473 118.163 65.3728
127 1 124.056 117.291 65.6553
130 1 125.717 117.731 64.8687
497 1 121.34 118.294 65.1727
495 1 122.735 118.211 64.5205
498 1 121.019 117.572 65.7931
365 1 124.59 119.917 67.3493
500 1 122.822 117.72 66.5437
499 1 122.11 117.423 66.037
361 1 122.299 119.154 66.3233
364 1 123.995 119.961 66.5548
259 1 121.994 102.905 68.4913
258 1 121.336 102.241 68.8665
179 1 121.597 100.89 71.0244
178 1 122.04 100.231 70.2895
174 1 123.956 101.229 69.6899
180 1 121.793 101.033 72.072
175 1 122.978 101.023 69.8911
257 1 122.021 102.02 69.4533
256 1 121.1 102.316 69.835
171 1 122.976 102.23 70.0444
170 1 122.97 102.988 70.7504
255 1 121.568 102.087 70.6032
254 1 120.654 101.559 70.668
253 1 120.776 102.712 70.8541
169 1 123.248 104.029 70.6999
260 1 122.085 103.832 68.5937
30 1 120.358 102.66 69.161
29 1 119.652 103.173 69.337
32 1 121.015 103.571 69.4519
177 1 122.759 100.313 70.8378
241 1 121.378 100.98 73.0293
176 1 122.724 101.291 70.7149
165 1 121.623 102.601 71.4399
173 1 123.226 101.76 69.1106
172 1 122.782 102.622 69.2785
164 1 121.895 102.228 72.3131
163 1 122.623 102.117 71.6006
246 1 120.502 101.358 72.4468
249 1 120.792 103.285 72.3959
248 1 120.989 102.422 72.677
247 1 120.567 102.233 71.8733
166 1 121.963 103.39 70.806
167 1 121.792 103.111 69.8235
168 1 122.676 103.522 69.8663
38 1 121.013 105.125 71.7455
162 1 122.344 103.155 71.8208
28 1 119.78 102.453 70.0932
27 1 119.074 103.087 70.4938
250 1 120.173 103.947 72.9578
31 1 120.441 103.259 70.0242
39 1 122.029 105.095 71.9417
252 1 120.55 103.586 71.1582
33 1 120.966 103.825 68.5091
40 1 122.522 104.29 71.4678
242 1 122.16 101.14 73.6356
245 1 120.556 101.602 73.4501
243 1 121.578 102.009 73.4682
244 1 121.163 101.439 74.1469
25 1 119.664 103.036 71.402
21 1 121.165 102.927 74.1228
22 1 120.438 102.619 73.6181
36 1 121.181 103.972 70.4151
35 1 121.063 104.68 69.8604
161 1 121.629 103.709 71.9753
26 1 119.075 102.345 71.2301
251 1 120.523 104.307 72.0312
24 1 119.382 103.779 72.1092
34 1 120.753 104.678 68.9132
37 1 121.601 104.611 71.0285
23 1 119.881 102.893 72.6918
74 1 -14.0761 101.547 83.2193
73 1 -13.7869 102.027 82.4608
76 1 -13.0996 101.486 83.6516
75 1 -13.8835 101.491 84.1816
77 1 -12.6245 101.844 82.9717
64 1 -10.7061 102.467 82.5766
63 1 -10.5744 102.671 81.6056
72 1 -13.3201 102.754 82.857
79 1 -12.5627 103.137 82.1397
80 1 -11.5913 103.067 82.3211
65 1 -11.5761 102.419 83.0465
69 1 -11.5716 101.74 84.6885
68 1 -10.7935 101.773 83.8748
67 1 -11.0672 100.998 83.4519
66 1 -11.2545 101.585 82.629
62 1 -11.4898 102.194 81.6818
71 1 -12.8023 102.7 83.5701
70 1 -12.2908 102.221 84.2732
78 1 -12.6838 102.191 82.1231
61 1 -10.6977 101.502 81.6404
443 1 -43.37 -31.6545 106.76
460 1 -43.5802 -30.0065 106.925
445 1 -44.2687 -31.1855 107.176
444 1 -43.4661 -31.4057 107.816
442 1 -44.0111 -32.1764 106.562
454 1 -44.136 -30.5999 104.664
457 1 -43.6443 -29.601 105.257
456 1 -44.5088 -30.1136 105.554
459 1 -43.6771 -30.7335 106.352
458 1 -43.4026 -30.5631 105.535
446 1 -44.7464 -30.3146 106.804
448 1 -44.9121 -32.0325 106.074
449 1 -44.284 -31.2605 105.641
441 1 -43.445 -32.4121 107.448
453 1 -44.2194 -31.2797 103.959
455 1 -44.7816 -29.8058 104.647
452 1 -44.5589 -31.6783 104.714
451 1 -43.6805 -32.1201 104.679
450 1 -43.4642 -31.6504 105.522
447 1 -45.2985 -31.2091 106.547
226 1 102.856 -23.4674 111.447
227 1 103.835 -23.7307 111.345
228 1 104.08 -24.5057 110.883
229 1 104.625 -23.6501 110.696
237 1 102.637 -22.0364 112.115
225 1 103.075 -22.9644 112.182
231 1 105.022 -22.8705 112.233
236 1 103.475 -21.9415 112.579
230 1 105.061 -23.58 111.537
232 1 104.19 -22.9008 111.988
233 1 103.965 -22.8124 110.889
238 1 103.088 -21.2172 111.759
240 1 103.814 -21.7212 110.326
239 1 102.944 -21.3334 110.702
235 1 104.353 -21.806 112.05
223 1 103.217 -24.543 112.589
224 1 102.923 -23.7111 113.094
221 1 104.33 -24.5516 112.23
222 1 103.98 -23.7798 112.454
234 1 103.526 -22.118 111.481
50 1 33.3721 57.4556 117.405
51 1 32.6476 58.15 117.768
57 1 31.5874 57.7876 118.805
58 1 31.6451 57.8947 117.789
56 1 30.704 57.4313 118.589
49 1 33.1819 57.4381 118.371
52 1 32.3897 57.2503 117.271
48 1 33.9208 57.0362 118.703
54 1 31.92 56.9717 118.21
53 1 31.6802 56.56 117.458
42 1 34.4978 56.2645 118.123
43 1 33.6091 55.921 118.409
44 1 33.0809 56.4554 117.721
59 1 31.2445 58.4108 117.158
55 1 31.0992 56.5855 118.659
46 1 32.9378 55.6106 119.192
47 1 33.0882 56.6422 119.113
60 1 30.5491 57.6326 117.359
45 1 32.4396 56.112 118.452
41 1 35.1994 55.9622 118.707
