ITEM: TIMESTEP
0
ITEM: NUMBER OF ATOMS
500
ITEM: BOX BOUNDS pp pp pp
0.0000000000000000e+00 6.0000000000000000e+01
0.0000000000000000e+00 6.0000000000000000e+01
0.0000000000000000e+00 6.0000000000000000e+01
ITEM: ATOMS id type x y z
186 1 36.432 26.795 14.0158
187 1 37.4174 26.9229 14.1273
185 1 36.7169 27.7582 14.0541
318 1 11.4478 40.9162 14.1351
317 1 12.3719 41.1705 13.851
319 1 11.4368 41.4214 13.2714
303 1 11.2342 42.5155 13.3247
320 1 10.7069 41.7156 13.8965
302 1 12.197 42.2619 13.2259
315 1 11.7287 41.9773 14.1608
314 1 12.7052 42.1653 14.1929
304 1 11.174 43.4727 13.605
301 1 12.0239 43.1994 12.9385
305 1 11.9204 43.0033 14.0317
306 1 12.8408 43.1189 13.6933
307 1 12.3235 43.9649 13.6918
192 1 36.293 25.7532 15.6086
190 1 36.9396 26.2441 14.8511
191 1 35.9894 26.4998 15.0284
189 1 37.6579 26.8506 15.2019
183 1 35.7829 27.5056 14.5901
184 1 36.6937 27.3039 14.9398
181 1 35.9727 27.7159 15.6541
182 1 36.2851 28.3124 14.919
188 1 37.6582 27.7134 14.6928
316 1 12.1832 41.4093 14.8168
311 1 10.9309 42.6931 14.3907
312 1 11.3357 42.154 15.136
313 1 12.2476 42.5386 14.9787
309 1 11.5642 44.0497 14.4575
310 1 11.4436 43.2589 15.0214
308 1 12.4718 43.6665 14.6482
193 1 37.0402 26.3225 15.9405
198 1 36.0431 26.7305 16.1032
199 1 36.2911 25.9655 16.6919
195 1 36.8588 26.9041 16.8659
197 1 35.7358 26.8722 17.036
194 1 36.9866 27.3173 15.9712
196 1 36.2411 27.6676 16.7204
360 1 11.4941 32.6732 16.7956
200 1 36.4255 26.2403 17.6411
355 1 11.0554 31.2118 17.8351
342 1 11.3081 30.3697 18.4848
352 1 12.0369 31.202 18.3817
356 1 10.8361 32.1366 18.135
357 1 10.6954 32.0016 17.157
353 1 11.9016 32.1845 18.4561
354 1 11.7401 31.8639 17.5288
358 1 10.5801 32.9561 17.4065
359 1 11.5099 32.9351 17.7542
297 1 48.6268 38.3751 18.5419
296 1 48.388 39.2848 18.2475
299 1 49.2222 38.7501 17.6999
300 1 49.4437 39.6416 18.082
89 1 48.4083 48.9516 18.5599
86 1 47.2333 48.8078 18.5061
87 1 47.5972 49.7293 18.4343
90 1 48.6001 49.6686 17.9015
91 1 49.4215 49.1675 18.152
100 1 48.2284 50.6767 18.1326
93 1 49.375 50.1966 18.5711
343 1 11.2126 29.6667 19.1891
344 1 10.3804 29.8026 18.6528
346 1 10.2627 29.8096 19.7644
345 1 9.65231 30.2866 19.1321
347 1 10.679 30.6208 19.3612
349 1 11.3198 31.2642 19.9954
341 1 11.8392 30.58 19.2897
351 1 11.2197 31.4339 18.8973
350 1 12.0367 31.6564 19.4206
201 1 38.0748 32.5396 19.9713
286 1 48.7602 36.8547 19.5848
285 1 49.6963 37.0022 19.9118
288 1 48.2715 37.8263 19.4048
287 1 49.2016 37.6175 19.098
294 1 48.1538 38.949 19.3389
298 1 49.5625 38.6727 18.6373
295 1 48.9229 39.5155 19.0449
293 1 49.0493 38.5974 19.5945
85 1 46.5367 49.5155 18.6302
84 1 47.0126 49.9481 19.3885
83 1 46.8134 48.9809 19.5576
88 1 47.8308 49.254 19.291
92 1 49.3215 49.3522 19.124
97 1 48.6026 49.5843 19.9702
94 1 48.4966 50.0017 18.9346
99 1 47.6435 50.7141 18.938
98 1 47.9863 50.3512 19.8023
95 1 48.7083 50.9484 19.1154
96 1 49.2084 50.3202 19.6985
18 1 21.5798 4.93094 21.0163
15 1 21.1829 6.58581 20.6624
9 1 20.4432 7.11428 21.3153
16 1 21.9214 5.91635 20.6289
14 1 22.0889 6.99505 20.7437
10 1 21.2722 7.6253 21.0969
348 1 11.2013 30.281 20.1362
202 1 37.7177 32.772 20.8693
203 1 38.6519 32.4104 20.9498
205 1 37.849 33.8433 21.2017
207 1 37.6579 33.599 20.1255
208 1 38.5676 33.3895 20.4557
210 1 38.9386 34.1013 21.203
209 1 39.405 33.2501 20.9569
368 1 44.7798 33.5501 21.2952
367 1 45.4226 34.261 21.0537
366 1 45.7851 33.3265 20.9485
67 1 11.251 34.5569 21.1515
69 1 10.3759 35.2175 20.9152
68 1 11.3081 35.5447 21.0571
206 1 38.1593 34.4084 20.4442
371 1 44.2495 34.4144 20.9637
378 1 45.3979 36.0884 21.3207
283 1 48.9165 36.8796 20.7009
290 1 48.2304 38.4179 20.3304
289 1 48.0246 37.4337 20.281
281 1 48.5541 37.8037 21.1902
284 1 49.0688 37.7103 20.1817
282 1 49.5194 37.5538 21.1413
292 1 48.785 39.3767 20.151
291 1 49.124 38.6381 20.7298
82 1 46.5127 49.5762 20.2995
81 1 47.5068 49.491 20.3035
19 1 22.375 5.33348 21.4685
7 1 19.6403 6.93135 22.0613
17 1 21.3603 5.80359 21.445
8 1 20.5888 7.11099 22.3036
20 1 22.3827 6.32508 21.5666
11 1 21.443 6.85123 21.6943
6 1 19.5731 7.78894 21.5576
5 1 19.8884 7.92898 22.4925
4 1 20.5925 8.09559 21.8023
12 1 21.5402 7.70761 22.185
13 1 22.3079 7.4952 21.5757
1 1 19.5186 8.92021 22.8238
2 1 19.8028 8.85469 21.8702
3 1 20.586 8.79634 22.499
408 1 46.6545 18.8094 22.5048
214 1 39.9898 32.4889 22.695
361 1 44.3509 32.1654 22.2808
364 1 45.1869 32.6467 21.7209
62 1 12.6865 33.6037 22.2874
63 1 11.8724 34.0131 21.8808
61 1 12.9058 34.1512 21.4814
204 1 38.4608 33.1623 21.5638
211 1 38.9272 33.9297 22.1845
212 1 39.833 33.8228 21.791
213 1 39.4206 32.9279 22.0012
220 1 39.7401 33.5446 22.8467
215 1 40.5129 32.9985 22.0136
217 1 40.6782 33.9963 22.5086
362 1 44.0094 32.9059 21.7052
370 1 43.9635 34.0399 21.8466
365 1 45.7009 33.478 21.9253
363 1 44.6816 33.228 22.3612
369 1 44.9199 34.2272 22.0191
72 1 9.63018 35.5493 21.6939
70 1 10.3775 34.7433 21.7904
66 1 11.4146 35.0071 22.035
80 1 10.0469 35.2568 22.7039
65 1 12.2148 35.0163 21.4411
64 1 12.4341 34.6893 22.3562
372 1 43.7219 35.0995 21.447
373 1 44.2486 35.0349 22.2802
374 1 44.844 35.1557 21.4745
73 1 9.78031 36.3087 22.3192
74 1 9.04527 35.7194 22.6329
71 1 10.5974 35.7203 21.8783
428 1 17.2352 36.8678 22.6687
375 1 44.3652 35.99 21.7315
376 1 45.0975 35.7343 22.3677
377 1 45.1691 36.6861 22.0869
379 1 46.0891 36.7938 21.4621
380 1 46.1267 36.0836 22.1633
394 1 27.1902 40.3908 22.7798
56 1 28.3265 13.7859 24.078
58 1 27.9927 14.8181 23.7295
60 1 28.5665 15.6627 24.2261
402 1 45.9461 17.9926 23.9722
403 1 45.1786 18.6267 23.9469
410 1 45.6795 19.5274 23.5804
406 1 46.6115 18.8476 23.6159
407 1 45.8409 18.5983 23.0399
409 1 46.4011 19.6774 22.9258
411 1 46.4637 19.9013 24.0513
412 1 45.6277 20.4113 24.2579
218 1 40.5114 33.9808 23.4982
219 1 40.0719 33.0919 23.6627
216 1 40.8841 33.114 22.9225
79 1 9.54749 35.371 23.5566
426 1 16.8655 35.6672 24.2173
75 1 8.59879 35.9424 23.4954
76 1 9.1758 36.6857 23.1692
77 1 9.46915 36.3582 24.0636
78 1 10.1316 36.1488 23.3471
427 1 17.0607 36.2411 23.4315
424 1 17.9414 35.9649 24.0591
429 1 18.0299 36.7443 23.2537
421 1 17.8872 37.7802 22.8935
422 1 18.2927 37.7267 23.8087
430 1 17.3059 37.2806 23.6888
383 1 26.9165 37.6102 24.1617
382 1 26.1216 38.2196 24.267
381 1 26.7457 38.5219 23.5593
384 1 27.6615 37.9308 23.5758
393 1 26.9081 39.5637 23.2588
390 1 26.0078 39.2595 23.8272
387 1 27.6514 38.9914 23.942
395 1 27.0031 41.3247 23.0861
392 1 26.1384 40.1918 23.2155
391 1 26.0149 40.1665 24.2142
398 1 26.9517 40.5431 23.8311
397 1 27.7989 40.0428 23.6657
396 1 27.8788 41.0063 23.4504
400 1 27.2485 41.5276 24.1964
57 1 27.4911 14.2427 24.3737
55 1 28.2603 13.7904 25.0765
59 1 28.4618 14.7462 24.5963
54 1 27.7142 14.5607 25.4039
50 1 28.2434 15.5349 25.3169
47 1 29.3209 15.2993 24.9384
52 1 28.7975 14.6346 25.6534
46 1 29.833 15.9621 24.4055
48 1 29.0052 16.2482 25.0502
44 1 29.8952 16.8974 25.0326
45 1 30.0403 15.9798 25.3905
41 1 29.6917 17.8126 25.637
42 1 28.888 17.3065 25.3263
401 1 45.1208 17.5954 24.3653
404 1 45.3533 18.5293 24.9254
413 1 45.2296 19.554 24.5636
419 1 45.1821 19.4456 25.6565
405 1 46.1199 18.9456 24.4523
414 1 46.0399 19.8267 25.0924
415 1 46.1669 18.9423 25.5351
420 1 45.056 20.3642 25.2528
425 1 17.6255 35.3203 24.7554
437 1 16.9201 36.0133 25.2634
423 1 18.3141 36.8604 24.2858
431 1 17.226 36.6851 24.4622
434 1 17.9974 36.2702 25.1359
438 1 17.2027 36.9309 25.5356
280 1 32.3853 35.9307 25.4849
272 1 33.3783 36.3905 24.8909
432 1 17.5926 37.5764 24.7101
433 1 18.2628 37.2033 25.3408
385 1 27.9141 38.0478 24.5265
269 1 32.642 37.8412 25.613
271 1 33.5065 37.3857 25.0369
386 1 27.0878 38.5753 24.6468
388 1 26.9875 39.6117 24.3499
389 1 26.196 39.2119 24.7981
268 1 33.1432 38.6946 25.681
399 1 27.6015 40.6576 24.5568
53 1 28.1519 14.0513 26.1446
51 1 28.165 15.1534 26.2325
49 1 29.0417 15.7289 25.8964
43 1 29.4652 16.7582 25.9277
416 1 46.67 19.652 26.0089
417 1 45.8889 19.2974 26.5323
418 1 45.7068 20.1725 26.1032
436 1 17.5633 35.567 25.8672
439 1 16.9095 36.373 26.3088
440 1 16.1469 36.655 25.7242
435 1 18.0026 36.4281 26.1143
279 1 32.4894 36.1468 26.4629
278 1 31.974 36.8598 25.9747
261 1 31.8419 36.9399 27.0795
277 1 32.9263 36.8283 25.7553
273 1 33.4559 35.8788 25.7548
275 1 33.5644 36.5721 26.6156
274 1 34.0277 36.7001 25.7458
276 1 32.8043 37.1919 26.6542
265 1 32.8486 38.2525 26.6387
264 1 31.9411 37.8559 26.4349
270 1 33.5539 37.6834 25.9962
267 1 32.1794 38.8046 25.9384
266 1 32.7612 39.2373 26.6167
263 1 31.9173 38.6194 27.067
262 1 32.2751 37.7635 27.4643
463 1 32.7488 12.9735 29.9018
338 1 30.5223 28.4782 29.9904
340 1 31.616 28.2011 29.9791
480 1 30.9091 11.8325 31.3226
479 1 31.1039 12.3727 30.5075
464 1 32.1348 12.7694 30.6436
465 1 32.9767 12.3018 30.8531
470 1 31.295 13.4455 30.6141
473 1 30.3419 13.9206 30.7808
478 1 30.5203 12.8731 31.1484
468 1 32.1021 13.6865 31.311
469 1 32.1561 13.841 30.3285
462 1 33.6767 12.937 30.2636
461 1 33.0518 13.4091 30.8781
472 1 30.9086 14.2898 30.0405
471 1 31.3617 14.3955 30.9165
223 1 18.0694 25.2449 31.06
322 1 27.5412 28.2336 31.2129
328 1 28.5034 28.5602 30.81
329 1 29.3177 28.2783 31.3094
339 1 30.9809 27.9679 30.7104
325 1 27.7472 29.3204 31.0991
331 1 29.4712 28.6917 30.2874
330 1 29.3093 29.2624 31.0948
332 1 30.1168 29.4465 30.3579
333 1 30.2778 28.7442 31.0532
336 1 30.8182 29.7008 31.1771
337 1 31.1575 29.0756 30.4731
335 1 31.7724 29.4377 31.3181
119 1 19.1582 45.713 30.2438
176 1 9.35823 46.6975 30.4041
177 1 8.76264 46.4524 31.1646
118 1 18.484 46.444 30.3363
117 1 18.4637 45.8176 31.1025
101 1 17.9868 46.8145 31.2907
120 1 19.5966 46.6026 30.3561
116 1 19.4305 46.0133 31.2768
102 1 18.9442 47.0381 31.1299
180 1 8.04835 47.2814 30.889
179 1 8.39365 48.0545 31.4222
174 1 8.73412 47.5692 30.1052
173 1 9.68459 47.8414 30.1121
175 1 9.17874 47.4621 30.9943
172 1 9.10756 48.4749 30.6287
162 1 11.1127 47.8684 31.0855
163 1 10.7814 47.7989 30.1571
164 1 10.2764 47.1719 30.7427
170 1 10.2265 48.5976 30.7034
477 1 31.4529 12.7755 31.4928
466 1 32.5667 12.7445 31.654
475 1 30.0939 13.6614 31.8273
476 1 31.0754 13.6668 31.6903
467 1 32.0198 13.3491 32.2384
474 1 30.4429 14.5567 31.5362
240 1 16.9774 25.2678 32.8523
222 1 17.4331 25.2242 31.8436
225 1 18.2872 24.517 31.8346
224 1 18.4803 25.5106 31.9271
228 1 18.0468 24.966 32.7944
226 1 19.2245 24.7695 31.6238
227 1 19.0186 24.8124 32.606
221 1 17.6328 26.1477 31.5144
230 1 17.7393 26.0064 32.5897
321 1 28.339 27.8147 31.6368
323 1 27.5865 28.4931 32.169
324 1 26.9568 29.0711 31.6543
327 1 28.5164 28.89 31.7545
326 1 27.8654 29.5757 32.0564
334 1 31.1478 28.6908 31.5302
115 1 19.0398 45.3632 31.9366
178 1 8.54669 47.1426 31.8411
241 1 9.71653 46.7897 31.636
243 1 9.24916 46.9868 32.6576
244 1 9.67627 46.0939 32.5036
161 1 10.894 47.0557 31.6322
246 1 10.7209 46.4111 32.5316
104 1 17.9884 46.885 32.4115
106 1 17.9939 45.7719 32.1398
105 1 18.715 46.4004 31.9698
114 1 19.6401 46.018 32.3854
113 1 19.6714 46.9078 31.9421
112 1 20.1028 46.9098 32.838
166 1 9.29762 47.8895 32.0189
165 1 10.0905 47.8312 31.4374
242 1 10.1341 47.2987 32.3572
167 1 10.0451 48.396 32.4134
168 1 10.9321 48.0248 32.1604
103 1 18.6839 47.4808 31.9872
111 1 19.5989 47.7583 32.6526
171 1 9.56855 48.7825 31.4443
169 1 10.6719 48.7759 31.5731
236 1 16.8176 25.0781 33.9182
238 1 16.0367 25.6229 33.3452
232 1 17.7354 25.5907 33.6294
239 1 16.8759 26.1543 33.2987
237 1 16.36 25.8915 34.2526
231 1 17.9281 26.5473 33.3901
229 1 18.6146 25.7643 33.0038
245 1 10.3679 45.7133 33.1481
247 1 10.1067 46.7424 33.2629
251 1 11.1635 46.5341 33.5407
250 1 10.4489 46.3027 34.1897
107 1 18.6547 45.8439 32.8973
108 1 19.4146 46.2226 33.4449
109 1 18.9882 46.8917 32.8699
248 1 9.98562 47.7232 33.3351
252 1 10.993 47.357 33.0219
253 1 11.4079 47.8661 33.7584
254 1 10.8308 48.4309 33.1746
255 1 10.4445 48.3945 34.0847
249 1 10.5303 47.3002 34.0715
110 1 19.4532 47.3936 33.5807
256 1 10.7935 49.2991 33.8681
257 1 11.6911 48.9323 33.6415
235 1 17.341 25.4838 34.6601
234 1 17.3328 26.405 34.2931
233 1 18.2686 26.0467 34.322
258 1 11.4031 48.6382 34.5531
260 1 12.4423 49.0235 34.4574
259 1 11.6347 49.6089 34.5336
486 1 22.6848 41.2844 38.9656
483 1 22.1256 41.2198 39.8894
488 1 23.2126 41.206 39.9989
484 1 21.706 41.8153 39.2075
485 1 22.4781 42.2241 38.7063
481 1 22.0046 42.8423 39.5414
482 1 22.5929 42.087 39.7643
487 1 23.4858 41.8024 39.2273
491 1 23.0454 43.0375 39.9853
498 1 21.8589 41.1303 40.9215
499 1 22.7927 40.7601 40.9979
492 1 22.3043 42.8 40.611
493 1 21.6449 42.1044 40.3381
497 1 22.6079 41.7733 40.761
494 1 21.7589 42.1447 41.3363
489 1 23.5649 42.0845 40.2875
490 1 23.3612 42.8187 40.9072
496 1 23.3954 41.7757 41.3413
147 1 44.134 15.4222 42.0784
151 1 45.211 15.4555 42.331
155 1 46.2465 15.3974 42.549
149 1 44.8249 16.2959 41.773
148 1 44.4189 16.1538 42.6812
152 1 45.5094 16.3533 42.6485
150 1 45.7711 15.9479 41.6741
159 1 46.5548 16.4316 42.3456
160 1 47.2261 15.7173 42.169
500 1 22.4909 41.3235 41.7795
495 1 22.6694 42.409 41.6419
142 1 44.879 14.2531 43.554
146 1 43.5589 15.4877 42.8975
144 1 43.8809 14.7983 43.7314
154 1 45.6548 15.0246 43.2597
143 1 44.5465 15.0255 43.036
141 1 44.8888 15.0749 44.1133
157 1 47.0854 15.4253 43.2507
145 1 44.094 15.7755 43.6929
153 1 45.1648 15.8657 43.4231
156 1 46.2611 15.9743 43.3548
158 1 47.246 16.3912 43.0606
139 1 25.8973 38.1306 43.1547
140 1 26.0354 37.2975 43.6855
138 1 25.84 38.3035 44.1316
136 1 26.9682 37.814 43.3495
135 1 26.7029 38.7386 43.5731
122 1 25.8953 39.4011 43.9218
121 1 26.8377 39.7253 43.9962
134 1 27.4299 38.7934 44.2441
124 1 26.0815 40.5093 44.1151
38 1 33.6015 15.659 45.3704
39 1 33.7681 16.1199 44.5031
35 1 33.3028 16.718 45.3181
36 1 34.2841 16.8113 45.2065
40 1 34.6151 15.7851 44.9109
21 1 32.7952 18.9473 45.6981
137 1 26.7347 37.897 44.3105
133 1 26.5583 38.9044 44.6987
125 1 26.1405 39.8762 44.8797
132 1 27.1948 39.5952 45.0377
123 1 25.2251 40.0399 44.3075
126 1 25.6716 40.6972 45.148
131 1 27.0335 40.5263 44.715
127 1 26.3179 41.3544 44.7855
130 1 26.6727 40.4377 45.6341
128 1 27.1113 41.4226 45.3832
31 1 32.6287 17.0875 46.1024
30 1 32.1665 16.3234 46.5421
37 1 34.2852 16.123 45.9203
33 1 33.2459 16.1811 46.2877
32 1 33.0321 16.85 46.9903
34 1 33.7302 17.0507 46.154
25 1 31.2689 18.3203 46.343
28 1 31.6455 17.3011 46.5278
24 1 32.1462 18.0824 45.9314
27 1 32.4416 17.7679 46.9371
22 1 31.8156 19.1352 45.794
23 1 32.2204 18.7938 46.6391
129 1 26.2564 41.3036 45.8905
29 1 31.9743 16.8721 47.3577
26 1 31.575 18.1078 47.2701
441 1 31.9289 28.9188 48.5327
446 1 30.9366 29.1808 48.9535
448 1 30.8082 28.7573 49.965
447 1 30.1885 29.4262 49.5686
444 1 31.191 29.8126 49.8555
443 1 31.8265 29.0822 49.6271
442 1 31.8632 29.8199 48.9592
445 1 30.8081 30.1673 49.0061
456 1 32.7644 26.9715 51.3205
451 1 30.9058 28.1124 50.8672
454 1 32.5906 28.0149 50.9263
450 1 31.7143 28.2139 50.2948
453 1 31.784 27.4388 51.079
457 1 33.5159 27.6223 51.3769
449 1 31.4294 29.0952 50.6664
452 1 31.6769 28.3604 51.4455
455 1 32.4921 27.7491 51.8816
458 1 33.3613 27.1681 52.2528
459 1 33.4052 28.1652 52.3416
460 1 34.3021 27.7661 52.1557
ITEM: TIMESTEP
1000
ITEM: NUMBER OF ATOMS
500
ITEM: BOX BOUNDS pp pp pp
0.0000000000000000e+00 6.0000000000000000e+01
0.0000000000000000e+00 6.0000000000000000e+01
0.0000000000000000e+00 6.0000000000000000e+01
ITEM: ATOMS id type x y z
186 1 38.1115 29.1832 15.6887
187 1 38.7252 28.8057 16.424
185 1 37.8933 29.5851 16.6338
318 1 10.4454 43.0656 14.4504
317 1 10.9703 42.0976 14.6024
319 1 10.2968 44.1087 14.3584
303 1 11.382 43.5254 14.4841
320 1 10.5239 45.0942 14.2212
302 1 12.3303 43.6372 14.6071
315 1 11.7257 43.1086 15.6856
314 1 10.7822 42.888 15.5994
304 1 11.3827 44.1337 15.1664
301 1 12.3129 42.9735 13.8999
305 1 10.9811 44.7971 15.8654
306 1 11.1003 43.9469 16.4093
307 1 10.411 44.2274 17.0369
192 1 37.3608 27.351 16.9738
190 1 38.3769 28.0709 15.7455
191 1 37.9662 28.1264 16.659
189 1 39.102 27.7194 16.2962
183 1 37.2284 29.3163 17.6618
184 1 38.159 29.0172 17.3184
181 1 38.0561 28.8945 18.5067
182 1 37.421 29.7142 18.4516
188 1 38.9423 28.1895 17.1777
316 1 11.9094 42.5054 14.809
311 1 9.41526 44.3819 15.0731
312 1 9.52327 43.3815 15.3071
313 1 10.4429 43.7775 15.4536
309 1 9.91812 44.4502 16.1009
310 1 10.169 44.8361 15.311
308 1 10.0606 43.4317 16.4534
193 1 38.1134 27.1104 16.3169
198 1 36.9944 28.7085 16.6185
199 1 36.4153 27.9828 16.8573
195 1 37.8152 27.0044 17.9065
197 1 37.2488 28.2814 17.4694
194 1 38.4673 26.949 17.2422
196 1 38.0927 27.9952 17.7806
360 1 12.2133 33.1225 19.1583
200 1 36.2653 28.768 17.4567
355 1 11.6355 32.2215 17.5978
342 1 9.82476 29.8339 20.6045
352 1 11.2221 31.5244 18.42
356 1 11.4772 32.6768 18.5797
357 1 12.2989 33.2331 18.1061
353 1 12.1764 31.6362 18.3289
354 1 11.873 31.3012 17.397
358 1 13.2448 33.2485 18.5231
359 1 12.8173 33.9271 19.0589
297 1 49.7388 39.0178 20.4824
296 1 49.453 39.599 19.7682
299 1 48.797 38.2869 21.1948
300 1 48.8751 37.4189 20.5096
89 1 44.5711 48.0112 18.4882
86 1 44.3622 48.6327 20.2466
87 1 45.1504 48.5699 19.6712
90 1 44.4713 49.0755 18.7724
91 1 44.8791 49.132 17.7983
100 1 45.0294 47.5417 21.451
93 1 45.8582 49.8415 18.1425
343 1 10.7127 29.5578 21.0193
344 1 10.756 30.0494 20.1485
346 1 9.77607 29.8371 18.3759
345 1 10.2012 29.8847 19.2943
347 1 10.5024 30.6273 18.6824
349 1 11.6375 30.5616 19.2744
341 1 9.09494 29.8435 19.8135
351 1 11.5376 31.6059 19.3769
350 1 10.7055 31.009 19.6164
201 1 39.6165 32.5984 22.662
286 1 49.5788 37.5679 18.872
285 1 48.7243 37.0659 18.8836
288 1 48.932 38.6818 19.7151
287 1 49.3822 37.9867 19.6513
294 1 48.0593 39.0188 20.3264
298 1 48.9323 39.2045 20.8854
295 1 48.5346 39.8937 20.155
293 1 47.9724 38.2044 19.6481
85 1 43.9624 48.2438 19.5126
84 1 44.1231 47.4211 20.0748
83 1 45.0298 47.1191 19.7586
88 1 45.4277 48.7208 18.6953
92 1 45.8711 49.0387 17.6555
97 1 45.6931 48.8397 20.5739
94 1 46.3087 50.1028 19.1311
99 1 45.0126 47.7738 20.5171
98 1 45.9153 47.9858 20.0714
95 1 45.4822 49.5981 19.3177
96 1 45.6074 49.7742 20.2584
18 1 18.6653 7.00723 24.1117
15 1 19.505 8.64327 23.4971
9 1 18.0107 10.0707 22.733
16 1 18.8956 7.94207 23.2733
14 1 19.5419 8.03412 24.2252
10 1 17.5392 9.72752 23.4923
348 1 11.425 30.3898 18.385
202 1 39.2563 33.1712 23.411
203 1 40.1967 33.4256 23.0779
205 1 40.6038 33.2528 21.7276
207 1 41.9105 31.9111 21.8362
208 1 42.2039 32.2923 21.0242
210 1 41.6166 32.3439 20.0839
209 1 41.7301 33.0677 20.6718
368 1 44.5663 35.8624 21.5391
367 1 45.0755 35.2065 22.1283
366 1 45.2815 35.1611 23.1869
67 1 9.77217 37.9263 22.236
69 1 9.8245 37.8643 23.6345
68 1 10.4906 38.1267 22.8833
206 1 41.4879 32.8721 21.9389
371 1 43.9301 36.4677 20.8504
378 1 44.094 36.2702 23.4631
283 1 48.8682 38.4041 18.1698
290 1 47.9868 38.9237 18.2362
289 1 48.5332 39.2123 18.9682
281 1 49.7366 39.5427 17.4437
284 1 48.1811 37.7733 18.3326
282 1 48.9397 39.3553 17.9258
292 1 47.3787 37.8933 19.014
291 1 47.4294 38.9269 19.0942
82 1 44.192 46.8586 19.1057
81 1 45.0358 46.9895 18.5812
19 1 17.9209 6.52428 24.4876
7 1 18.6355 9.85707 23.6739
17 1 18.213 7.18624 23.3061
8 1 19.0423 9.67629 22.6468
20 1 17.9252 6.19785 23.6616
11 1 17.3219 8.98817 23.9166
6 1 18.4263 8.83618 23.4203
5 1 18.3713 8.40225 22.6079
4 1 17.492 8.03026 23.1571
12 1 17.7742 8.19073 24.2296
13 1 18.6824 8.2075 24.3711
1 1 17.4439 6.47936 22.49
2 1 17.8887 7.28934 22.2225
3 1 17.353 8.13884 22.1288
408 1 43.673 19.1464 24.6283
214 1 40.8058 32.4313 22.5441
361 1 42.3971 35.8695 21.2654
364 1 43.8101 34.827 22.4808
62 1 12.386 36.4117 22.771
63 1 12.2604 35.6127 22.8741
61 1 11.4332 36.7619 22.3158
204 1 39.8641 33.3767 22.1154
211 1 41.1508 32.1972 20.875
212 1 40.1903 31.8559 20.8622
213 1 40.4737 32.0917 21.7529
220 1 41.1487 30.3913 20.1624
215 1 40.178 31.6544 22.7573
217 1 39.5965 30.2981 22.3602
362 1 42.6585 35.0984 21.7493
370 1 43.5213 35.5228 20.6415
365 1 44.3157 35.1967 23.3665
363 1 43.4489 35.6598 21.929
369 1 44.3351 35.1372 20.9213
72 1 10.8664 37.1011 24.1565
70 1 9.26013 37.7033 24.5392
66 1 10.1473 37.168 22.6678
80 1 11.0409 35.4313 23.6671
65 1 10.5088 36.2135 22.5614
64 1 11.3733 35.8298 22.4815
372 1 44.1809 36.7477 21.7416
373 1 43.046 36.7414 21.8408
374 1 43.6648 36.5735 22.5786
73 1 10.8678 36.1923 24.4813
74 1 11.1298 36.3682 25.2403
71 1 9.9933 37.0343 24.6877
428 1 19.224 39.2813 21.3251
375 1 44.5529 36.0119 22.5332
376 1 45.5765 36.1812 22.7535
377 1 44.983 36.6284 23.4826
379 1 43.9609 36.9396 24.1256
380 1 43.2189 36.677 23.5153
394 1 29.6513 38.4843 25.3544
56 1 29.7579 17.5038 24.8217
58 1 29.8548 16.5793 24.5541
60 1 30.0877 15.5203 24.1582
402 1 42.8969 19.8308 24.7052
403 1 42.7426 19.1613 25.339
410 1 43.4261 18.1674 24.9431
406 1 42.4042 17.9743 24.6363
407 1 42.882 18.6494 24.1507
409 1 44.2106 18.7049 25.3429
411 1 43.3769 17.3542 24.5224
412 1 43.6559 16.7465 23.9279
218 1 40.2262 30.7644 21.7209
219 1 40.9428 30.7595 21.0546
216 1 40.5645 30.6842 22.7604
79 1 11.8603 35.7723 24.042
426 1 19.4908 37.9125 21.0237
75 1 11.6843 37.069 25.0775
76 1 12.2269 36.2658 24.9395
77 1 12.6345 36.3466 24.0179
78 1 11.6321 36.6092 23.6124
427 1 20.0492 38.8887 21.1622
424 1 18.5454 38.6217 20.7554
429 1 19.401 40.0367 21.9506
421 1 17.9086 39.466 19.8129
422 1 17.0053 39.5263 20.3462
430 1 19.363 41.0491 22.0512
383 1 29.3177 38.0368 23.7748
382 1 30.0067 37.3574 23.4699
381 1 30.5297 36.7379 24.1191
384 1 29.0098 37.2521 23.4682
393 1 30.1591 38.5933 24.3608
390 1 29.1795 37.0599 24.6662
387 1 27.913 37.4174 25.8597
395 1 29.9841 37.7071 25.9436
392 1 30.7386 37.7663 24.0754
391 1 29.7949 37.6938 24.6492
398 1 30.776 38.4993 25.0958
397 1 30.6936 38.9638 25.6943
396 1 30.8748 38.1897 26.219
400 1 30.1657 36.6258 25.3414
57 1 28.9765 16.9861 24.3793
55 1 30.2153 17.3735 25.7647
59 1 30.7641 16.3851 24.0986
54 1 30.8371 16.8407 25.1935
50 1 31.9396 16.4854 25.5816
47 1 29.4095 15.6402 25.0513
52 1 30.9286 15.5429 26.0623
46 1 29.4468 16.67 25.5143
48 1 30.3738 15.2706 25.1226
44 1 29.4271 15.9458 26.4951
45 1 28.6394 15.9453 25.7201
41 1 29.5622 14.5147 25.1067
42 1 29.2751 14.3 25.9503
401 1 43.4581 20.2027 25.5029
404 1 43.3302 18.7666 26.0225
413 1 43.7421 16.4427 24.9354
419 1 44.6126 17.6539 25.9155
405 1 42.7128 18.1206 25.6173
414 1 44.8888 16.4633 24.7647
415 1 44.5351 16.5802 25.6421
420 1 44.3335 17.5639 25.0138
425 1 19.3868 38.7182 20.2298
437 1 20.5863 39.8196 20.7864
423 1 17.8491 39.3495 20.8642
431 1 19.04 41.2712 21.0481
434 1 19.2783 40.4571 19.0635
438 1 20.3097 40.5788 21.5346
280 1 31.2401 38.1607 27.9029
272 1 32.0632 36.796 26.5044
432 1 18.3268 40.9633 20.5283
433 1 19.2455 40.82 20.0215
385 1 28.252 37.1367 24.0566
269 1 31.936 37.3958 24.9564
271 1 32.2799 36.542 25.508
386 1 28.1667 36.9903 25.0291
388 1 28.7213 36.8859 26.0427
389 1 28.8305 37.6534 25.534
268 1 31.3186 37.2671 25.9026
399 1 30.7945 37.4218 25.0604
53 1 30.288 16.2028 25.7118
51 1 31.163 16.4978 26.301
49 1 31.195 15.8623 25.1692
43 1 29.864 15.1572 26.1913
416 1 44.5697 16.0135 26.6305
417 1 45.1551 16.8606 26.3848
418 1 45.3718 17.173 25.4537
436 1 19.6334 39.7495 20.4121
439 1 20.5741 39.5855 21.8876
440 1 20.7721 38.6366 21.9236
435 1 19.0042 39.7527 19.6624
279 1 32.0133 38.6308 27.5275
278 1 31.5477 37.8354 26.9487
261 1 32.5823 39.3728 28.1912
277 1 32.6394 37.8099 26.8306
273 1 32.0182 37.0831 27.3831
275 1 32.8563 38.0214 28.6568
274 1 32.0624 37.5862 28.2378
276 1 33.0914 37.5681 27.7421
265 1 32.6403 39.3966 26.9956
264 1 33.4771 39.7104 27.6444
270 1 32.4693 36.6319 24.5464
267 1 31.7571 38.1746 25.5997
266 1 32.3012 38.6535 26.249
263 1 33.7816 39.0222 28.3109
262 1 33.302 38.7082 27.5338
463 1 32.6878 13.9673 31.8028
338 1 27.8012 30.4154 31.5515
340 1 27.5204 30.754 30.4611
480 1 32.5047 14.2999 29.7961
479 1 32.2005 13.411 30.3175
464 1 32.9418 13.279 31.0036
465 1 33.756 12.8107 31.407
470 1 31.5554 14.3208 30.7169
473 1 31.4698 13.0292 28.9499
478 1 31.6696 12.764 30.8588
468 1 32.079 13.3101 32.2961
469 1 31.7813 13.6952 31.5105
462 1 33.7696 14.2758 31.9652
461 1 34.0743 13.8265 30.9617
472 1 30.8404 13.2368 29.8849
471 1 30.8137 13.9399 30.436
223 1 16.2194 24.7631 31.3393
322 1 29.5951 29.04 31.1134
328 1 29.3045 28.2674 32.0085
329 1 28.3742 28.7103 31.6775
339 1 28.1182 30.0122 30.9268
325 1 29.4641 29.6996 33.227
331 1 28.4694 29.6637 32.2666
330 1 27.7687 29.1614 32.45
332 1 28.3428 30.0571 33.0263
333 1 28.9624 30.8925 33.0562
336 1 28.8386 31.0309 31.3216
337 1 28.3519 30.8408 32.1585
335 1 29.1772 30.0256 31.4097
119 1 16.8648 46.3936 30.2968
176 1 7.98892 46.5129 30.0853
177 1 8.35664 45.5595 30.4566
118 1 17.1058 45.9507 31.1959
117 1 17.504 45.5472 30.4169
101 1 16.814 47.4332 30.985
120 1 17.6098 46.9289 30.644
116 1 17.708 46.1421 29.7466
102 1 17.6442 47.9196 31.2147
180 1 7.23485 47.0428 31.0524
179 1 6.92677 46.1645 31.6706
174 1 8.84426 45.7168 28.9822
173 1 9.56352 46.3459 28.6585
175 1 8.58188 46.6434 29.4218
172 1 9.97005 47.2341 28.6404
162 1 10.2567 47.5329 31.2918
163 1 10.0722 46.8979 30.4659
164 1 9.37485 46.0859 30.3163
170 1 8.81566 48.1272 29.2059
477 1 30.8469 12.7811 31.1074
466 1 32.999 12.7981 32.0138
475 1 31.2218 12.1902 29.6683
476 1 30.8786 11.8316 30.6342
467 1 32.2117 12.2965 32.0751
474 1 32.2023 12.5464 29.4837
240 1 17.95 24.1917 30.3698
222 1 16.9157 25.5895 31.2468
225 1 16.346 23.2972 30.5556
224 1 16.9021 24.2089 30.9035
228 1 17.1874 23.3657 29.4103
226 1 17.3669 23.1854 30.5743
227 1 17.8863 22.8675 29.8786
221 1 16.836 25.1961 30.4078
230 1 17.9206 24.9882 29.657
321 1 28.8611 28.4717 30.7511
323 1 29.7072 29.2647 32.1384
324 1 30.393 29.2966 32.8338
327 1 29.5133 28.1619 32.9297
326 1 28.9325 28.9384 32.9333
334 1 29.3858 30.4201 32.41
115 1 17.8927 45.2207 29.4133
178 1 7.73492 45.9639 31.1164
241 1 10.1379 45.5006 31.3058
243 1 10.272 45.8834 32.3932
244 1 10.7375 46.4281 31.7564
161 1 10.3628 47.4221 32.2189
246 1 9.21874 46.8333 32.3852
104 1 18.9886 47.1754 30.8493
106 1 18.554 45.9701 30.4015
105 1 18.4515 46.5454 31.2427
114 1 18.3423 45.5197 28.5073
113 1 18.579 46.3039 29.0323
112 1 19.5832 46.344 28.5833
166 1 8.98761 47.0649 30.3291
165 1 8.81468 46.3326 30.9626
242 1 9.31637 45.6221 31.9092
167 1 8.28235 47.5791 30.8089
168 1 8.99254 48.2136 31.0684
103 1 18.4192 47.8584 30.5419
111 1 19.5262 47.211 28.8476
171 1 9.57542 47.5088 29.351
169 1 8.80411 48.249 30.1119
236 1 17.9891 23.4016 31.3192
238 1 17.4338 24.4219 31.766
232 1 19.2606 24.3808 29.7839
239 1 18.1632 24.7828 31.2045
237 1 17.3746 23.4786 32.1682
231 1 18.391 24.1675 29.5016
229 1 17.3899 24.2606 29.2228
245 1 9.76668 46.5249 31.6435
247 1 8.42601 46.7457 31.811
251 1 10.1738 48.5713 32.0229
250 1 9.81089 48.2914 32.9366
107 1 19.4991 46.2132 30.6152
108 1 19.5814 46.8531 29.9315
109 1 18.5898 46.9684 29.9078
248 1 8.30495 47.2535 32.7636
252 1 9.36699 47.9541 32.0349
253 1 8.50058 48.2681 32.0533
254 1 8.14764 48.7765 31.2865
255 1 7.66849 47.9401 31.6223
249 1 9.16435 47.5044 33.2561
110 1 18.5615 47.5335 29.1336
256 1 7.48713 48.2265 32.5526
257 1 7.67384 48.0949 33.4629
235 1 18.8773 23.8702 31.0016
234 1 19.4635 24.8478 30.8074
233 1 20.1759 24.7358 30.164
258 1 8.61512 48.2606 33.144
260 1 9.82405 47.7346 34.5213
259 1 9.42475 48.3564 33.8712
486 1 24.1227 40.4736 40.666
483 1 23.6824 39.4563 40.8099
488 1 23.3124 41.3485 40.9239
484 1 23.5029 39.3098 39.9016
485 1 24.3223 39.9095 39.8016
481 1 22.6465 39.1205 40.5824
482 1 23.0474 40.1269 40.5495
487 1 23.6015 40.9053 40.0416
491 1 23.1395 40.2631 39.4144
498 1 21.5683 40.1948 41.3954
499 1 21.3763 41.2584 41.6137
492 1 22.3472 39.5908 39.6508
493 1 22.1029 40.4446 40.0279
497 1 22.1472 39.5015 41.4454
494 1 21.8545 41.3822 40.2065
489 1 22.8519 41.8371 40.3559
490 1 22.6972 41.22 39.5319
496 1 22.7668 40.2391 41.5075
147 1 48.1769 16.3322 44.0244
151 1 46.8261 15.7927 43.1495
155 1 46.1606 15.0114 42.972
149 1 47.7069 16.2695 42.5168
148 1 47.802 16.9332 43.2533
152 1 47.4501 14.924 43.0841
150 1 46.8766 16.674 42.6733
159 1 45.8638 16.1419 42.7311
160 1 45.3749 15.5654 43.2618
500 1 20.6536 40.9509 41.0044
495 1 22.2972 41.0047 40.9972
142 1 46.419 16.3575 44.0149
146 1 48.5345 15.3846 43.9474
144 1 47.4696 14.7767 44.4446
154 1 46.6819 14.7368 43.7955
143 1 47.0449 15.6381 44.3682
141 1 46.0481 15.5364 44.2111
157 1 46.0377 14.6036 41.8369
145 1 48.3901 14.4951 44.398
153 1 46.9112 14.141 42.9189
156 1 46.869 14.9232 42.2178
158 1 45.9596 15.5555 41.8612
139 1 26.6709 36.8426 44.8213
140 1 26.5881 35.8277 44.4642
138 1 27.4582 37.3665 44.8028
136 1 27.06 36.2314 43.4634
135 1 27.0752 37.0243 42.9394
122 1 25.5308 35.9705 42.9921
121 1 26.1055 36.5799 43.1467
134 1 26.7814 37.2679 43.726
124 1 26.0496 36.5747 42.1547
38 1 33.37 16.3788 47.9196
39 1 34.1049 16.5636 48.6622
35 1 33.8596 18.0405 47.3793
36 1 32.9384 18.1007 47.6839
40 1 34.1598 15.6107 48.3293
21 1 32.593 15.5402 48.1326
137 1 27.6599 36.5327 44.1871
133 1 26.1226 37.8046 43.5116
125 1 25.8231 36.9246 41.2308
132 1 25.7746 37.6524 42.7174
123 1 25.3124 35.9162 41.9893
126 1 26.2081 37.6441 41.7353
131 1 25.0002 36.9052 42.7103
127 1 25.7009 38.4353 41.7815
130 1 24.1582 37.5781 42.9563
128 1 25.4486 38.7087 42.8113
31 1 33.6788 17.8562 45.5768
30 1 33.696 17.2839 46.4459
37 1 33.4484 17.3156 48.0637
33 1 33.7836 18.5147 46.4496
32 1 32.8279 18.1642 45.9985
34 1 34.5546 17.9244 46.6347
25 1 32.1766 16.2077 46.9997
28 1 32.8478 17.1106 45.831
24 1 32.4599 16.0838 46.1312
27 1 31.9196 16.9899 46.1012
22 1 32.6514 15.2988 47.1822
23 1 32.869 15.1192 46.1927
129 1 24.725 38.2183 42.4175
29 1 32.8863 17.0073 46.885
26 1 31.4783 16.7584 46.8783
441 1 33.4467 29.8263 49.6329
446 1 35.2557 29.7242 51.5581
448 1 35.5802 29.6642 50.3271
447 1 35.2835 30.5308 50.8559
444 1 34.2129 30.8437 51.3756
443 1 34.2043 30.1068 50.6589
442 1 34.2798 29.4747 49.965
445 1 34.7844 30.404 52.0602
456 1 34.118 27.5633 48.3607
451 1 35.6291 28.8412 48.5698
454 1 34.0659 29.2303 48.2429
450 1 35.8652 28.07 49.2185
453 1 34.8107 29.6133 48.7758
457 1 34.9365 27.6412 48.9243
449 1 35.8352 28.9753 49.6118
452 1 34.9065 28.668 49.2878
455 1 33.7431 28.211 48.0057
458 1 34.2735 27.4616 49.5557
459 1 34.5031 27.8537 50.5417
460 1 35.3777 28.5001 50.4224
ITEM: TIMESTEP
2000
ITEM: NUMBER OF ATOMS
500
ITEM: BOX BOUNDS pp pp pp
0.0000000000000000e+00 6.0000000000000000e+01
0.0000000000000000e+00 6.0000000000000000e+01
0.0000000000000000e+00 6.0000000000000000e+01
ITEM: ATOMS id type x y z
301 1 10.6196 43.6813 16.7694
320 1 10.5644 45.2673 18.0016
186 1 40.7805 30.3609 20.318
317 1 10.2581 45.8303 15.7321
316 1 10.4305 45.0132 15.2095
312 1 9.24183 45.5817 16.1269
318 1 10.4804 45.8213 16.6473
319 1 10.1337 46.0879 17.511
303 1 9.50483 45.3926 17.0637
314 1 9.39398 44.0777 16.6229
304 1 9.12304 45.9149 17.6982
313 1 8.73876 44.7951 16.2178
302 1 10.2624 44.6348 17.0875
311 1 9.67203 46.3936 16.4783
310 1 8.67009 46.4111 16.0573
193 1 39.6325 29.3744 17.4308
199 1 38.2658 30.8917 18.4445
192 1 39.3237 30.088 17.9988
190 1 40.1066 31.0318 18.9848
191 1 39.3123 30.4015 18.8583
189 1 40.3806 30.6116 18.2241
188 1 40.2666 29.964 18.929
198 1 38.7312 31.2386 19.2395
185 1 39.7798 30.4139 19.9401
187 1 41.0379 30.5549 19.3239
306 1 8.76723 44.7765 17.6297
307 1 7.92495 44.509 17.1499
308 1 7.92564 45.3042 16.6832
315 1 9.86684 44.7882 15.9521
309 1 8.42384 46.1458 16.9094
305 1 9.50001 45.1155 18.1665
195 1 38.7124 29.5098 18.5611
194 1 39.658 29.2172 18.4862
197 1 38.6308 30.4035 19.7548
196 1 37.9993 29.8803 19.1845
346 1 10.3923 31.471 20.4806
200 1 39.1074 31.1943 18.1997
183 1 40.2926 29.0464 19.7968
184 1 39.2935 29.5195 19.609
181 1 39.9559 30.3581 21.0156
182 1 40.0011 29.4976 20.4993
348 1 9.75248 32.0804 19.9839
354 1 11.7838 32.0581 20.1486
352 1 11.3912 31.2887 19.1828
355 1 11.5683 32.4459 19.3056
356 1 12.1865 32.104 18.7896
353 1 11.4423 31.1016 20.1233
357 1 13.1858 32.1124 18.6192
358 1 12.7673 32.7225 19.3244
284 1 49.751 39.1412 20.666
283 1 48.8917 39.2138 21.2538
290 1 48.1476 38.6563 19.9724
281 1 48.3518 39.3182 22.533
282 1 49.2423 39.6201 22.1138
89 1 40.1427 46.7429 20.3043
91 1 40.8816 46.7732 21.1341
93 1 40.8067 47.5915 21.867
92 1 41.5014 46.9443 21.8923
341 1 12.7908 28.457 19.8836
345 1 10.0627 31.055 19.5048
347 1 10.5733 32.1294 19.5262
350 1 10.0715 31.6798 18.3737
349 1 9.43985 31.9273 18.9996
351 1 11.0474 32.0277 18.5424
360 1 13.0133 32.516 20.535
359 1 12.8102 31.815 19.7953
285 1 49.2736 38.7146 19.8178
293 1 47.5683 39.4869 18.9892
292 1 48.5207 39.4932 19.1093
286 1 49.7671 39.4854 19.3623
287 1 49.4916 39.6326 18.416
421 1 21.3317 43.9304 16.7764
435 1 20.1872 45.4065 16.1662
289 1 48.0838 38.5683 18.9362
291 1 48.4789 39.6076 20.122
296 1 48.211 38.9457 17.8161
288 1 49.2602 38.6418 18.7726
434 1 20.5881 44.4458 16.0416
82 1 41.0361 46.0291 17.5771
83 1 42.0633 46.0651 17.3705
81 1 41.4477 46.814 17.965
85 1 41.5948 45.8365 18.8637
87 1 40.6434 47.1171 18.66
90 1 40.9554 46.3865 20.2261
88 1 40.0101 47.2699 19.4273
95 1 40.4619 47.9254 20.9988
94 1 41.2997 48.2792 21.446
342 1 11.9249 28.8852 19.6392
343 1 11.1653 29.5573 20.0649
344 1 10.6188 30.177 19.4462
220 1 43.7274 31.5533 22.1735
219 1 43.2909 31.2786 21.3229
211 1 43.2042 30.1942 22.0149
212 1 42.5539 30.7384 22.5183
208 1 41.0555 29.8943 21.7307
210 1 42.6911 29.8228 21.3269
209 1 41.9172 30.3387 21.4909
370 1 43.5102 37.4937 21.3583
369 1 44.395 37.6223 21.627
361 1 43.038 39.3767 23.7849
371 1 43.6023 38.4761 21.5405
426 1 22.5888 42.8946 16.3935
299 1 47.4903 38.2058 16.2546
300 1 48.0439 38.2481 17.0267
422 1 21.5493 44.0715 17.8087
424 1 21.9308 42.2337 17.0517
423 1 22.0024 43.2429 17.2041
428 1 23.1758 42.6911 15.4942
425 1 21.6946 42.63 16.2849
436 1 20.9345 45.5393 15.522
427 1 22.4795 41.9641 15.961
437 1 21.5195 45.3353 14.7539
294 1 48.1397 39.9219 18.1732
295 1 47.4766 39.5894 17.6334
297 1 47.4018 38.4329 17.8773
298 1 46.9641 38.7064 16.9541
432 1 21.3386 43.5467 15.7742
431 1 22.1452 44.0035 16.0475
433 1 21.4344 44.5411 15.5378
84 1 42.1333 45.4194 18.0863
99 1 41.836 45.7357 20.9324
98 1 41.9628 46.8251 20.6514
86 1 40.821 46.4298 19.2244
97 1 41.6516 47.164 19.8092
96 1 40.922 47.7735 20.0213
1 1 14.3163 9.3743 25.5103
5 1 16.5663 8.90063 25.2306
2 1 14.7216 10.1667 25.589
3 1 15.6944 9.94169 25.6233
8 1 15.386 8.61003 25.9077
9 1 14.7069 8.42956 25.067
217 1 42.0682 31.861 21.2451
218 1 43.0241 31.9249 20.6335
216 1 41.7464 31.2508 21.9459
201 1 43.6959 30.0765 21.1007
214 1 41.5727 31.9444 22.6278
213 1 42.6191 31.7032 22.4673
215 1 41.5527 30.9336 22.8873
207 1 41.9886 29.6295 22.3582
206 1 41.9096 28.7455 21.7932
204 1 43.3061 28.9739 21.8439
205 1 42.7906 28.2745 21.4831
362 1 42.8456 39.3942 22.7331
364 1 41.5917 38.111 23.3997
363 1 42.0077 38.7519 22.7811
367 1 43.7978 36.9525 22.3223
65 1 10.5619 39.3525 26.43
64 1 9.95447 39.4052 25.6189
62 1 9.98736 39.0582 23.9091
61 1 10.0941 39.6886 24.5231
372 1 43.014 37.9668 22.1759
373 1 43.7898 37.9608 22.5841
374 1 43.054 38.0941 23.3217
368 1 44.7307 37.1039 22.4483
375 1 42.5585 37.9987 24.1254
376 1 43.014 37.1506 23.7929
67 1 11.5017 38.7648 27.0549
66 1 11.4186 39.7495 26.7386
439 1 20.4468 44.7157 15.0511
440 1 19.6524 44.1033 14.7687
429 1 22.1095 42.8297 15.3733
430 1 22.2323 43.8657 15.1327
438 1 21.1877 44.4937 14.3976
100 1 42.11 45.9883 19.9346
20 1 13.6161 9.11526 28.4997
18 1 13.3079 9.86606 27.4557
17 1 12.6334 10.4427 27.0998
4 1 15.6635 9.1771 25.0202
12 1 15.2616 10.1699 24.1953
16 1 12.8575 10.4498 26.0836
14 1 14.1081 11.0366 25.5286
10 1 15.2663 8.51626 24.193
11 1 14.698 9.41669 24.4436
6 1 16.4926 8.1472 24.5582
15 1 13.41 10.202 25.376
7 1 15.734 8.13171 25.179
60 1 33.2088 18.1029 26.9053
59 1 32.8008 17.2443 26.5231
412 1 41.2981 14.8614 25.7188
407 1 40.8309 16.6356 26.1832
202 1 44.2983 29.3406 20.7714
203 1 44.2853 28.9731 21.7795
80 1 11.5662 37.1974 23.7046
63 1 10.0728 38.7628 24.8896
366 1 42.9046 36.9583 22.6899
365 1 42.2367 37.3848 23.0434
72 1 12.153 37.4575 25.7251
79 1 12.2274 37.1473 24.5163
77 1 12.5126 39.0372 24.7058
78 1 12.6668 38.0561 24.5289
385 1 32.4009 37.5976 25.1267
381 1 32.2664 35.1313 24.4593
378 1 41.4135 37.2669 24.0297
379 1 41.8919 37.1573 24.9342
380 1 41.2582 36.3971 24.7779
377 1 42.1564 36.5938 23.7951
69 1 10.9616 38.3144 26.1768
68 1 10.5985 38.4417 27.1338
383 1 32.175 36.7975 24.4442
384 1 31.8629 37.8044 24.2417
382 1 32.6179 36.0279 23.9789
392 1 30.8591 36.6693 26.6612
19 1 12.7542 9.56034 28.2628
13 1 14.5168 10.5055 24.6694
47 1 31.3338 17.0019 25.0429
41 1 31.3193 20.4075 25.9264
48 1 31.2166 16.1339 25.6322
58 1 33.2706 16.9968 25.5392
57 1 33.5369 16.2356 26.1397
46 1 31.9593 17.3187 25.9073
54 1 32.4236 15.8523 24.6149
53 1 31.9669 15.4511 25.3055
49 1 31.3352 16.0802 24.63
50 1 30.6731 15.3966 24.9723
413 1 40.5592 14.7174 26.2803
414 1 40.8082 15.4836 26.9239
415 1 40.108 16.0956 26.8028
56 1 32.4999 16.054 26.2017
406 1 40.677 17.172 27.1173
405 1 41.5535 16.8957 27.294
410 1 41.1307 15.9979 25.0816
411 1 40.6405 15.5633 25.7686
420 1 40.1728 16.6298 25.3134
418 1 40.3599 15.0618 24.9494
403 1 43.2413 16.6572 26.9101
408 1 41.7535 16.8311 25.9795
402 1 42.8003 16.9819 25.9969
409 1 41.7821 15.7634 25.8869
401 1 43.2212 17.914 26.1256
73 1 12.6639 37.8778 26.4772
74 1 13.1112 38.0131 25.6976
71 1 11.9907 38.3956 25.4929
75 1 13.8455 38.0568 25.0349
76 1 13.4617 39.0675 25.1551
386 1 31.4428 37.8449 25.3329
390 1 32.2854 35.886 26.1775
400 1 32.9459 37.1798 27.9447
271 1 33.0477 36.7791 29.4431
270 1 32.9167 37.6862 28.9338
70 1 11.2634 39.0703 25.7241
394 1 30.6513 37.5245 27.7476
391 1 31.8138 36.3639 26.6946
389 1 32.7417 36.2869 25.4066
398 1 33.1231 36.3453 26.6744
399 1 32.7653 36.4615 27.4868
269 1 33.8333 37.8703 29.0319
267 1 34.0096 37.0625 27.6306
393 1 30.9485 37.6447 26.7682
397 1 32.5916 37.1122 26.3197
42 1 31.2238 19.3572 26.0266
43 1 31.2018 18.5145 26.6747
52 1 31.6296 14.9825 24.5126
44 1 31.086 18.0505 25.8296
45 1 30.9334 17.1078 25.9959
51 1 31.0855 14.6279 25.2274
416 1 39.3931 15.2416 26.5477
417 1 39.766 14.9933 25.667
55 1 32.3657 16.424 25.2762
419 1 39.8413 15.9099 24.7075
404 1 42.1527 16.4632 26.8435
388 1 31.9246 36.6775 25.5121
272 1 33.7514 37.164 29.8409
387 1 31.2129 36.9504 24.9376
395 1 31.3423 36.9659 27.6603
396 1 32.0685 37.2834 27.1057
268 1 33.8952 37.0785 28.4347
278 1 32.341 36.2703 28.4395
277 1 31.9293 36.5645 29.2913
265 1 32.5453 38.153 26.6534
266 1 33.2834 37.454 27.0746
273 1 33.3507 36.1929 30.339
280 1 34.1541 36.1636 29.0682
274 1 32.6358 35.9909 30.6914
276 1 32.3244 35.839 29.7242
279 1 33.3658 36.1924 28.4165
261 1 33.7486 37.978 24.0125
264 1 31.9498 38.6772 26.1617
263 1 32.5783 38.624 25.4694
262 1 33.0611 38.2918 24.7968
114 1 17.6806 45.5872 27.519
112 1 16.3876 45.7111 28.5494
475 1 33.5937 13.686 29.7173
474 1 32.7508 13.7388 29.1809
472 1 33.0723 12.7476 29.4639
473 1 32.519 13.0121 28.6004
480 1 32.7022 13.4441 30.2532
228 1 17.7719 23.1925 28.4961
227 1 17.3984 22.4157 28.9059
231 1 16.9811 22.3193 26.9798
229 1 18.0936 22.4222 27.9922
230 1 17.621 21.6285 27.455
232 1 16.4631 22.6463 27.8548
275 1 31.768 35.8737 30.4391
115 1 18.0002 46.4771 27.9941
174 1 8.00144 45.623 29.4414
173 1 7.90486 45.1814 28.6247
175 1 8.71582 46.0616 30.0144
116 1 17.2503 47.1335 27.8653
113 1 17.3464 45.8247 28.4502
108 1 15.9115 48.209 27.2208
109 1 16.4487 48.0558 28.149
170 1 8.85905 44.9145 29.1663
171 1 8.51093 44.2376 29.8092
172 1 7.93551 44.384 28.9534
110 1 16.2925 47.2154 27.6325
111 1 16.6265 46.2341 27.7523
477 1 34.1166 13.8366 30.5358
476 1 34.1149 12.8646 30.2463
478 1 33.3171 14.2674 31.0556
465 1 33.2748 12.9379 31.0204
471 1 32.8133 12.1198 30.117
479 1 33.0833 14.4507 30.1515
464 1 33.2405 13.4722 31.8907
461 1 32.25 13.8298 31.5172
470 1 31.897 11.7583 30.0417
225 1 18.5809 23.6466 29.0817
224 1 19.1324 23.2512 28.3764
240 1 18.9039 21.3149 27.1531
226 1 18.2656 22.6924 29.1912
236 1 16.6827 21.511 26.1537
235 1 15.7961 21.7662 26.0864
223 1 19.1565 22.4737 27.9284
222 1 20.0092 22.1601 27.4502
221 1 20.8808 22.6264 27.5406
239 1 18.849 22.2512 26.5588
234 1 16.1808 22.689 26.3574
233 1 15.6525 23.0443 27.1722
321 1 26.7573 31.8695 34.0632
322 1 26.5918 30.8953 33.9082
340 1 28.4481 28.553 33.9267
339 1 27.6319 28.4138 34.4289
336 1 28.9235 30.1649 33.7313
177 1 7.2184 45.4332 30.7931
241 1 8.3509 47.3671 31.5536
117 1 16.8874 47.0745 28.7166
176 1 8.06444 45.0868 30.2441
180 1 7.46857 45.423 32.3502
178 1 6.64518 45.5686 31.613
164 1 8.17973 47.0684 29.7694
166 1 7.37463 46.9497 29.0207
165 1 7.46788 47.835 29.3357
163 1 8.48571 47.8756 29.6383
119 1 17.7583 47.6292 29.1511
118 1 17.6963 46.6954 29.0967
120 1 18.4168 47.4157 28.3846
106 1 17.2026 47.0692 26.7282
105 1 18.1456 47.1207 27.1121
107 1 16.9199 47.9146 26.9607
167 1 8.29607 46.5618 28.8747
168 1 9.25299 46.5996 29.111
169 1 8.84677 45.7682 28.63
162 1 7.88208 48.7878 29.6777
101 1 18.1043 45.1029 26.5452
102 1 18.0674 45.4757 25.646
103 1 17.5704 46.1471 26.3187
104 1 18.4378 46.231 26.663
254 1 5.98925 46.4571 28.8285
467 1 31.8958 12.0185 31.1316
466 1 32.4738 12.6033 31.6687
463 1 32.8871 13.4503 32.8721
468 1 32.0389 12.7141 30.5316
469 1 31.1386 12.2509 30.4547
462 1 31.9085 13.8387 32.4133
237 1 17.6864 21.9344 26.3356
238 1 18.3504 22.4286 25.7521
328 1 28.4046 32.322 33.491
329 1 28.8668 31.4496 33.2703
331 1 28.8131 30.7054 32.3388
330 1 29.5111 30.6992 32.8868
323 1 26.8189 30.7647 32.9377
324 1 27.2299 31.7329 32.8114
338 1 27.6939 29.4055 34.2366
337 1 28.136 29.5833 33.4404
335 1 28.3138 30.6834 34.2358
334 1 27.7408 31.4266 33.9149
242 1 8.5913 47.3528 30.7106
179 1 7.45331 46.1318 31.6315
247 1 6.49653 47.2404 31.3359
246 1 7.34141 47.1427 31.7251
245 1 7.52861 47.1994 30.7749
243 1 8.90435 46.4172 31.0649
244 1 7.97841 46.3563 30.7152
248 1 5.61677 47.4499 31.501
253 1 5.94434 47.4613 29.1436
255 1 6.37194 46.1543 29.586
256 1 7.33369 46.3184 29.8526
252 1 6.74806 47.2674 29.849
161 1 7.46696 48.1098 30.3784
251 1 6.43924 48.333 30.0252
327 1 28.9399 32.3245 32.6742
325 1 27.4585 31.5473 31.8535
326 1 28.1912 32.0569 32.0815
332 1 27.827 30.4352 32.205
333 1 27.8983 30.7067 33.1814
257 1 6.788 46.417 30.7234
258 1 5.8827 46.3678 31.2145
250 1 5.47119 48.1428 30.6584
249 1 5.72457 47.2287 30.5245
259 1 6.15814 45.6359 30.5223
260 1 6.90631 45.2103 29.7916
492 1 22.9922 37.8185 41.72
484 1 23.2252 38.9394 42.0869
485 1 24.1882 38.5377 42.0295
490 1 23.7352 37.3937 40.591
491 1 23.8576 37.2987 41.4969
125 1 26.114 32.5154 42.4077
481 1 22.5288 39.6484 42.0288
483 1 23.4787 39.6013 41.3709
500 1 22.292 37.4593 39.7498
498 1 21.8491 38.7905 40.0751
493 1 22.6866 37.2978 40.905
494 1 22.6689 38.1838 40.569
495 1 22.0477 38.1151 41.3879
486 1 24.574 38.8907 41.1002
488 1 23.5289 38.6724 40.2824
482 1 22.5565 39.2396 41.1166
487 1 23.7338 38.3779 41.0974
489 1 23.4433 37.7758 39.6653
157 1 50.4831 15.478 45.3706
156 1 49.3757 15.1846 45.6805
158 1 50.306 16.1703 44.5918
150 1 48.5617 16.5221 43.5629
159 1 50.017 15.301 44.2578
149 1 47.8483 16.4467 42.842
123 1 25.9466 34.0313 41.6088
131 1 24.5764 32.9063 41.2139
124 1 25.852 33.4597 42.3742
127 1 26.3951 33.2078 40.8133
129 1 26.0599 32.1699 41.3222
132 1 25.1753 33.6045 40.8061
126 1 26.7316 32.965 41.6035
497 1 21.262 38.0208 39.8016
128 1 26.378 32.344 40.4223
499 1 22.634 38.4966 39.4861
496 1 21.5857 37.5547 40.6745
153 1 47.859 14.6112 44.3872
160 1 51.0014 15.5393 44.0917
155 1 49.1152 15.5634 44.7579
154 1 48.8321 14.6344 44.8317
141 1 49.756 14.9944 43.1949
152 1 48.0795 15.6035 44.4164
146 1 48.0345 15.0177 42.148
151 1 49.0105 15.7369 43.7134
142 1 49.3904 14.4246 43.9057
147 1 48.8806 15.1164 42.4661
148 1 48.7555 16.0233 42.5013
122 1 25.3477 34.7296 41.9805
136 1 24.8832 35.5068 40.5088
135 1 25.3002 34.7113 39.9373
121 1 25.3332 34.6871 40.9541
137 1 25.7092 35.8435 40.9302
130 1 25.4315 32.8231 41.4483
134 1 26.1883 34.1151 39.9315
133 1 25.5437 33.3452 39.9247
143 1 48.7239 14.3293 43.2159
144 1 47.7738 14.4587 43.18
145 1 48.1706 15.3766 43.1644
31 1 32.502 15.6165 48.6425
139 1 24.2731 35.3563 41.2851
140 1 23.6567 36.1517 41.0671
138 1 24.8257 36.1989 41.395
23 1 36.7234 17.0481 46.9968
25 1 36.2208 15.9043 47.5285
28 1 34.0414 16.9485 48.2318
24 1 36.0943 16.8815 47.714
27 1 35.0404 17.0827 48.3166
26 1 35.3596 16.1443 48.0831
29 1 33.6639 16.1185 48.6879
32 1 32.749 16.3286 47.9655
30 1 32.9143 16.4127 49.0956
33 1 32.2285 15.7468 47.3653
34 1 31.7167 16.5003 47.8576
21 1 37.2503 16.1137 47.0932
22 1 37.1549 16.7823 47.9052
40 1 31.4386 15.9846 48.779
38 1 30.5916 16.4884 48.2374
35 1 32.0704 17.106 48.6268
36 1 31.1967 17.2737 48.704
37 1 30.5585 17.4278 48.0364
456 1 38.1333 30.4777 49.6807
455 1 38.7134 31.0689 50.243
454 1 39.1435 31.43 49.3215
39 1 30.3675 15.846 48.8616
457 1 38.6441 30.1885 48.8492
458 1 38.6177 31.0269 48.2155
450 1 38.4727 29.3057 48.2554
441 1 40.0041 29.5604 49.9246
442 1 39.0122 29.6873 49.7504
451 1 39.3783 29.371 48.774
453 1 39.6658 30.5865 49.5836
452 1 39.7561 30.3016 48.617
449 1 37.5079 29.4126 48.1838
459 1 38.252 30.1578 47.6879
460 1 37.3664 30.6301 47.34
448 1 37.7437 29.1522 47.3248
444 1 38.2252 29.1154 49.3562
443 1 38.3893 29.2495 50.3522
447 1 36.825 28.7546 47.568
446 1 36.9846 27.9703 48.1514
445 1 37.4492 28.703 48.8734
ITEM: TIMESTEP
3000
ITEM: NUMBER OF ATOMS
500
ITEM: BOX BOUNDS pp pp pp
0.0000000000000000e+00 6.0000000000000000e+01
0.0000000000000000e+00 6.0000000000000000e+01
0.0000000000000000e+00 6.0000000000000000e+01
ITEM: ATOMS id type x y z
428 1 24.0151 47.0833 10.8718
440 1 22.3905 48.7668 13.5167
429 1 23.3243 46.3821 10.7129
430 1 22.4688 46.6582 10.5953
316 1 9.54337 46.2602 18.4191
436 1 22.7554 48.227 11.8049
439 1 22.4241 47.9809 12.8319
438 1 23.5051 47.9038 12.681
437 1 23.4937 47.5625 11.7875
433 1 23.9792 48.3058 10.9295
299 1 48.1218 40.3685 19.6371
300 1 47.305 39.9212 19.8201
298 1 48.885 40.8675 19.5039
424 1 25.1433 48.5423 8.63313
425 1 24.4434 48.6497 9.49758
427 1 24.4153 46.8704 10.0613
314 1 7.90644 47.0057 18.0665
301 1 8.87527 45.1422 18.2922
421 1 24.8977 47.6806 10.8504
432 1 23.066 48.3326 10.6831
426 1 24.5037 47.5336 9.23422
431 1 22.7347 47.4506 11.0958
308 1 7.37942 47.6003 17.2934
312 1 8.11282 47.8946 19.2118
303 1 7.70627 45.8124 19.0725
313 1 8.45341 47.7055 18.2567
315 1 8.74564 46.3933 18.0763
302 1 8.6745 45.8004 18.9839
435 1 23.3936 48.8673 11.7204
434 1 24.2625 48.6443 11.7303
309 1 7.05884 48.51 17.39
311 1 7.35217 47.3669 18.937
310 1 7.39642 48.0784 18.2574
317 1 9.89796 47.0805 18.7275
318 1 9.34889 46.5528 19.4564
193 1 41.8805 33.3718 21.4597
194 1 42.0333 32.6612 20.8678
199 1 42.427 33.6881 22.8838
192 1 42.6136 32.7904 21.7618
200 1 41.6416 34.1913 22.3186
189 1 43.9803 31.3943 21.3991
350 1 10.2783 31.6065 20.9008
351 1 11.0108 31.9166 20.1779
297 1 49.3444 40.8048 20.3925
296 1 49.0635 39.8496 20.2333
294 1 48.9631 40.155 18.7109
295 1 49.4331 39.5189 19.3608
287 1 48.6998 38.9337 19.9307
422 1 25.2082 48.493 10.3875
423 1 25.4322 48.1757 9.5172
307 1 6.91238 47.1278 16.5484
306 1 7.2576 46.3763 17.0892
305 1 8.18893 46.3093 17.2268
320 1 7.98765 46.7152 19.9722
84 1 37.085 46.6613 19.2994
304 1 7.79228 45.9889 18.0855
319 1 8.45171 46.8534 19.0306
82 1 37.1406 46.2419 20.3081
81 1 36.4487 45.5563 20.5457
83 1 36.3098 46.7863 20.037
341 1 10.2255 31.0631 19.7395
342 1 10.087 32.0554 19.7865
196 1 41.6261 31.9572 21.8158
195 1 41.1864 32.0917 20.9745
184 1 42.277 31.3906 20.9242
188 1 43.2113 30.8419 21.1428
183 1 41.8271 30.7075 21.2209
352 1 11.8351 32.0586 19.364
345 1 11.0349 30.6079 20.1733
344 1 11.3219 31.1579 19.4907
191 1 43.598 32.9184 22.1267
198 1 42.7618 32.795 23.0316
185 1 42.5171 31.1764 21.8418
197 1 41.7999 32.5474 22.6111
190 1 43.2558 31.9745 21.7668
187 1 43.2102 30.0635 20.6485
349 1 10.8045 32.3751 21.2439
347 1 11.2811 31.3584 20.9682
355 1 12.4958 31.0165 19.0416
356 1 13.0128 31.8065 19.7151
358 1 13.0107 31.4666 20.7707
359 1 12.3515 30.9103 21.0766
357 1 13.2456 30.9036 19.9012
290 1 48.6513 38.7143 17.4091
293 1 47.9512 40.0198 18.55
292 1 47.959 39.9811 17.6233
289 1 49.1149 39.024 18.3024
285 1 47.4262 39.1619 18.9587
286 1 48.3629 39.4064 19.2413
288 1 48.9222 38.497 19.0804
87 1 36.7998 44.4857 19.0895
86 1 36.6766 45.4845 19.3727
85 1 36.1039 46.4048 19.099
100 1 38.7415 46.0865 19.905
88 1 36.4598 44.503 20.0744
97 1 37.4256 44.8666 20.6384
343 1 10.6606 31.813 19.0423
182 1 41.3853 29.8184 21.3079
210 1 43.7745 29.4461 22.0584
202 1 43.182 28.8754 20.3338
353 1 11.5504 31.8108 18.3611
181 1 41.4339 30.09 20.418
186 1 42.5081 30.0523 21.5366
219 1 43.871 28.5128 21.6892
201 1 42.8212 28.0078 20.0857
348 1 11.6898 32.2444 21.3015
346 1 10.9067 30.6608 21.2052
354 1 11.8701 30.9862 18.294
360 1 12.1576 31.3059 20.1746
217 1 44.5692 28.7326 20.6479
218 1 44.0447 29.3388 21.1051
370 1 43.6412 39.8958 23.0805
291 1 47.8494 39.1027 17.9235
284 1 46.4789 39.6044 18.7467
283 1 46.8281 39.7586 17.8304
89 1 37.3338 44.0029 20.0142
91 1 38.5153 43.2714 19.8478
90 1 37.567 43.0887 20.2065
99 1 37.9998 45.6267 19.7845
98 1 38.1333 45.4847 20.7564
95 1 37.4769 44.7495 21.9753
96 1 37.2197 45.4446 21.3312
205 1 41.3089 28.9091 20.7499
208 1 42.8031 28.2753 22.2414
207 1 42.5848 28.0558 21.2502
206 1 41.839 28.6846 21.5806
204 1 41.8085 28.6676 19.9231
203 1 42.2714 29.3563 20.5326
212 1 44.7921 29.7501 21.6457
209 1 42.8882 29.1538 21.6851
216 1 45.3388 28.8917 21.171
211 1 44.2078 30.3955 21.8732
214 1 44.8863 28.4291 22.4493
213 1 45.4773 29.1928 22.3342
220 1 43.7423 28.5364 22.8376
367 1 42.1029 40.2477 23.5005
366 1 41.6169 41.1227 23.6824
371 1 43.0164 39.1553 23.3285
372 1 41.9938 39.1745 23.2001
373 1 42.3977 39.4194 24.0956
369 1 43.6693 40.6425 23.8168
368 1 42.7395 40.8758 23.8034
362 1 39.9317 39.7228 24.3419
363 1 40.7668 39.5286 23.8114
281 1 47.0839 38.8357 17.0768
282 1 46.6204 38.7148 18.0414
92 1 38.4432 44.196 20.1455
93 1 38.0001 43.979 21.011
94 1 37.054 44.1856 21.4793
10 1 10.597 9.08471 29.3619
12 1 10.2195 10.5281 29.3593
215 1 44.8917 28.0614 21.6014
382 1 35.297 32.8133 26.3183
377 1 41.3902 38.6008 24.0208
80 1 12.0177 39.0151 25.7206
384 1 35.2432 34.9159 26.6785
261 1 33.8596 36.7202 26.6437
378 1 40.4508 38.6683 24.3693
364 1 41.4756 39.5929 24.5023
375 1 42.385 38.2325 23.4709
365 1 41.5173 40.5236 24.3529
374 1 42.4389 38.526 24.4326
376 1 41.4668 38.2973 23.0716
62 1 11.5523 41.6693 29.1652
361 1 40.6389 39.9705 25.0375
9 1 11.2579 9.11376 28.6422
7 1 11.1821 9.90092 27.7283
6 1 11.5794 10.7757 27.7928
1 1 12.383 9.80824 28.4003
3 1 12.3542 10.5538 28.9932
4 1 11.5381 10.8719 29.5656
11 1 10.8908 9.90693 29.1139
5 1 11.3874 10.8051 28.7215
14 1 10.1201 11.3612 28.6419
15 1 10.4659 11.9569 27.8794
2 1 11.862 9.8924 29.1906
13 1 10.3296 10.3978 28.3623
50 1 34.2427 17.968 25.4138
51 1 33.6764 18.6114 24.9939
53 1 32.0684 18.9885 25.0544
52 1 32.9807 19.2859 25.1672
417 1 39.1908 14.6347 27.9064
418 1 38.9675 15.2505 27.1224
47 1 33.9173 17.4738 27.0063
48 1 34.4004 17.1939 26.2548
49 1 33.8974 16.9949 25.4657
54 1 32.0561 18.0384 25.3875
55 1 33.0104 17.9925 25.4427
58 1 33.6231 19.3792 26.4839
419 1 38.6481 15.4591 26.1593
410 1 37.5582 15.0187 25.761
420 1 38.82 16.3789 26.5424
238 1 16.5311 20.7573 24.1728
381 1 35.7456 33.1901 25.4647
387 1 33.7957 35.1748 26.7566
383 1 35.0148 33.9218 26.38
389 1 33.2078 34.435 27.5415
388 1 33.3129 34.2607 26.4934
380 1 39.4657 38.6771 22.8538
79 1 12.2226 39.8825 25.4345
78 1 11.3633 40.1273 25.9779
71 1 13.5037 39.9952 27.1431
74 1 13.5963 40.8741 25.6767
75 1 13.0951 41.0579 26.5718
385 1 34.7903 35.3952 27.3153
386 1 34.0177 35.8247 27.3004
262 1 34.868 36.6963 26.9392
379 1 40.0457 38.6058 23.5708
64 1 11.1805 40.6365 29.366
61 1 10.9281 42.4697 29.31
63 1 10.6042 41.3546 29.4777
77 1 12.1927 40.2123 26.5129
76 1 12.5269 40.8152 25.9037
263 1 34.761 36.7179 27.8701
102 1 15.4332 45.8615 25.6208
8 1 10.4506 9.34324 28.0295
17 1 10.4858 12.1935 26.006
16 1 10.2772 11.8088 26.9346
416 1 39.1323 14.2628 28.8071
412 1 38.4255 14.3635 27.1876
413 1 37.4735 14.3476 27.6073
414 1 38.1121 14.0801 28.325
411 1 37.8217 15.102 26.7093
45 1 33.5853 16.2405 26.125
56 1 32.6505 17.8882 26.3157
57 1 33.53 18.4851 26.1933
407 1 39.1278 13.53 26.4496
415 1 38.7243 13.4162 28.6528
408 1 39.2563 14.2084 25.6536
402 1 37.2074 14.1254 26.3456
409 1 38.2967 14.2544 25.6442
404 1 38.3781 12.9577 27.1184
403 1 37.5336 13.2504 26.6916
43 1 34.6605 15.8206 26.3355
44 1 34.3263 15.9772 25.4218
59 1 32.8997 19.0995 27.1564
46 1 33.3195 16.7363 26.9342
60 1 32.5536 19.0487 26.2719
406 1 39.7542 13.1152 26.906
401 1 36.846 14.9904 26.8149
42 1 35.5302 15.5868 25.7727
240 1 14.9 19.8048 24.1624
41 1 35.1121 16.5137 25.6271
231 1 18.79 20.2754 24.0027
236 1 17.4427 21.7806 25.5962
235 1 17.9873 20.9281 25.9633
234 1 18.6064 20.3196 25.3716
237 1 16.686 21.4072 24.95
239 1 15.8303 20.276 24.1617
392 1 33.3846 36.7242 28.0384
390 1 33.6867 35.0081 28.2423
391 1 33.0223 35.8401 28.1229
397 1 34.9592 36.513 29.4094
398 1 35.4958 36.9918 28.8978
69 1 12.9493 39.1125 27.8295
72 1 13.5395 39.1473 26.4581
73 1 13.2557 40.0195 25.9952
393 1 33.9208 36.4001 28.5775
396 1 35.5753 35.7888 29.6121
265 1 33.9513 38.1377 26.684
266 1 33.1299 37.6914 26.2823
65 1 10.8836 41.0064 28.5594
70 1 12.7569 39.504 26.946
67 1 11.7342 39.9985 27.4589
66 1 11.489 40.9619 27.6318
264 1 34.4827 37.5783 27.4063
101 1 15.9216 45.9496 26.4607
106 1 15.9829 47.6295 26.2232
105 1 15.4044 47.1081 25.6737
103 1 15.2936 46.4046 24.7546
104 1 14.6986 47.1412 25.0177
107 1 16.6935 46.8911 26.2185
19 1 10.5661 13.2831 25.781
20 1 10.0512 12.6399 25.1788
18 1 11.109 12.5431 25.4409
405 1 39.1101 13.6242 27.6138
232 1 19.3419 19.7206 24.6988
229 1 19.9467 21.039 24.0484
230 1 18.9015 21.2595 24.1354
223 1 17.9179 20.9985 24.8002
222 1 17.8065 19.9172 24.7461
221 1 17.5941 20.2279 23.9065
233 1 19.5751 20.6137 25.1737
228 1 19.8429 20.3232 23.2248
224 1 17.5324 21.3243 24.1376
395 1 35.141 35.2766 28.9607
399 1 35.3748 37.7861 28.2055
278 1 33.8992 36.9973 29.9001
267 1 32.9466 37.4087 27.2453
268 1 33.3216 37.8825 28.0643
279 1 33.1959 37.5849 30.3503
68 1 12.3916 39.991 28.2839
394 1 34.5526 35.7746 28.4362
400 1 34.5187 37.7504 28.457
112 1 17.1077 46.0268 25.466
114 1 16.1643 45.7728 24.5705
111 1 17.5622 46.8851 25.5224
115 1 16.2104 46.6392 25.1933
113 1 17.1236 45.7374 24.5746
108 1 17.2713 47.6707 26.1871
109 1 17.8597 47.8507 25.4073
110 1 18.5409 47.1229 25.1785
116 1 16.583 47.4457 25.2809
120 1 15.6176 47.3587 24.4833
472 1 34.122 14.0081 29.8804
474 1 33.6015 13.4211 31.0101
473 1 34.25 14.1811 30.7321
475 1 33.22 14.1655 31.4285
227 1 18.9343 19.7779 23.1182
226 1 18.455 20.6771 22.8529
225 1 18.2297 21.5617 23.4223
277 1 33.545 36.0122 29.8
276 1 34.2475 35.4368 30.1269
271 1 32.7101 36.5432 29.0676
280 1 32.8027 36.6234 30.3177
270 1 32.4011 37.3299 29.1966
269 1 33.4178 37.4744 28.8785
272 1 32.1753 36.0341 29.691
171 1 8.53152 45.1229 29.9775
260 1 5.57618 45.1289 30.0014
174 1 7.28664 45.0927 30.0871
173 1 6.87757 44.8477 29.3666
172 1 7.92436 44.5316 29.2614
170 1 8.08915 45.6387 29.4748
254 1 5.8956 46.0868 27.3751
255 1 6.21559 44.9642 27.3996
164 1 6.483 47.1063 28.0031
166 1 6.15032 46.9628 29.2709
167 1 6.32509 45.9986 28.945
256 1 6.86871 44.9283 28.1486
168 1 6.82397 46.0034 28.0607
169 1 7.44955 45.6304 28.7986
117 1 17.0131 47.0193 24.426
118 1 16.2795 46.7127 23.9203
253 1 5.10824 46.0778 26.9205
252 1 4.4997 45.7932 27.4719
251 1 3.56578 45.4289 27.8102
165 1 6.70111 47.6257 28.8233
163 1 5.68635 47.7181 28.1396
119 1 15.8072 47.3782 23.4476
162 1 4.91828 47.3847 28.3152
469 1 33.6978 12.6278 29.9815
471 1 34.9941 13.707 29.967
470 1 34.5671 12.7736 30.052
467 1 34.4422 11.5764 29.8242
468 1 33.3289 11.715 29.8802
480 1 32.4053 14.4289 28.9821
477 1 32.0945 14.0101 30.1661
476 1 32.3858 13.7953 31.1765
478 1 32.2882 13.2109 29.6078
465 1 34.3691 12.2703 31.4302
479 1 31.7148 13.6661 29.1266
274 1 33.3985 35.4632 30.9016
275 1 34.1362 34.7394 30.95
273 1 32.544 35.381 30.4198
259 1 5.56202 44.1994 29.6134
177 1 6.37679 45.8699 30.0887
176 1 6.22799 45.6695 30.9674
257 1 6.51215 44.1011 28.5102
258 1 6.01029 44.7968 28.9138
244 1 5.101 47.5954 29.3201
175 1 7.00724 45.176 30.97
243 1 4.9305 47.0701 30.18
250 1 4.2421 45.6593 28.4807
249 1 4.1454 44.7766 28.6236
247 1 5.19291 45.3648 28.073
245 1 4.78094 46.6338 29.0228
161 1 4.84187 46.9064 27.5558
242 1 5.48367 46.7534 31.0379
466 1 34.109 11.6436 30.5971
461 1 32.314 12.0221 30.7462
462 1 32.763 12.923 30.7047
464 1 33.8646 12.7841 32.0592
332 1 27.4934 31.6427 33.4631
331 1 26.5461 31.3033 33.1645
324 1 27.4667 30.4356 35.7845
325 1 27.0881 31.0254 36.5981
326 1 26.5722 31.7256 35.9612
327 1 26.8952 31.9992 35.1991
178 1 5.50775 46.232 29.779
180 1 3.7545 46.2275 29.3112
179 1 4.61278 45.7268 29.7423
248 1 5.07515 45.1353 29.0435
241 1 6.0431 47.1553 30.3916
246 1 5.51557 46.271 28.3505
463 1 33.0828 12.5654 31.489
340 1 28.5586 33.4787 34.7182
338 1 27.7226 33.8794 33.8564
337 1 26.957 33.3783 33.6156
322 1 27.3148 31.1554 34.5856
323 1 26.838 30.8128 35.3079
335 1 28.4238 32.6225 33.9398
334 1 27.9171 32.0585 34.5437
333 1 26.948 32.2842 34.1006
336 1 27.6146 32.6642 33.2696
330 1 26.3939 31.0958 34.0488
321 1 27.3234 30.1622 34.3569
328 1 26.0395 31.4086 35.0766
329 1 25.8424 32.0165 34.3441
339 1 27.6319 33.1032 34.5359
133 1 24.8945 32.7631 39.2809
134 1 23.9575 32.7353 39.4019
135 1 22.9468 32.8083 39.3327
497 1 23.4695 35.5176 38.4074
500 1 24.2524 33.8754 39.6247
499 1 24.926 34.4506 39.3647
489 1 24.4735 34.477 40.5051
129 1 26.2872 31.4943 40.0547
128 1 25.3777 32.0345 40.1563
131 1 25.4267 30.7597 39.2782
132 1 24.9137 31.755 38.9766
127 1 25.889 32.4165 40.9766
139 1 23.4915 33.4613 40.2896
136 1 22.7305 32.6329 40.225
121 1 24.0991 31.3039 39.7705
140 1 23.7199 32.8414 41.1459
137 1 22.6532 32.7526 41.3351
138 1 22.7693 33.6696 40.8353
493 1 22.6904 34.7692 41.2194
494 1 23.3663 34.5223 40.4667
495 1 22.9946 34.2466 39.575
496 1 22.8872 34.6357 38.5776
490 1 24.3933 33.5537 40.7307
487 1 24.7638 35.6071 40.2204
498 1 24.1628 34.9578 38.8135
482 1 23.2406 36.2345 39.8004
483 1 22.6718 35.3939 40.1429
488 1 23.9877 35.122 39.8695
486 1 24.2057 36.022 40.8712
146 1 51.6393 15.8093 44.7139
147 1 51.3099 16.1387 45.531
148 1 50.7098 16.6881 44.931
130 1 26.4372 30.9754 39.2096
125 1 24.5485 31.3426 40.9648
123 1 24.5948 32.5476 40.3912
124 1 24.6481 32.1262 41.2046
126 1 25.442 31.5033 41.0221
122 1 23.6794 31.8882 40.3618
492 1 23.2076 34.474 42.0028
485 1 23.3846 35.5491 40.8556
491 1 23.7748 34.0523 41.414
481 1 24.105 36.3732 39.7669
484 1 22.4513 35.8538 41.0553
144 1 52.0088 14.814 44.9799
145 1 52.5361 15.6764 45.2544
141 1 49.3696 14.0595 44.8927
142 1 50.11 14.8271 44.8366
143 1 51.1173 14.87 44.6746
159 1 48.6701 15.4721 43.8032
160 1 49.0308 15.1495 44.7647
150 1 51.2588 15.9404 43.8522
149 1 50.6175 15.8513 44.4994
151 1 51.9739 15.6637 43.1216
153 1 53.0105 14.6059 43.9227
152 1 52.1852 15.2577 43.9919
156 1 51.2865 14.9095 43.6585
155 1 51.8589 14.1164 43.7512
154 1 52.6476 13.7775 44.1168
157 1 50.3476 14.9688 43.6756
158 1 49.4689 14.6912 43.8595
23 1 34.5797 18.3126 49.2097
21 1 35.9652 18.1412 50.2973
38 1 33.6126 14.4202 48.4682
32 1 33.2048 15.7936 50.6341
33 1 32.7696 14.8364 50.6259
34 1 33.5737 14.5396 50.2901
28 1 35.1199 16.5413 48.1921
26 1 34.1154 17.4715 48.4958
25 1 33.7712 16.8775 49.2205
24 1 33.9677 17.7114 49.7475
22 1 34.9789 17.8479 49.9915
37 1 33.0606 14.2231 49.4055
27 1 35.0476 17.4787 48.7134
446 1 43.0872 31.7453 48.8066
447 1 43.5448 31.2054 49.4892
450 1 42.5439 30.141 47.3523
449 1 43.1751 30.0811 48.1301
448 1 43.2099 30.2958 49.1771
459 1 41.3501 29.596 49.055
460 1 40.7617 29.0266 49.6696
458 1 42.2161 29.986 48.7784
31 1 33.8619 15.8754 49.821
39 1 32.8561 14.8581 48.5729
40 1 32.3924 14.5686 47.916
35 1 33.9328 14.8933 49.4089
29 1 34.2219 16.2958 48.461
30 1 33.4652 15.7482 48.8206
36 1 32.9304 15.2435 49.5824
444 1 42.2067 31.7365 47.7243
445 1 43.1008 31.5229 47.7904
442 1 41.1765 31.247 47.4876
451 1 42.3969 31.0707 46.851
441 1 40.4191 30.7611 47.0691
456 1 41.7245 29.8865 47.7843
454 1 41.4356 29.7579 46.2257
457 1 42.1349 30.7651 48.2719
453 1 41.4744 30.4744 46.7859
452 1 42.0616 30.6627 46.0616
443 1 41.5846 31.7815 46.8056
455 1 41.5196 29.2845 46.9293
ITEM: TIMESTEP
4000
ITEM: NUMBER OF ATOMS
500
ITEM: BOX BOUNDS pp pp pp
0.0000000000000000e+00 6.0000000000000000e+01
0.0000000000000000e+00 6.0000000000000000e+01
0.0000000000000000e+00 6.0000000000000000e+01
ITEM: ATOMS id type x y z
424 1 24.873 51.167 5.4375
423 1 24.2821 51.8594 4.95116
422 1 25.206 52.2144 5.0369
429 1 25.9158 51.4353 5.68478
421 1 25.9327 52.7345 5.55482
425 1 24.0265 50.9204 6.00427
428 1 25.6901 50.6519 6.19085
427 1 24.8574 51.0074 6.71991
430 1 26.8535 51.3634 5.84063
431 1 27.0343 51.0325 6.89638
440 1 28.2715 51.1742 7.09029
426 1 24.4277 51.753 6.30065
433 1 25.3565 52.0045 6.48517
434 1 24.9435 52.8373 6.06661
432 1 26.1964 51.8061 6.76053
439 1 28.1932 51.6848 6.14012
438 1 27.9708 52.3318 6.90923
437 1 27.2112 52.5356 6.53004
435 1 25.6652 53.1242 6.81064
436 1 26.428 52.7688 7.34812
298 1 46.4784 39.2963 18.1774
297 1 46.6403 39.7482 17.2037
289 1 48.1517 38.7419 17.8871
288 1 48.2498 39.6185 17.3986
287 1 48.3752 39.9728 18.2721
299 1 47.4451 39.362 18.2976
295 1 46.5906 40.4302 18.0581
293 1 47.5667 40.7864 18.5418
296 1 47.4608 40.2248 17.7028
286 1 49.053 40.7162 18.0997
231 1 18.1049 18.1463 19.4094
230 1 17.6605 19.0747 19.2389
359 1 11.4127 31.0236 19.5792
360 1 10.7683 30.3409 19.7178
357 1 12.6114 30.4251 18.9914
358 1 11.8456 30.1934 19.3571
355 1 12.5748 31.5639 19.9833
356 1 12.6458 31.482 19.0063
341 1 11.4689 33.0246 19.8446
300 1 47.1257 38.6064 18.852
282 1 48.546 39.8848 19.998
291 1 48.1297 39.2536 19.1992
292 1 47.3613 39.956 19.072
290 1 48.7852 38.8811 18.6391
294 1 46.5972 40.9377 18.8403
283 1 48.2758 40.544 19.3428
281 1 49.2935 40.5018 19.5555
284 1 48.4813 41.495 19.3908
285 1 49.151 41.5022 18.6637
87 1 31.9008 43.403 19.875
90 1 33.7474 44.1381 19.0626
91 1 34.6763 44.0503 19.6304
92 1 34.7976 43.212 19.1684
93 1 35.1419 42.9807 19.9954
89 1 33.1902 44.4597 19.947
302 1 6.74431 46.6045 18.8739
317 1 7.58324 47.0094 19.8534
301 1 6.34838 47.3334 19.4163
311 1 6.13518 48.4331 19.5852
305 1 8.164 48.4667 19.439
304 1 7.22972 48.0876 19.3711
303 1 7.37845 47.2994 18.6121
308 1 6.53972 49.5665 19.8838
310 1 6.61488 48.9755 19.0592
306 1 7.81471 48.8908 18.6017
307 1 7.52259 49.3832 19.5167
309 1 6.54167 50.0193 18.9719
228 1 17.2091 18.5109 20.1906
232 1 18.3115 18.3286 20.3042
233 1 17.5499 17.707 20.8557
227 1 16.9862 18.6539 21.114
225 1 16.6902 19.6598 21.2694
224 1 17.5081 19.5525 21.1064
229 1 17.724 19.3871 20.2075
216 1 44.5193 28.281 20.1918
218 1 42.713 28.6683 20.7733
217 1 43.6404 28.5826 20.2334
214 1 44.0486 29.522 20.7156
212 1 43.2786 29.4908 21.3586
215 1 44.6633 28.7109 21.0703
345 1 10.739 31.1667 20.3495
349 1 12.7832 31.4208 21.1781
348 1 12.4045 30.4739 21.4047
201 1 43.9039 31.103 21.1586
213 1 43.2891 30.3115 20.8675
343 1 9.90009 32.5353 20.5484
344 1 10.0339 31.6415 20.9696
346 1 10.9885 31.5033 21.3018
354 1 12.4366 32.4448 20.4278
353 1 11.7201 31.7582 20.5424
352 1 11.9191 32.2703 21.337
203 1 44.7771 31.8571 21.395
342 1 10.5425 33.1024 20.1394
86 1 32.1091 42.4721 20.1195
85 1 32.6513 42.4064 20.9722
95 1 34.4538 42.6596 20.8452
88 1 32.8235 43.5306 20.2174
100 1 32.9967 44.2366 21.0585
97 1 33.8435 43.4275 21.0316
96 1 33.8143 43.1425 20.1312
94 1 34.8197 43.5663 20.7692
98 1 33.9617 44.3756 20.901
318 1 6.72802 46.9205 20.5782
110 1 15.5796 46.4445 20.6932
109 1 15.0087 46.9699 21.3097
320 1 5.64144 47.2027 20.5193
319 1 6.53179 47.796 20.38
316 1 7.64496 47.8907 20.3937
315 1 7.04645 48.7151 20.4107
313 1 6.30442 49.6012 20.9238
312 1 5.9473 48.8466 20.3619
314 1 7.20004 49.2974 21.0695
234 1 18.1785 17.8841 21.7198
235 1 19.0795 18.4587 21.7187
226 1 16.7882 18.9165 22.0188
221 1 17.4934 19.4473 22.685
222 1 18.2756 18.8706 22.4351
223 1 18.1926 19.2961 21.5762
239 1 19.3891 19.4915 21.7625
237 1 19.6878 19.7418 22.7624
236 1 19.2885 18.9208 22.6289
240 1 20.1672 18.8593 21.6334
238 1 18.8649 20.1026 22.3689
220 1 42.6507 28.423 22.0037
219 1 43.402 28.1476 21.4482
209 1 43.6177 29.6656 22.683
211 1 43.9873 28.9431 21.7755
188 1 44.623 29.8431 21.8349
210 1 44.4044 28.9607 22.6381
190 1 45.4762 29.6915 22.781
347 1 11.8981 31.1431 21.627
350 1 12.8174 31.2122 22.1397
207 1 43.1342 31.1655 21.7604
208 1 43.4223 30.3474 21.9367
206 1 43.6023 30.9604 22.7173
202 1 44.6508 31.0135 21.9056
189 1 45.5125 30.221 21.9501
187 1 44.5235 30.1668 22.6419
185 1 45.2403 30.9011 22.7799
184 1 46.2024 31.0131 22.5203
351 1 12.0471 31.8492 22.3168
204 1 44.0674 32.0408 22.0887
182 1 45.2395 32.1022 22.5809
183 1 46.3421 31.975 22.7334
83 1 33.483 42.4899 21.5976
380 1 40.856 41.4289 22.5485
84 1 32.7207 43.1738 21.6073
81 1 33.6507 43.346 22.3939
82 1 34.368 42.8846 21.9185
99 1 33.5924 44.5331 21.86
114 1 14.6091 45.7561 22.5905
115 1 15.1447 46.5457 22.6172
113 1 15.2445 45.7836 21.8331
112 1 15.9546 45.8709 22.3556
111 1 16.0336 46.6168 21.6442
106 1 16.1538 46.9123 22.6711
108 1 15.5376 47.466 22.0255
107 1 16.5071 47.6149 21.9994
191 1 45.8137 29.8206 23.6429
186 1 44.6951 30.4422 23.5407
196 1 45.5338 31.2461 23.7302
194 1 46.39 30.6868 24.2019
192 1 46.5635 30.1845 23.1477
193 1 46.8611 31.0048 23.3958
205 1 44.4116 31.4686 22.9226
181 1 45.1848 32.239 23.6762
195 1 46.2449 31.7927 23.8844
375 1 40.3027 39.6053 23.4301
378 1 39.6052 41.3212 23.6311
376 1 40.196 40.2836 24.0901
379 1 40.3284 40.9477 23.1028
373 1 41.227 40.8989 23.5597
374 1 40.951 40.1917 22.9371
372 1 40.5917 41.4316 24.0935
361 1 41.4283 42.287 23.6979
117 1 14.3545 46.9249 23.9843
101 1 15.3607 46.5182 23.8276
105 1 16.4169 46.4933 23.4711
119 1 14.3336 48.1091 23.6001
120 1 15.265 47.9973 23.3776
116 1 14.5865 47.1789 23.1275
102 1 15.9517 47.3445 23.857
103 1 16.8119 47.3564 24.2022
104 1 16.9785 47.1836 23.2495
41 1 34.6746 18.4231 25.3257
47 1 34.5625 17.2811 25.6442
54 1 36.1542 18.4301 25.3311
57 1 37.9295 18.7693 25.637
197 1 44.7705 31.1162 24.2956
200 1 45.6216 30.9284 25.0486
198 1 45.5141 31.8287 24.6275
199 1 46.4443 31.5989 25.0404
377 1 39.4073 40.7564 24.5246
368 1 41.1848 40.8114 25.4242
364 1 40.1396 41.3439 25.407
363 1 40.1035 42.3115 24.9171
370 1 40.7332 42.4809 25.6969
371 1 40.9679 41.7554 24.9686
362 1 40.8762 42.6986 24.3589
162 1 4.83391 45.2711 25.5641
118 1 14.9108 47.7074 24.3543
420 1 35.4518 10.7729 27.0499
419 1 35.0156 11.531 26.6723
410 1 36.4372 12.4702 26.4773
409 1 35.6925 12.9031 26.9642
408 1 34.7101 13.1649 27.1226
46 1 33.9368 16.8331 26.3819
44 1 33.3225 18.0505 26.1751
45 1 33.6822 17.4827 27.0354
51 1 34.5552 18.4476 26.5653
52 1 35.4425 18.512 26.969
48 1 35.0097 17.3795 26.5804
55 1 36.4265 18.2581 26.3095
56 1 37.351 18.0025 25.8141
43 1 33.7193 18.9288 25.7969
53 1 35.4864 18.6677 26.0021
42 1 34.566 19.2129 25.8655
58 1 38.4787 18.8296 26.3208
59 1 37.5765 18.5928 26.7351
366 1 39.7717 40.0808 25.9413
367 1 40.7442 40.2249 25.9598
365 1 40.0696 40.8351 26.456
248 1 3.61044 42.3078 26.9182
369 1 41.0103 41.6131 26.0373
250 1 3.42998 43.9502 26.9247
249 1 3.74668 43.1037 26.3692
251 1 4.44771 43.9882 27.0008
241 1 2.71505 45.386 26.6911
253 1 5.26536 44.463 26.6387
161 1 5.59849 45.3047 26.1842
254 1 4.51452 44.9676 26.7541
164 1 3.98639 45.7977 26.5818
163 1 4.80909 46.168 26.0044
417 1 34.7548 11.1631 27.8027
416 1 35.4847 10.8192 28.3207
415 1 36.4287 10.9399 28.1908
418 1 35.0301 12.1498 27.4859
411 1 36.912 11.8463 27.3662
414 1 36.844 11.8801 28.4152
412 1 36.5498 12.6874 27.7226
413 1 36.0031 11.9552 27.7925
407 1 35.4302 13.4948 27.8724
401 1 35.0505 15.4392 27.8012
49 1 35.3689 17.5559 27.4759
50 1 34.5048 18.0045 27.3983
60 1 36.7519 18.8646 27.2091
381 1 37.4359 32.7536 28.1937
382 1 38.0097 33.5061 28.5216
267 1 34.0285 35.6543 28.3847
270 1 34.6931 34.4257 28.1175
269 1 35.0088 35.2831 28.2479
265 1 34.4054 36.8059 27.9529
264 1 35.2481 36.9972 28.2262
262 1 35.811 36.7035 27.4597
263 1 36.2983 36.9745 28.2536
261 1 35.4071 37.3998 27.1943
71 1 13.4826 41.3042 27.7564
247 1 4.44677 42.7823 27.2711
74 1 10.9918 42.6731 27.7934
72 1 12.6106 41.8252 27.687
73 1 11.8777 42.507 27.3869
70 1 14.0163 42.1408 27.7027
69 1 14.1287 41.6289 28.4148
67 1 12.9432 42.3674 28.5501
246 1 3.6462 43.2129 27.6748
245 1 3.30032 44.085 27.9819
252 1 4.99375 43.8719 27.4393
258 1 5.13308 43.9399 28.4531
76 1 11.8901 43.0178 28.2851
242 1 2.07775 45.6679 27.4389
244 1 3.48343 44.8684 27.2716
243 1 2.95703 45.3793 27.8431
257 1 4.51677 44.7275 28.036
256 1 5.31822 45.0465 27.5981
166 1 3.90701 45.8179 27.7624
167 1 4.20251 46.7544 28.049
165 1 3.40746 46.4369 27.2151
255 1 5.02249 45.8539 27.2097
171 1 5.41225 47.1351 28.1657
172 1 5.81918 46.2888 28.2224
18 1 6.48799 10.9265 29.2613
20 1 7.69704 10.7271 29.4912
17 1 7.39693 11.2733 28.6129
16 1 8.36975 11.6279 28.5998
8 1 7.31176 11.7727 29.7142
15 1 8.03462 12.3989 29.1873
476 1 34.129 12.4076 28.7374
474 1 33.099 12.176 29.3236
475 1 33.9513 11.6376 29.4283
461 1 34.6241 12.3025 29.9164
13 1 7.44144 13.8258 29.0909
14 1 7.15572 12.8807 29.2272
472 1 32.5701 13.342 29.6719
478 1 33.3734 13.876 29.2285
477 1 33.9257 13.106 29.4425
406 1 34.762 13.2926 28.6436
405 1 35.2739 14.0234 28.9759
479 1 33.5542 14.7197 29.3231
480 1 34.0187 15.5022 29.0769
402 1 34.7141 14.8279 28.5924
404 1 35.4235 14.694 29.8052
403 1 34.6154 14.6712 29.5346
387 1 35.5787 32.8236 29.9785
388 1 35.5143 33.6416 29.4818
271 1 34.4752 34.2293 28.9691
386 1 36.4942 33.36 29.7419
384 1 38.2924 33.4814 29.5313
385 1 37.3948 32.9685 29.2837
383 1 38.9203 33.5222 28.8475
272 1 34.1215 35.1625 29.3602
279 1 35.0683 35.1535 29.7186
392 1 36.038 34.576 29.4584
266 1 33.8151 36.4178 28.7595
273 1 33.4666 35.7301 29.494
274 1 34.1991 36.4065 29.7476
268 1 34.8764 35.9448 28.8021
398 1 35.1377 37.0777 29.4008
280 1 35.6811 35.907 29.4318
400 1 35.256 38.4664 29.6
61 1 13.5253 40.5037 29.9958
78 1 11.6761 42.2079 29.2572
66 1 13.0889 42.3191 29.5114
68 1 13.8999 42.5961 28.6999
65 1 13.9072 42.5926 29.7793
260 1 3.54925 43.7312 28.866
259 1 4.42766 43.372 28.6767
75 1 11.1619 42.9406 28.7283
77 1 12.1592 43.0908 29.1586
180 1 4.04343 45.0098 28.79
178 1 4.82033 45.6427 29.6094
179 1 5.04704 44.8225 29.0012
176 1 3.51058 47.0274 29.6373
177 1 3.9768 46.1249 29.3859
173 1 4.85748 46.1891 28.6004
174 1 5.18702 46.7313 29.3172
168 1 4.29938 47.1908 28.8791
169 1 5.02012 47.8369 29.099
170 1 5.952 47.7447 28.7645
19 1 6.8469 10.6485 30.1762
3 1 7.35626 11.3845 31.1834
9 1 6.6817 12.0553 30.4414
7 1 8.16091 11.7908 30.1175
6 1 8.31319 12.5476 30.8803
5 1 8.98281 12.2529 31.3656
473 1 32.6291 12.4974 30.2123
462 1 33.6915 12.3934 30.2708
465 1 34.9916 12.4334 31.3278
466 1 35.9071 12.4286 31.0238
11 1 6.38285 13.3602 30.1245
10 1 7.20836 12.9786 30.4297
12 1 7.17477 13.9635 30.0026
471 1 33.3286 13.375 30.2035
470 1 33.9607 14.0581 30.1685
463 1 33.4075 12.93 31.0976
469 1 34.9679 13.7906 30.038
468 1 35.4172 13.4176 30.8294
467 1 36.4498 13.1361 30.7322
389 1 34.7467 34.0661 30.1528
390 1 35.0358 33.3628 30.6776
391 1 35.697 34.2402 30.4053
277 1 34.0124 34.8024 30.9777
276 1 34.0792 35.6777 31.3109
395 1 35.393 35.3201 30.7694
278 1 34.3429 35.4121 30.3095
393 1 36.4772 35.37 30.0042
394 1 36.2624 34.9861 30.9026
275 1 34.1714 36.336 30.7021
397 1 35.2435 36.5041 30.2404
396 1 35.9967 36.1551 30.7326
399 1 34.6185 37.8062 30.0377
62 1 12.891 41.1683 30.4385
80 1 11.1494 42.3607 30.2478
79 1 12.0372 42.2129 30.164
64 1 13.3241 42.2645 30.5598
63 1 13.7361 41.5593 30.015
175 1 4.46961 46.7128 30.1247
2 1 6.64904 11.8444 31.6355
1 1 7.5428 12.3928 31.7323
4 1 8.26959 11.6407 31.6201
464 1 34.0027 12.2035 31.4795
339 1 25.9377 32.0886 35.4662
330 1 27.9952 31.61 35.6685
332 1 27.187 32.2045 35.6251
323 1 25.2433 34.1601 35.5314
321 1 25.6957 33.233 35.0805
325 1 25.5803 34.1559 34.4929
327 1 26.8582 33.2802 35.0103
326 1 26.5165 33.9667 34.3218
328 1 27.7828 33.0166 34.9154
324 1 26.0986 34.5383 35.2775
338 1 25.3958 32.488 36.2673
333 1 26.548 32.6601 36.2566
340 1 26.3101 31.5886 36.359
331 1 27.284 31.8296 36.4985
329 1 28.3458 32.5712 35.7184
336 1 25.0108 33.7461 36.7967
337 1 24.9274 33.2074 35.9997
335 1 25.7947 33.2343 36.9603
322 1 26.2327 33.6994 35.855
132 1 24.0372 30.2193 37.9452
500 1 23.0215 31.1905 38.5441
499 1 23.8192 31.1875 38.0844
131 1 24.8389 30.921 38.3514
130 1 25.6779 30.3616 38.3459
497 1 22.7946 32.3406 38.0807
495 1 24.0618 32.8517 37.8472
498 1 23.262 31.6401 37.4214
334 1 26.2704 32.4709 37.1604
496 1 23.1955 33.2014 37.6869
121 1 22.4713 28.7327 39.127
133 1 23.7981 29.6732 38.7057
122 1 23.0787 29.2893 39.6287
123 1 23.972 29.5359 39.6951
129 1 25.0712 29.8413 39.0899
136 1 22.4832 30.2693 39.0294
137 1 22.3125 30.7556 39.967
134 1 24.1574 30.4578 39.0337
135 1 23.3569 30.3456 39.5582
490 1 24.252 31.0593 39.8852
489 1 24.9497 31.3692 39.414
493 1 23.2459 32.5278 39.2609
494 1 23.7091 32.0884 38.5966
492 1 22.8859 31.6424 39.7474
488 1 24.6369 32.2973 39.1253
487 1 25.1652 32.4619 39.8576
482 1 24.6396 33.2168 38.7042
481 1 25.5988 33.1811 39.1176
483 1 24.5106 33.3847 39.5788
124 1 24.164 29.0784 40.5117
139 1 23.3173 29.7975 40.8475
125 1 24.3542 29.7122 41.2333
128 1 25.0539 29.42 40.0749
138 1 22.5078 30.3517 40.8072
140 1 23.6798 30.4944 41.3759
491 1 23.4557 31.1819 40.4436
126 1 24.4176 30.2086 40.443
127 1 25.2658 30.474 40.3265
485 1 23.1146 32.4539 40.4137
486 1 24.135 32.0912 40.1324
484 1 23.6857 33.2172 40.1253
148 1 52.9043 14.1614 43.5438
146 1 51.6713 15.059 44.0054
150 1 52.925 15.3108 43.4154
149 1 53.4723 14.5856 42.8924
151 1 52.8224 15.7432 44.1846
144 1 52.0533 13.9891 44.9649
159 1 54.5071 14.0957 44.522
143 1 52.7888 14.3829 45.2429
145 1 51.8955 15.0111 45.0589
147 1 52.4672 14.5858 44.3097
157 1 53.4889 15.3585 44.9235
160 1 53.5906 14.5185 44.3611
142 1 53.6684 14.4191 45.4541
158 1 54.3795 14.9448 44.9392
152 1 52.6656 16.1648 45.1018
448 1 44.8731 31.1276 45.3336
449 1 45.8641 31.0505 45.3834
460 1 45.7991 32.4985 45.0501
141 1 53.4948 13.9974 46.3468
155 1 52.7639 15.188 45.9853
154 1 52.4954 16.1532 46.1148
156 1 53.4837 15.7299 45.7804
153 1 53.1218 16.7751 45.8049
447 1 44.107 30.8442 45.7862
445 1 45.4731 30.4412 46.9232
446 1 44.8806 30.597 46.2771
451 1 46.5287 30.8622 46.7872
456 1 45.1564 31.4927 46.7473
457 1 45.1681 32.5037 46.6091
458 1 45.3544 31.9951 45.7927
450 1 46.383 31.4443 46.1523
459 1 46.1129 32.6725 45.9334
444 1 44.8328 29.9414 47.4553
443 1 45.6492 30.1604 47.9122
441 1 46.776 30.5327 48.4893
452 1 46.1081 31.1855 47.7351
454 1 45.5224 32.1513 47.6871
455 1 44.9301 31.45 47.8699
453 1 45.6385 31.7209 48.5161
29 1 35.1732 15.3983 49.1266
37 1 36.1203 14.9609 49.9016
30 1 34.2703 15.7176 49.5342
28 1 35.3744 16.2797 49.6141
36 1 36.2662 15.7574 49.5445
442 1 45.834 30.6273 48.8045
40 1 34.8471 13.5948 50.9517
38 1 35.5971 14.2477 50.4184
39 1 34.819 14.0126 50.0094
31 1 34.0269 15.7018 50.5713
32 1 34.132 14.7244 50.338
33 1 34.7492 14.9717 51.0286
34 1 35.0497 15.4043 50.2344
23 1 31.3073 16.932 51.3532
22 1 31.3283 16.7743 50.4035
21 1 32.0101 16.2206 50.9353
26 1 33.7569 16.8171 50.6505
25 1 33.0604 16.8153 51.3665
27 1 34.6441 16.4802 50.0943
35 1 35.9166 15.8744 50.4635
24 1 32.2154 17.2453 51.5362
ITEM: TIMESTEP
5000
ITEM: NUMBER OF ATOMS
500
ITEM: BOX BOUNDS pp pp pp
0.0000000000000000e+00 6.0000000000000000e+01
0.0000000000000000e+00 6.0000000000000000e+01
0.0000000000000000e+00 6.0000000000000000e+01
ITEM: ATOMS id type x y z
424 1 28.6853 55.9416 3.42848
423 1 28.0385 55.2965 3.27302
422 1 27.7946 55.608 2.42379
429 1 27.3126 55.1455 1.53964
421 1 28.055 56.5122 2.64669
425 1 29.4526 55.5048 2.95036
428 1 27.6744 54.6463 2.38978
427 1 28.6419 54.6457 2.50836
430 1 27.7126 54.4951 0.875227
431 1 28.4163 55.0171 1.44551
440 1 26.6051 57.4249 59.4521
426 1 28.7924 55.5935 2.20617
433 1 29.7596 55.9731 0.762734
434 1 29.2004 56.802 0.930015
432 1 29.3035 55.0615 1.15555
439 1 26.4348 56.9194 0.189656
438 1 27.428 56.5828 0.402394
437 1 26.797 55.8359 0.686275
435 1 28.727 56.0127 0.767776
436 1 27.8774 55.4951 0.569213
298 1 48.3824 41.0806 19.0266
297 1 47.6336 40.7885 19.5453
289 1 48.314 39.9343 19.7598
288 1 47.3563 39.7066 19.9615
287 1 47.2306 39.6262 18.9949
299 1 49.318 40.9528 18.4735
295 1 46.7706 40.6553 18.8918
293 1 47.6832 41.6454 17.6353
296 1 47.0684 41.5013 19.3625
286 1 47.1202 39.8736 18.1171
231 1 17.0445 17.1215 18.3172
230 1 17.3228 17.1964 19.2412
359 1 11.602 32.8905 19.9981
360 1 12.0421 32.81 21.0158
357 1 10.78 32.3113 19.7922
358 1 11.5743 32.0274 20.5443
355 1 11.7934 31.2489 19.8757
356 1 11.0234 31.3785 19.3846
341 1 12.3119 31.2341 22.6463
300 1 49.4414 40.7283 17.5852
282 1 46.8681 39.5165 16.6769
291 1 48.3343 40.3942 17.8682
292 1 48.6004 41.3008 17.8196
290 1 48.21 39.986 18.7734
294 1 47.5334 41.1428 18.46
283 1 47.2958 40.3479 17.0231
281 1 46.3896 39.4194 17.4301
284 1 46.3113 40.4302 16.8079
285 1 46.6041 40.6266 17.811
87 1 28.5603 41.7552 20.3342
90 1 29.1452 42.5302 21.2871
91 1 29.4059 43.4313 20.9422
92 1 29.9056 42.9747 21.8098
93 1 30.4741 43.0116 21.0562
89 1 28.6711 43.1943 21.7762
302 1 6.58998 50.0121 20.6653
317 1 5.32847 48.4738 21.1071
301 1 6.43538 50.8089 20.2092
311 1 5.19025 50.7668 20.0164
305 1 5.84832 49.1118 23.0857
304 1 5.85534 48.8772 22.1016
303 1 6.22998 49.2016 21.2288
308 1 6.22959 50.3865 21.7817
310 1 5.47639 50.6601 20.9993
306 1 6.08899 50.0344 22.8787
307 1 6.70714 49.6927 22.0636
309 1 6.11151 51.2667 21.4738
228 1 18.3369 17.5673 19.3959
232 1 17.7742 17.7694 18.0992
233 1 18.6196 17.2738 17.9291
227 1 18.7503 16.9667 19.9938
225 1 19.519 17.6937 18.6356
224 1 18.7625 18.256 18.6746
229 1 17.5765 17.7414 20.1483
216 1 44.8448 32.7835 22.4976
218 1 46.0818 31.4421 22.4167
217 1 45.5751 32.189 21.8905
214 1 45.6114 32.8546 23.7847
212 1 45.2002 31.8221 23.5681
215 1 44.6962 32.859 23.5257
345 1 10.848 31.0295 21.9136
349 1 12.211 30.6391 21.6197
348 1 11.5011 30.3582 21.0643
201 1 46.9788 32.4369 23.9375
213 1 45.8572 32.2461 23.0035
343 1 10.9385 32.4455 21.9447
344 1 10.6791 31.798 22.5773
346 1 11.4707 31.4221 21.3105
354 1 12.1546 31.0105 20.5949
353 1 12.4995 31.8081 20.8913
352 1 13.1961 31.7322 20.2483
203 1 46.8799 30.7776 23.0094
342 1 11.8819 32.0833 22.0969
86 1 29.0401 40.8828 20.5016
85 1 29.7342 41.4664 20.2336
95 1 30.3623 42.3841 19.5666
88 1 28.1677 42.4054 21.0288
100 1 30.6232 39.6748 22.2962
97 1 30.1478 41.9975 21.1754
96 1 30.8272 42.1743 20.388
94 1 29.8625 42.7213 20.3225
98 1 30.1385 41.4874 22.1386
318 1 5.82858 48.7157 20.2806
110 1 15.224 47.1352 22.1783
109 1 14.8446 47.9184 21.9447
320 1 5.26633 49.5203 19.5047
319 1 5.43612 49.5692 20.4863
316 1 4.75333 49.1543 21.3526
315 1 5.42135 49.7597 21.5225
313 1 4.15244 49.9928 21.4993
312 1 4.57886 50.2833 20.6346
314 1 4.81358 49.7457 22.2864
234 1 19.2498 17.0793 17.2588
235 1 18.6287 16.1537 17.4068
226 1 19.3463 17.5516 19.5575
221 1 19.7392 18.6533 18.196
222 1 19.722 18.4804 19.2113
223 1 18.8968 18.8648 19.4674
239 1 16.7503 16.078 17.1529
237 1 17.7531 15.9142 16.9491
236 1 17.7503 16.5562 17.7265
240 1 16.8061 17.0697 17.1236
238 1 17.0933 15.1255 17.0257
220 1 45.0678 30.8512 23.0988
219 1 45.8961 30.5159 22.6853
209 1 46.6051 32.0973 25.013
211 1 46.0191 31.3 23.4702
188 1 45.8677 30.2818 23.7855
210 1 46.0384 31.8894 24.3997
190 1 44.9419 29.9508 22.289
347 1 11.0179 30.9602 20.5938
350 1 13.0713 31.2418 21.6374
207 1 47.2314 31.3571 25.4938
208 1 46.338 31.673 25.7805
206 1 47.6263 31.7036 24.6882
202 1 46.9158 31.8205 23.0833
189 1 45.1378 29.8779 23.2794
187 1 46.2872 30.1101 24.6655
185 1 46.5199 29.6624 23.4073
184 1 47.2786 29.8257 22.7671
351 1 13.6808 31.5937 21.0213
204 1 47.55 31.1853 23.5307
182 1 48.4117 28.1992 22.4842
183 1 48.0118 29.1519 22.7036
83 1 31.3195 40.5385 20.7488
380 1 39.1284 43.6864 25.2308
84 1 30.4276 40.8637 20.6509
81 1 30.7869 40.5693 21.6145
82 1 31.2235 41.4367 21.2536
99 1 29.9064 40.4505 22.1382
114 1 14.6565 45.946 20.7428
115 1 15.3426 46.7664 21.0391
113 1 13.9744 46.6951 20.8886
112 1 13.5949 46.1555 21.6698
111 1 14.4762 46.5291 21.7772
106 1 13.4828 47.0795 19.9725
108 1 14.6055 47.4476 21.1704
107 1 13.7334 47.7382 20.7439
191 1 45.7165 29.338 22.5186
186 1 47.0575 30.1782 24.0004
196 1 47.8105 29.5061 23.962
194 1 47.4002 28.2502 22.7628
192 1 46.6422 28.9754 22.5427
193 1 46.352 27.9842 22.4371
205 1 46.9535 31.1425 24.4999
181 1 47.7207 28.0038 21.8075
195 1 47.4971 28.7363 23.5292
375 1 39.7477 42.0211 23.2139
378 1 39.5582 44.3094 24.5046
376 1 39.7898 42.9537 23.1771
379 1 39.9668 44.0946 25.381
373 1 40.3792 43.1585 25.0334
374 1 40.0814 42.5742 24.1279
372 1 40.7951 42.5829 25.8029
361 1 38.9904 42.0065 27.3118
117 1 15.3894 48.1015 20.3
101 1 14.9185 45.711 19.594
105 1 14.042 46.3458 19.7864
119 1 15.3326 47.4687 19.2942
120 1 14.7603 48.3717 19.436
116 1 15.652 47.826 21.2288
102 1 15.3339 46.5465 20.0232
103 1 14.7789 46.61 19.1525
104 1 14.0349 47.1519 19.0061
41 1 39.1049 18.8009 26.9871
47 1 37.4715 19.7363 27.5989
54 1 36.4754 19.3651 26.8076
57 1 36.9629 17.8685 27.6956
197 1 47.3887 29.6283 24.8985
200 1 45.762 28.9269 23.4786
198 1 47.3237 28.6784 24.5579
199 1 46.4193 28.9181 24.1929
377 1 40.1602 43.59 23.9256
368 1 38.9681 42.8714 24.1414
364 1 38.5256 43.3237 26.0872
363 1 38.2244 43.416 27.148
370 1 39.8472 42.1264 25.2199
371 1 39.8955 42.4421 26.1385
362 1 39.1214 42.9229 27.1055
162 1 3.59354 45.7503 25.0506
118 1 14.7839 47.4335 20.119
420 1 32.5677 12.2137 28.8803
419 1 32.1985 12.2467 28.0138
410 1 34.301 10.9447 27.2896
409 1 34.0776 11.963 27.4912
408 1 33.5276 12.0814 28.3734
46 1 37.2869 18.8519 27.993
44 1 38.1145 18.3165 27.2121
45 1 37.3026 18.6845 27.1264
51 1 37.7886 18.5111 25.5107
52 1 37.1131 18.1304 26.182
48 1 37.8201 20.075 26.6007
55 1 36.3221 19.4889 27.7173
56 1 36.2951 18.528 27.5398
43 1 38.6751 18.0193 26.4282
53 1 36.2697 18.4707 26.5818
42 1 39.7224 18.179 26.43
58 1 36.3159 17.4582 27.0608
59 1 36.8056 16.9199 26.4456
366 1 38.9188 42.073 25.6838
367 1 38.4882 42.6821 25.0263
365 1 38.1658 42.3031 26.3185
248 1 4.14061 43.2057 27.4484
369 1 39.1409 41.9156 24.6082
250 1 4.46088 44.6125 27.9831
249 1 3.7308 44.1669 27.516
251 1 5.09016 45.1743 27.3306
241 1 2.93305 44.271 24.6166
253 1 4.51014 44.3196 26.8799
161 1 3.80178 45.3015 24.0986
254 1 3.93622 44.6524 26.2133
164 1 2.10244 45.3449 25.345
163 1 3.08058 45.2948 25.6141
417 1 31.6059 11.4594 28.4747
416 1 31.758 10.7353 28.9369
415 1 31.3726 9.83693 28.4993
418 1 31.9092 11.4165 27.3513
411 1 33.3152 11.1127 27.4822
414 1 32.1333 10.1671 28.0959
412 1 32.7241 11.395 28.3604
413 1 32.8022 10.4021 28.8119
407 1 34.1822 11.8748 29.0502
401 1 35.4056 14.9337 29.0804
49 1 37.2353 19.512 26.0755
50 1 38.2289 19.163 26.1505
60 1 37.601 17.0604 26.1069
381 1 36.9792 34.4935 31.3443
382 1 37.5825 34.0381 30.7909
267 1 36.9017 34.1992 28.8501
270 1 37.2803 33.3381 29.425
269 1 37.154 32.981 28.4451
265 1 35.4207 34.1482 29.6097
264 1 35.8112 35.0794 29.9402
262 1 36.7547 34.5139 29.933
263 1 36.1073 34.46 30.5163
261 1 37.1944 35.2227 29.3591
71 1 12.2539 44.9028 29.7347
247 1 3.24775 42.8229 27.7896
74 1 11.6566 44.3254 30.8575
72 1 12.6297 43.9441 29.9247
73 1 11.826 43.3651 30.3745
70 1 12.2639 45.5798 30.3443
69 1 13.118 44.9164 30.307
67 1 14.4135 44.6612 30.4245
246 1 2.75152 43.4991 27.3866
245 1 2.72321 42.7737 26.692
252 1 5.36291 44.673 26.5713
258 1 2.70126 44.1095 28.5101
76 1 13.6518 43.6971 31.1566
242 1 2.54451 44.1133 25.593
244 1 1.59176 42.8157 26.7552
243 1 2.13843 43.5844 26.4938
257 1 2.71176 44.5402 27.6086
256 1 2.69482 44.891 26.6121
166 1 1.97643 46.8519 24.9875
167 1 2.7659 46.3202 25.2604
165 1 1.8594 45.9618 24.6815
255 1 3.15251 44.0831 26.683
171 1 4.00032 45.7436 26.3193
172 1 3.68263 45.388 27.1033
18 1 3.14554 13.6186 32.0351
20 1 3.99137 14.8074 31.838
17 1 2.58196 12.8705 32.2118
16 1 3.36532 12.4185 31.5536
8 1 4.76053 13.8906 32.04
15 1 3.92014 11.9795 32.293
476 1 32.92 13.0829 29.6251
474 1 33.2579 11.2736 29.3787
475 1 33.3664 12.2069 29.7266
461 1 35.4934 11.693 30.8561
13 1 5.27385 12.5804 31.5858
14 1 4.76611 11.8233 32.0182
472 1 32.3338 12.1477 29.9356
478 1 33.8559 14.1548 28.6186
477 1 33.8924 13.2806 29.2021
406 1 34.6464 11.1809 28.3991
405 1 34.7094 11.1665 29.5679
479 1 32.9473 13.623 28.6714
480 1 33.6356 13.2324 28.1031
402 1 34.8574 14.0607 29.0846
404 1 35.1136 12.0763 29.3388
403 1 34.8683 13.0463 29.0677
387 1 36.966 34.4889 32.8362
388 1 36.0235 34.7764 33.0794
271 1 36.3604 33.1082 28.9564
386 1 37.1458 34.8148 33.7172
384 1 38.2211 34.8669 32.1974
385 1 37.8543 35.0337 33.0214
383 1 38.2345 34.5962 31.3133
272 1 35.9483 33.5876 28.1564
279 1 36.3961 33.4344 30.9628
392 1 37.0284 35.4727 32.0109
266 1 35.9972 34.5178 28.9628
273 1 35.5435 32.992 27.4562
274 1 35.5876 32.5919 28.3655
268 1 37.0223 33.8914 27.9142
398 1 37.9849 35.7223 30.9036
280 1 35.5478 32.9394 31.2173
400 1 38.41 34.4921 30.1767
61 1 13.0224 42.1034 30.8305
78 1 13.7056 43.5412 32.7587
66 1 13.8191 44.0649 30.1558
68 1 13.7537 44.8347 31.0966
65 1 14.7458 43.6629 30.0884
260 1 2.80045 43.0501 29.1625
259 1 2.35631 43.2202 28.3539
75 1 12.6035 43.7668 30.962
77 1 13.1774 43.1371 31.9133
180 1 0.890249 43.2565 27.6814
178 1 1.57471 44.4564 26.2506
179 1 1.1337 43.8045 26.8749
176 1 1.71466 44.0843 27.9417
177 1 1.79587 44.6131 27.1364
173 1 2.93205 45.953 27.2448
174 1 2.25959 45.4255 27.8333
168 1 2.32534 46.7066 26.0266
169 1 2.19247 45.8559 26.3339
170 1 3.10512 46.2505 26.2968
19 1 3.54476 14.0637 31.3645
3 1 4.19952 13.1706 33.7146
9 1 4.12484 13.0722 31.7909
7 1 3.99261 13.6362 32.7572
6 1 3.60301 14.4048 32.9044
5 1 2.9987 14.7679 33.639
473 1 32.4488 11.1159 29.6718
462 1 34.8895 12.4099 31.371
465 1 35.8479 13.6562 30.2177
466 1 34.9262 13.6642 30.107
11 1 4.10923 12.7223 30.6124
10 1 4.47705 13.6218 30.9444
12 1 4.79684 11.9828 30.9938
471 1 32.358 12.8392 30.5435
470 1 33.0497 13.5122 30.6646
463 1 35.4408 12.7092 30.6494
469 1 33.4594 12.7214 30.9947
468 1 34.1887 12.027 30.5879
467 1 34.5007 12.9132 30.1191
389 1 35.7945 35.5587 32.574
390 1 35.3522 35.2723 31.7688
391 1 36.2609 35.5419 31.4075
277 1 35.1141 33.1089 30.1212
276 1 35.262 32.5368 29.4766
395 1 38.9749 36.3205 32.0019
278 1 36.1526 33.4529 30.0521
393 1 37.9418 35.9717 32.2989
394 1 38.8924 35.7595 32.75
275 1 35.0913 33.2944 28.9052
397 1 38.226 36.6039 30.6398
396 1 38.8458 36.0685 31.2176
399 1 38.1493 35.3728 30.0349
62 1 12.9815 42.9431 30.2362
80 1 14.4068 44.6192 31.7838
79 1 13.6684 44.4192 32.4533
64 1 14.0745 43.0741 30.1022
63 1 13.4136 43.0669 29.2525
175 1 1.40424 45.1506 28.2334
2 1 4.30171 13.8451 34.4858
1 1 4.55855 14.6082 34.002
4 1 3.47861 13.87 33.7735
464 1 36.3414 13.1146 30.7517
339 1 25.3281 33.961 36.2612
330 1 23.5396 33.9206 36.6602
332 1 24.0557 34.6714 37.3099
323 1 23.892 31.9306 37.2845
321 1 23.9163 30.781 37.6538
325 1 23.4982 32.1246 38.2757
327 1 23.5371 33.1403 38.5285
326 1 24.3464 32.5324 38.569
328 1 23.3671 33.6769 37.7245
324 1 23.2159 31.48 37.7314
338 1 24.8984 33.18 36.5056
333 1 24.5971 33.8603 37.2468
340 1 25.7222 34.4008 37.0545
331 1 24.2902 34.3969 36.3147
329 1 22.9071 33.2027 36.9724
336 1 24.5151 32.2462 36.6185
337 1 24.0168 33.0524 36.9798
335 1 24.8787 32.5251 37.5672
322 1 24.3946 31.3135 36.9865
132 1 25.26 28.6874 37.1028
500 1 24.9858 30.069 35.5488
499 1 24.8734 30.0441 36.4735
131 1 26.0853 28.1113 36.8058
130 1 25.8676 27.8526 37.7779
497 1 25.2756 31.0385 37.6761
495 1 24.6645 30.183 39.3722
498 1 25.2649 30.1296 37.4895
334 1 24.443 33.3964 38.0214
496 1 24.719 30.641 38.4518
121 1 22.6013 29.6949 38.5963
133 1 24.4488 27.9763 37.1473
122 1 22.2832 28.9305 38.7075
123 1 22.7865 28.0527 38.4339
129 1 25.1763 28.5884 38.2064
136 1 24.4029 29.3543 37.4671
137 1 23.443 29.0614 37.8348
134 1 24.8129 28.2357 36.2906
135 1 24.1777 28.956 36.5778
490 1 24.1783 28.4355 39.7975
489 1 25.0901 28.467 39.5362
493 1 23.8789 29.8603 38.3298
494 1 24.7346 29.392 38.8624
492 1 23.5482 30.2422 39.1074
488 1 25.7202 29.2029 39.4024
487 1 25.7667 28.7978 40.2478
482 1 25.427 30.9869 39.3936
481 1 25.6046 31.4064 38.5405
483 1 24.3976 31.2109 39.2308
124 1 23.6621 28.0896 37.9228
139 1 23.1662 28.119 39.4368
125 1 24.2104 27.2898 38.2163
128 1 24.3542 28.3074 38.7202
138 1 23.439 28.8215 38.7136
140 1 22.4795 28.7488 40.0253
491 1 23.7123 29.2657 39.5986
126 1 25.1435 27.0696 38.0067
127 1 24.9985 27.5443 38.8775
485 1 24.3347 30.1596 40.4503
486 1 24.8411 29.2431 40.1422
484 1 23.7145 30.9234 40.116
148 1 55.0498 14.9322 46.4257
146 1 56.2055 15.322 45.698
150 1 55.2649 15.8916 45.9034
149 1 54.3404 15.7044 46.3413
151 1 55.6064 15.8162 45.0145
144 1 55.94 14.3795 45.6703
159 1 53.6967 15.5977 45.4183
143 1 55.3435 13.6805 46.2575
145 1 56.6396 14.6911 45.1131
147 1 56.1577 14.987 46.5183
157 1 54.4104 15.0749 44.2926
160 1 52.8935 14.9152 45.7026
142 1 54.4514 14.1389 45.8452
158 1 53.4364 15.2462 44.676
152 1 55.6594 14.982 44.6607
448 1 47.8931 31.7974 46.4727
449 1 48.6989 32.4423 46.6864
460 1 50.8213 32.4719 47.5446
141 1 54.1009 14.3141 44.9868
155 1 55.1146 14.1559 44.9639
154 1 55.7378 13.724 44.3785
156 1 54.7948 15.0483 45.2947
153 1 55.2231 14.4668 43.8869
447 1 48.3205 32.228 45.6257
445 1 49.1797 31.7524 44.2946
446 1 48.5033 31.4712 45.099
451 1 50.2816 32.6695 46.2542
456 1 49.141 31.6445 47.1531
457 1 49.6149 30.8669 46.8206
458 1 50.2703 31.5336 47.0637
450 1 49.561 32.8603 46.8687
459 1 49.9523 32.0289 47.7812
444 1 48.4829 32.3952 44.5913
443 1 47.5472 32.3911 44.5605
441 1 48.3505 33.3178 43.5516
452 1 49.5271 31.9519 46.1692
454 1 48.8585 30.5217 45.7298
455 1 48.6176 31.1171 46.5413
453 1 49.6642 30.977 45.7585
29 1 35.3213 15.5169 50.4401
37 1 34.6253 16.4073 52.3391
30 1 35.8707 14.8095 50.9218
28 1 34.9724 15.4649 51.3203
36 1 33.9759 15.6704 52.3132
442 1 47.4044 33.0971 43.7245
40 1 35.9965 16.8101 52.2459
38 1 34.5663 15.9787 53.2123
39 1 35.4024 16.7739 53.0439
31 1 36.6628 15.6339 51.1192
32 1 35.8903 16.1406 51.4358
33 1 36.4831 15.7535 52.0964
34 1 35.5522 15.8865 52.3903
23 1 32.6824 14.2239 50.9723
22 1 32.0353 13.9534 50.3233
21 1 31.4459 14.7382 50.1924
26 1 34.2866 14.377 51.3785
25 1 33.7114 14.3403 50.6067
27 1 34.3206 15.1886 50.7659
35 1 34.9063 15.1358 52.4578
24 1 33.1759 13.3983 50.6482
ITEM: TIMESTEP
6000
ITEM: NUMBER OF ATOMS
500
ITEM: BOX BOUNDS pp pp pp
0.0000000000000000e+00 6.0000000000000000e+01
0.0000000000000000e+00 6.0000000000000000e+01
0.0000000000000000e+00 6.0000000000000000e+01
ITEM: ATOMS id type x y z
226 1 17.8355 14.836 13.891
225 1 18.7723 15.0631 13.4493
224 1 19.7305 15.536 13.7257
234 1 16.8226 15.3518 14.589
235 1 16.9701 15.1546 15.4998
227 1 17.9617 15.5971 14.4752
228 1 18.4624 14.8381 14.8462
229 1 18.0002 15.0504 15.6221
230 1 18.8476 15.6215 15.5695
223 1 19.0294 15.6477 14.5282
232 1 18.2017 16.3969 15.2468
233 1 17.2619 16.0229 15.1015
221 1 19.8777 16.0546 15.3634
222 1 19.2615 16.6196 14.8301
237 1 18.2405 15.5758 16.5513
238 1 18.9836 15.0925 16.8961
236 1 17.3414 15.7364 16.2664
231 1 18.6521 16.3959 16.0713
298 1 47.3858 39.5056 16.5209
296 1 47.44 40.759 16.6067
295 1 47.9919 41.5237 17.1248
111 1 14.1889 46.2737 16.8838
116 1 12.7988 47.1667 16.5069
117 1 13.7753 47.3955 16.727
239 1 18.505 15.16 17.7332
240 1 18.9552 15.7873 18.3259
299 1 46.9372 39.9589 17.1675
300 1 46.235 39.2238 17.5963
290 1 47.1694 39.3643 18.2288
291 1 46.4924 40.1784 18.3994
292 1 46.2461 41.0174 18.1378
286 1 48.2724 41.1016 18.0691
293 1 47.1819 40.9918 17.6344
289 1 47.6716 40.1603 18.3335
297 1 47.9444 40.0752 17.1664
294 1 47.01 41.8692 17.2724
284 1 47.4322 41.9492 18.5456
285 1 48.3511 42.0478 18.0981
112 1 14.3973 45.6979 17.7339
113 1 13.9045 46.4305 18.092
114 1 12.8783 46.4938 18.3315
115 1 12.9001 46.6352 17.3601
110 1 14.7307 46.8862 17.5857
119 1 12.842 47.9374 17.3518
120 1 12.5481 47.6161 18.2629
118 1 13.5622 47.4561 17.692
109 1 14.7484 47.7809 17.9747
357 1 12.9111 33.298 19.8335
287 1 48.1856 40.8973 19.0972
288 1 47.2825 40.9052 18.8355
283 1 46.6634 42.091 19.1857
282 1 47.2421 42.7381 19.6941
281 1 48.0881 42.4094 19.1902
101 1 13.4754 46.0891 19.0865
102 1 13.9203 46.7752 19.5805
105 1 13.4586 47.6875 19.7986
103 1 13.5676 47.2208 18.7703
104 1 13.2674 48.0691 18.8677
106 1 14.2498 47.9564 19.2924
107 1 15.1718 48.2588 19.0269
108 1 14.9638 47.3129 18.8646
352 1 10.9613 30.8159 21.2731
353 1 11.647 31.2414 20.6425
356 1 12.1728 32.6887 20.0956
354 1 12.609 31.5156 20.824
359 1 12.5671 32.4761 21.077
355 1 12.9944 32.1972 20.1433
358 1 12.74 33.3588 20.9037
87 1 25.0957 39.938 21.4052
88 1 25.7505 39.3211 21.2166
97 1 26.7157 39.7055 21.0553
99 1 26.2879 39.2441 20.1403
98 1 26.7656 38.5993 20.8599
100 1 27.3496 39.2018 20.215
81 1 27.8324 39.8707 20.9356
86 1 24.9248 41.0234 21.3671
83 1 26.2275 40.6945 20.7135
82 1 27.1924 40.8002 20.9314
84 1 26.08 41.4568 21.3397
318 1 4.74676 51.5936 21.4244
343 1 11.6922 29.9548 21.5157
182 1 47.4343 29.8173 22.8312
341 1 10.985 30.2926 22.5036
348 1 11.8223 31.1065 22.6613
344 1 12.0632 30.8178 21.5409
342 1 11.9556 30.1772 22.3616
181 1 46.7912 30.5803 22.5321
350 1 10.798 31.4645 22.1297
347 1 11.7109 32.0099 22.6084
346 1 12.6197 32.5012 22.4514
351 1 11.4725 31.889 21.6019
345 1 12.5301 31.6175 21.8593
360 1 11.8875 32.8919 21.6329
90 1 25.2373 39.7599 22.4207
89 1 26.0924 39.4825 21.9978
96 1 27.2204 39.6662 21.816
92 1 25.2361 40.872 22.5651
94 1 26.8104 40.9921 21.994
93 1 25.8846 40.5889 21.9486
95 1 27.6022 40.4326 21.7783
85 1 25.1776 41.9966 21.5432
303 1 4.64026 49.8769 22.4072
316 1 4.13567 50.6513 21.5482
305 1 3.37186 50.3826 22.1877
306 1 3.15006 51.2487 22.6696
320 1 5.64026 50.7931 22.5782
317 1 5.07124 50.7026 21.472
315 1 4.346 50.9823 22.3966
314 1 3.92153 51.8266 22.215
319 1 5.40065 51.6057 22.2394
312 1 4.76676 52.5975 22.4799
196 1 46.3012 29.7364 23.0926
197 1 45.8563 29.5445 23.9162
205 1 49.2717 29.7758 23.8073
206 1 49.0381 28.8979 24.0062
349 1 10.8325 31.1422 23.025
200 1 44.8399 31.3564 23.9272
199 1 44.6808 30.4445 23.6337
193 1 46.1865 30.7786 24.1379
194 1 45.9084 31.4023 23.4923
184 1 47.062 31.0075 23.6538
183 1 47.1334 30.2391 23.6543
195 1 45.8216 30.5094 23.1959
185 1 47.9803 31.0765 23.2948
204 1 49.8689 30.3709 23.8167
203 1 50.9014 30.5173 24.1207
186 1 48.7941 31.4416 23.9498
91 1 25.9398 40.0754 23.1033
164 1 1.89406 43.0199 23.8712
165 1 1.55922 43.8707 23.9602
168 1 0.652313 44.3214 24.1876
169 1 0.108488 45.2332 24.1581
171 1 1.66798 44.9789 24.178
304 1 3.82636 50.2034 23.0175
307 1 2.86343 51.0687 23.5438
308 1 3.96349 51.2099 23.545
302 1 4.77795 50.3512 23.399
301 1 5.15465 51.1947 23.5598
311 1 3.89657 52.6105 23.0785
309 1 4.22613 51.9997 24.0079
310 1 4.77125 52.7445 23.5451
313 1 4.59306 51.801 22.9403
210 1 48.5527 29.9238 25.2673
211 1 49.5446 29.8366 24.8216
207 1 49.5357 28.7842 24.7493
208 1 49.3106 29.1564 25.6223
201 1 50.5393 29.589 25.3195
202 1 50.8025 29.5384 24.3341
198 1 45.3412 30.2483 24.4273
192 1 46.985 30.6209 24.7589
188 1 48.078 31.1143 25.0743
187 1 48.4732 30.5744 24.3362
218 1 49.3841 31.1759 24.8135
212 1 49.5858 30.2247 25.5802
216 1 50.8472 31.3955 25.0548
217 1 50.1422 30.681 24.8404
190 1 47.0108 31.7014 24.5076
191 1 46.4835 31.4719 25.2748
189 1 47.8799 31.8388 24.3795
219 1 49.9193 31.9506 25.0913
220 1 48.9903 32.0161 25.3862
179 1 0.186516 42.3206 24.3988
180 1 0.917593 41.7097 24.7447
257 1 1.21919 42.4993 25.7099
161 1 2.6936 42.5799 24.8487
166 1 1.20769 43.4946 24.9209
178 1 0.185482 43.4596 24.3019
258 1 0.388654 42.9034 25.3635
163 1 2.2735 43.5814 24.6643
256 1 1.82337 43.1492 25.5997
242 1 2.90987 43.9739 25.5388
162 1 3.16164 43.2765 24.3201
368 1 36.4536 44.1901 25.3216
364 1 36.7359 43.1077 25.3751
363 1 35.7818 43.1706 25.3962
177 1 59.6788 43.7412 25.0401
167 1 1.02935 44.3874 25.1643
170 1 0.906819 45.5005 24.7197
172 1 2.13171 44.8945 25.1106
241 1 3.20101 44.5032 24.7635
370 1 38.3843 44.9181 25.4022
369 1 37.3365 44.4116 25.4327
374 1 39.4312 44.4912 25.6474
175 1 59.9791 44.6778 25.496
376 1 39.4356 45.8229 25.5752
41 1 37.2982 18.0627 26.8992
51 1 39.1146 18.4074 26.7724
50 1 39.2805 17.474 26.8294
56 1 39.3325 19.9011 26.7541
52 1 40.0826 18.7547 26.4873
54 1 40.9408 19.2827 26.8841
55 1 40.2349 19.7351 26.3369
58 1 39.4931 21.1624 27.0178
57 1 38.9065 20.7248 26.5825
209 1 48.8514 29.7579 26.2504
214 1 49.7954 31.1731 25.9558
213 1 48.8859 30.8345 26.0854
215 1 50.5651 30.6654 25.8228
362 1 36.1397 42.6055 26.2298
361 1 37.064 42.3187 26.2228
259 1 0.577259 43.7377 25.7702
260 1 0.858671 43.0925 26.5454
255 1 1.91138 44.0078 25.7697
246 1 1.83064 43.7451 26.757
243 1 2.96135 43.6346 26.4666
365 1 36.8551 43.4971 26.2642
372 1 38.4963 44.2495 26.3514
176 1 59.2226 44.2211 25.8001
249 1 1.10464 44.4487 26.4712
174 1 0.491093 45.4824 25.9122
250 1 0.341539 44.8507 26.939
173 1 1.40834 45.1706 25.7767
254 1 2.16704 44.6629 26.4151
253 1 1.79421 45.314 26.8383
244 1 3.26826 44.4794 26.6818
367 1 36.1224 44.4493 26.1392
366 1 36.9606 44.4122 26.5178
371 1 37.8693 44.9673 26.3441
373 1 39.0577 45.1226 26.3942
375 1 40.2115 45.2563 25.8237
380 1 42.1173 45.3523 25.9705
252 1 1.03672 45.835 26.685
251 1 0.24319 45.7455 27.1101
377 1 39.4489 46.0577 26.4705
379 1 41.2025 45.7937 26.1824
378 1 40.4026 46.2836 26.3917
412 1 31.5633 10.4057 28.4768
410 1 32.5572 11.4285 27.9829
411 1 31.5778 11.3891 28.0122
466 1 33.6829 11.3994 28.4864
409 1 32.1162 12.3191 28.0563
463 1 35.4545 11.6721 28.0772
464 1 34.7183 12.3282 28.2179
46 1 39.7485 17.0732 27.6742
42 1 37.939 18.3179 27.5818
48 1 38.3774 17.2933 28.3783
45 1 39.9058 18.0618 27.4414
49 1 38.8645 17.7298 27.6486
47 1 39.4446 17.4097 28.4787
43 1 38.758 18.7484 27.8272
44 1 39.6324 18.5972 28.2654
53 1 40.0091 19.1967 27.3452
59 1 40.3196 21.3748 27.4206
60 1 40.2628 20.3737 27.2144
248 1 1.21321 44.1809 27.4948
245 1 2.62272 43.7739 27.4036
247 1 1.52066 43.2479 27.5486
404 1 33.2801 9.83164 29.4499
414 1 30.5731 10.6242 29.5076
413 1 30.6457 10.779 28.5908
415 1 31.4437 11.2867 29.4782
406 1 32.3002 10.3044 29.1638
407 1 32.4191 11.2516 29.0794
405 1 33.2017 10.5423 28.6719
402 1 33.6475 10.7929 29.872
403 1 34.1578 10.1457 29.2005
461 1 34.4256 11.4082 29.5442
462 1 34.8274 11.1538 28.6181
419 1 29.9395 12.7057 29.5137
420 1 29.247 12.463 28.8691
417 1 30.5133 11.917 29.057
416 1 30.6827 11.7285 29.9273
408 1 32.0694 11.9391 28.9294
477 1 32.5343 12.7189 29.6265
478 1 33.2023 12.5232 28.8759
468 1 33.4452 12.455 29.861
467 1 33.3698 11.7268 29.3009
465 1 34.1921 12.2566 28.8879
418 1 30.6704 12.9113 29.0817
479 1 33.6382 13.3164 29.4633
474 1 31.5774 10.7546 30.5256
475 1 32.3459 11.0721 30.2046
401 1 33.1037 10.5114 30.6315
473 1 31.5531 11.5654 31.0869
476 1 32.3766 12.1983 30.5109
469 1 33.2711 11.7354 30.4758
470 1 33.4228 11.6701 31.4269
480 1 34.186 13.1822 30.3313
275 1 39.7213 31.3495 31.1666
263 1 36.6829 32.7229 31.3159
269 1 38.2417 32.6683 30.9154
274 1 39.639 32.3404 31.3725
276 1 38.7282 31.6388 31.1916
262 1 36.0483 33.0487 30.713
261 1 35.9778 33.6564 31.3834
265 1 38.2398 33.8277 30.9334
264 1 37.2184 33.3372 30.7967
268 1 39.0293 33.096 30.8006
267 1 39.2755 34.1427 31.0935
266 1 38.8023 34.0411 30.2107
399 1 40.2654 34.1122 30.949
391 1 36.9278 34.3429 31.0449
392 1 37.5835 34.453 30.2666
393 1 38.2921 34.9185 30.7813
395 1 39.2466 35.6076 31.2244
400 1 40.2637 35.0569 31.394
394 1 38.432 35.7994 30.7362
62 1 12.7958 44.5513 31.3906
75 1 14.3857 46.2936 31.3558
471 1 32.6027 11.2527 31.5332
472 1 31.7751 11.5219 32.0522
280 1 37.5917 29.8976 32.2434
278 1 37.5513 30.8197 32.1154
270 1 38.1651 32.7446 31.9277
277 1 38.2701 31.6008 32.2015
271 1 38.9738 32.8136 32.4826
383 1 37.1176 33.6596 32.4677
382 1 37.8272 33.8248 31.8855
381 1 38.4027 33.6719 32.6276
273 1 39.9115 33.1718 31.8212
272 1 38.9248 33.4884 31.8324
398 1 40.0882 34.1497 32.0058
384 1 36.6489 34.5314 32.4482
385 1 36.957 35.5197 32.4698
390 1 37.375 34.9609 31.5945
389 1 38.087 34.7539 32.3427
397 1 39.096 34.4306 32.2488
396 1 39.4797 35.3421 32.2139
63 1 11.8229 44.4716 31.6306
61 1 12.293 45.5341 31.5706
64 1 12.2076 44.9326 32.374
73 1 13.3325 44.9702 32.2054
74 1 13.8444 45.4971 31.5255
76 1 14.9822 45.5673 31.7427
79 1 15.3263 45.5162 32.7461
66 1 12.6115 46.1048 32.6135
67 1 13.3734 46.7741 32.7797
68 1 14.3259 46.3617 32.607
77 1 15.3735 46.4128 32.1313
78 1 15.9754 45.7727 31.7748
6 1 0.878705 14.2354 33.446
16 1 59.516 14.1648 33.8513
7 1 0.75019 14.796 34.2196
5 1 0.885172 15.181 33.1275
4 1 1.78909 15.6808 33.3164
15 1 59.6055 15.1142 33.8734
3 1 0.821467 15.855 33.7968
14 1 59.6787 16.0846 34.0093
279 1 37.2154 30.4096 33.0257
388 1 38.4135 35.4307 32.9519
386 1 37.355 34.9412 33.0829
387 1 37.671 35.9063 33.327
65 1 12.1716 45.4357 33.2493
72 1 13.1552 45.2675 33.2178
80 1 14.4742 45.4294 33.2025
71 1 13.7102 45.9742 33.682
70 1 14.6676 46.2416 34.0847
69 1 14.9429 46.524 33.1685
20 1 1.35229 12.3892 35.4185
19 1 1.03914 12.8865 34.634
10 1 0.488168 13.7839 35.5621
17 1 0.152083 13.9067 34.4707
18 1 1.07577 13.9033 34.6161
11 1 59.5069 13.8297 35.7048
9 1 0.995511 14.6815 35.2642
2 1 1.0579 15.6945 34.7041
8 1 1.59142 14.9019 34.3483
12 1 59.7534 14.5774 35.0929
13 1 59.727 15.5538 34.857
1 1 0.513974 15.7531 35.4928
122 1 24.0988 28.3009 35.6602
126 1 25.0698 27.811 35.1448
125 1 25.9432 27.9752 35.5846
123 1 24.3643 29.2353 35.6214
124 1 25.2302 28.7097 35.704
140 1 23.8905 27.9993 36.8478
128 1 25.4544 27.8761 36.639
127 1 24.8958 27.6992 36.0335
121 1 23.5285 28.8978 36.2632
136 1 24.892 29.7213 36.6717
139 1 24.4929 28.6867 36.5484
132 1 25.7906 28.8743 36.6365
133 1 26.1313 29.7655 36.4148
322 1 22.2468 30.0038 36.461
135 1 24.9478 30.6882 37.0377
488 1 25.6549 26.9346 37.278
486 1 25.9639 27.1106 38.2389
490 1 24.0935 27.7042 38.011
491 1 23.4718 28.3428 37.6723
129 1 25.2025 28.5248 37.4343
489 1 24.8718 27.4476 37.5108
487 1 26.0736 27.8336 37.604
323 1 22.8293 29.7028 37.2518
325 1 22.3139 28.7902 38.2635
335 1 21.8296 29.5038 37.3392
334 1 22.2918 29.9888 38.1932
493 1 24.0433 29.6696 38.4479
324 1 23.1044 29.2828 38.0346
138 1 24.0111 29.1497 37.263
492 1 24.2741 28.7161 38.1297
130 1 25.3752 28.7342 38.3984
137 1 24.821 29.4591 37.5333
131 1 26.2431 28.8226 37.7513
336 1 21.2438 30.2825 37.8557
337 1 21.7865 31.0331 38.3644
321 1 22.14 30.574 37.2822
494 1 24.1835 30.2891 37.7552
134 1 25.6944 30.0814 37.2866
496 1 25.1929 30.1123 38.2917
495 1 24.7009 30.8834 38.0899
327 1 22.5302 28.5465 39.4129
481 1 23.4376 27.822 39.8141
482 1 24.1455 27.885 39.0562
326 1 22.8734 27.9598 38.697
484 1 24.9738 28.2694 39.4586
485 1 25.4831 27.7922 38.7325
332 1 22.5857 29.7291 39.4215
500 1 23.4596 29.0754 39.1296
483 1 24.1745 28.7017 39.7786
331 1 21.8904 30.3538 39.8504
333 1 22.5279 30.4235 38.9212
499 1 23.7306 30.1214 39.2809
339 1 23.1955 31.3553 39.5781
498 1 24.0626 30.9118 39.0238
497 1 24.8943 30.3861 39.3311
338 1 22.2876 31.437 39.0041
330 1 21.8765 29.317 40.1765
329 1 22.5314 29.65 40.839
328 1 22.8374 28.8489 40.188
340 1 22.9387 30.6259 40.1939
460 1 52.2102 31.904 42.7151
458 1 51.3256 30.9962 43.4736
457 1 52.1397 31.4262 44.0552
459 1 51.3524 31.9173 42.9701
455 1 52.6705 32.4532 44.0033
456 1 51.6901 32.2914 44.013
145 1 55.6844 13.6299 45.5856
147 1 56.1865 14.105 44.5526
148 1 57.1614 13.9237 44.9036
146 1 55.7173 14.5874 45.2113
143 1 56.6788 14.5855 45.5905
150 1 56.6953 15.3356 44.9136
158 1 58.4566 14.6514 45.5216
157 1 57.6815 15.2067 45.7039
149 1 57.336 14.7721 44.6459
151 1 56.4887 16.2698 45.3105
450 1 51.2596 32.6385 44.9646
451 1 52.2405 32.4497 44.9158
452 1 53.099 32.1265 44.9229
454 1 52.4624 33.4247 44.4515
447 1 52.6994 34.1602 45.4023
448 1 52.0117 33.4108 45.43
446 1 53.5237 33.6969 45.5611
453 1 53.2777 32.999 44.5327
144 1 55.9459 14.2551 46.3164
159 1 58.0987 13.8665 46.0709
160 1 58.768 13.1199 46.0953
153 1 56.1979 15.2615 46.0976
155 1 56.7874 15.1364 47.1005
154 1 55.7827 15.1452 46.9521
142 1 57.0509 14.3021 46.4872
141 1 57.7872 14.4013 47.0687
156 1 57.6421 15.4054 46.7094
152 1 56.9511 16.0321 46.2111
443 1 52.6927 32.726 46.2069
449 1 51.7714 32.571 45.7909
441 1 53.5191 32.5309 46.8302
442 1 53.7226 32.7685 45.8367
444 1 52.5312 33.4767 46.8126
445 1 53.5254 33.6689 46.6297
26 1 35.4916 15.5642 50.6516
27 1 34.5761 15.1153 50.6695
21 1 36.727 12.5451 52.3846
23 1 36.7151 13.6252 51.9873
22 1 35.91 12.9628 52.0956
24 1 35.7882 14.1 51.8966
38 1 33.9358 14.7809 52.8285
29 1 35.1066 14.8785 52.2747
28 1 34.6403 14.5789 51.5674
30 1 34.5601 15.6511 51.9406
25 1 35.8403 14.8903 51.4578
40 1 33.0381 15.5766 53.051
39 1 33.782 15.3568 53.6493
36 1 35.3251 14.8571 53.3852
35 1 35.6715 15.701 53.7264
37 1 34.368 14.4825 53.6792
34 1 34.7645 15.4327 54.2664
32 1 33.9403 16.4106 53.32
31 1 34.5539 15.8052 53.0097
33 1 34.2998 16.2316 54.3183
421 1 30.8743 59.4604 55.5627
425 1 32.0675 59.248 55.6064
431 1 30.2045 0.199574 56.5755
422 1 31.2899 0.335376 55.9419
424 1 32.5395 0.188836 55.7791
433 1 28.4946 59.3357 56.4084
434 1 28.1229 58.845 57.1076
432 1 29.2508 59.8822 56.3855
435 1 29.1703 58.8529 57.045
428 1 30.747 58.861 56.5415
427 1 31.808 58.5759 56.4263
426 1 32.644 59.1186 56.4745
423 1 31.9989 59.9973 56.636
439 1 29.3283 0.926003 58.1593
438 1 29.0171 0.644406 57.2724
430 1 29.9843 59.7339 57.4656
436 1 29.4136 59.1082 58.1667
437 1 28.7786 59.7488 57.5955
429 1 30.2997 58.729 57.4897
440 1 29.6354 0.0849804 58.7047
ITEM: TIMESTEP
7000
ITEM: NUMBER OF ATOMS
500
ITEM: BOX BOUNDS pp pp pp
0.0000000000000000e+00 6.0000000000000000e+01
0.0000000000000000e+00 6.0000000000000000e+01
0.0000000000000000e+00 6.0000000000000000e+01
ITEM: ATOMS id type x y z
222 1 16.4876 13.3571 11.241
221 1 17.4217 13.048 11.1039
239 1 18.359 13.2447 11.388
240 1 18.124 12.2506 11.673
223 1 16.4483 13.4567 12.3567
224 1 17.4361 13.5508 12.5405
229 1 18.6818 13.8187 12.7567
237 1 19.724 13.4589 12.5148
238 1 18.9962 13.0134 12.0523
236 1 20.1302 14.1506 12.0037
232 1 18.3037 15.1547 12.7402
231 1 18.2241 14.3496 11.9847
230 1 19.1343 14.533 12.1993
225 1 17.1941 13.4971 13.3766
228 1 19.3267 14.0439 13.5066
226 1 17.511 14.3089 13.6586
227 1 18.5009 14.4773 13.7227
233 1 19.2872 15.1341 13.021
234 1 20.0082 15.0346 13.5151
235 1 20.6602 14.4414 12.93
107 1 12.1635 47.2243 14.0088
113 1 12.857 46.1399 15.6701
110 1 11.8279 46.4489 15.7115
106 1 12.7127 46.9441 14.8565
102 1 13.7837 46.8919 15.1577
109 1 11.991 47.4329 15.5153
108 1 11.8171 47.9466 14.6449
105 1 12.9954 47.8037 14.6499
104 1 12.9541 48.1315 15.5907
283 1 46.2544 40.9735 16.7945
287 1 48.0267 41.1687 16.7839
282 1 45.9807 41.991 16.6483
281 1 46.923 41.956 16.2498
111 1 12.2236 45.8884 16.4713
115 1 12.1775 46.9902 16.6817
112 1 13.1976 46.2645 16.6375
114 1 12.9878 47.1235 15.948
101 1 13.9502 46.3297 15.8733
117 1 12.6466 48.4051 16.5841
116 1 13.0021 47.5245 16.866
119 1 13.686 48.3686 16.7975
120 1 14.0745 47.5226 16.9553
103 1 13.8819 47.6409 15.7842
294 1 46.3694 41.2159 18.4785
284 1 46.5259 40.2598 17.59
285 1 47.076 41.1148 17.598
298 1 47.9613 40.7653 18.2133
286 1 47.5545 40.3222 17.178
300 1 48.789 41.0786 17.5649
293 1 46.4468 41.8904 17.6067
299 1 48.059 41.6739 18.0471
290 1 47.6232 42.6543 18.2862
289 1 48.14 42.5777 17.4544
288 1 47.3784 41.9441 17.1871
118 1 12.9953 48.2574 17.6036
295 1 45.6479 40.8212 18.8315
296 1 46.4437 40.178 18.8991
297 1 47.2026 40.6836 18.7106
292 1 46.4239 42.4107 18.6359
291 1 47.2106 42.0996 19.0824
342 1 10.7302 31.197 20.8675
344 1 12.3092 30.768 21.3404
356 1 11.852 31.7116 21.3775
354 1 12.0603 32.7727 21.404
355 1 11.5629 32.353 20.7462
358 1 13.6133 32.0837 21.3311
87 1 21.6573 37.9869 21.1926
89 1 23.1208 37.6913 21.3194
99 1 21.478 39.9872 20.4996
100 1 21.5351 39.0641 20.8872
96 1 23.0032 39.0691 21.1798
98 1 22.5383 40.0315 20.5741
202 1 49.3376 29.5329 22.7044
343 1 11.3081 30.7264 21.4963
350 1 10.9812 31.2886 22.403
349 1 12.1445 31.2556 22.2832
345 1 13.0549 30.657 22.0634
201 1 49.8685 30.0932 22.0697
352 1 11.2547 32.4103 22.1941
341 1 10.6047 31.9807 21.4457
357 1 12.7771 31.6453 21.4935
353 1 12.1793 32.7991 22.3769
359 1 13.1489 32.4819 22.1368
90 1 22.9035 36.7752 21.5059
92 1 23.3177 37.0719 22.568
91 1 23.9346 36.683 21.8683
88 1 22.2783 37.7299 21.8812
86 1 21.4652 38.2631 22.1497
94 1 23.8244 38.4212 22.7984
93 1 22.9327 37.9124 22.8161
97 1 22.3189 39.7058 21.5217
84 1 22.0286 39.0596 22.5157
85 1 22.2284 38.6617 21.6313
83 1 22.9186 38.9734 22.6633
82 1 23.2776 39.9091 22.7619
95 1 23.7822 38.7875 21.751
175 1 58.7603 42.2188 22.7988
169 1 59.3448 44.0669 22.3489
170 1 58.6337 43.2345 22.5822
305 1 2.37455 53.3447 22.5543
304 1 3.31122 53.09 22.6804
216 1 50.1866 28.4883 23.9445
204 1 50.3144 29.8662 24.0696
348 1 11.9378 31.0469 23.3804
346 1 13.1961 31.1849 22.8578
203 1 49.715 30.1341 23.4243
351 1 10.8363 32.1912 23.0689
347 1 12.5355 31.7759 23.0487
360 1 13.5503 32.5457 23.1767
81 1 22.3581 40.0549 23.2584
176 1 58.441 41.3242 23.203
178 1 59.4586 41.4051 23.006
180 1 0.74138 42.1282 23.6865
174 1 58.5431 42.463 23.7215
179 1 59.704 42.2932 23.4587
177 1 59.1032 41.462 23.8833
168 1 0.1445 44.0367 23.0974
166 1 0.249407 43.1092 23.99
167 1 0.135761 43.1125 23.0145
171 1 58.5176 43.9763 23.3285
172 1 59.3184 43.9224 24.0273
173 1 59.1906 43.1956 23.5721
253 1 59.4605 44.9971 24.1388
301 1 2.74585 51.6747 23.9449
303 1 2.96704 52.5546 23.4045
316 1 4.0028 52.1733 23.502
318 1 4.83579 52.6726 24.1082
306 1 2.44853 54.0825 23.2538
307 1 2.07524 53.3182 23.8266
315 1 3.98095 53.1373 23.6357
314 1 3.0931 53.5551 23.7222
213 1 49.4976 28.3797 24.9446
210 1 49.2009 29.7457 25.3099
214 1 48.6712 28.8645 24.7802
215 1 49.4821 29.2926 24.3149
211 1 50.1462 29.2654 25.0938
218 1 51.3962 29.6767 24.7726
217 1 50.9788 28.8518 24.4283
206 1 49.2912 30.4818 24.6007
208 1 48.6263 31.1311 25.3153
209 1 49.4806 30.7244 25.6637
181 1 51.3965 30.7347 24.8282
205 1 50.2958 30.767 24.3993
187 1 50.5375 30.1888 25.2858
182 1 51.6251 31.4278 25.3152
207 1 49.3111 31.495 24.7929
183 1 50.5161 31.554 25.1705
164 1 1.09912 42.182 25.017
259 1 59.9666 42.4228 24.8912
260 1 59.1018 42.0877 25.4471
165 1 1.17203 42.926 24.3268
163 1 1.41372 43.0044 25.4542
255 1 0.489931 43.5156 24.884
250 1 57.8743 43.37 24.6685
249 1 58.8143 43.1455 24.5341
248 1 59.4671 43.4909 25.1369
254 1 0.177356 44.313 24.3796
244 1 0.744127 44.6372 25.182
245 1 0.653992 45.4833 25.179
242 1 1.67087 45.6436 25.4263
241 1 2.67223 45.5428 25.5227
243 1 1.66851 44.9647 24.8008
364 1 35.8793 45.3183 25.2823
365 1 36.7723 45.1809 25.501
252 1 58.4496 45.1382 24.2886
251 1 58.0256 44.3781 24.8813
246 1 59.6833 45.6186 25.4249
247 1 59.6327 44.6027 25.2596
362 1 34.786 46.2144 25.6424
363 1 35.7394 46.2649 25.2321
308 1 2.32931 52.5594 24.3864
309 1 1.44499 52.1975 24.5785
310 1 2.00834 52.3179 25.376
320 1 3.9695 52.2065 25.388
302 1 3.39661 52.4984 24.368
311 1 2.88505 51.8806 25.0405
317 1 4.40547 51.86 24.4125
313 1 2.85168 53.5645 24.65
312 1 3.0037 52.8676 25.3541
319 1 4.32494 52.9848 24.8335
60 1 40.1227 18.2156 27.0354
56 1 42.5503 17.3767 26.7822
55 1 42.3482 18.3802 26.817
54 1 41.3678 18.8274 26.8698
46 1 40.0952 19.5004 26.9159
212 1 49.7187 28.7905 25.8681
188 1 50.0073 29.9945 25.9949
219 1 51.4085 29.4537 25.7411
220 1 51.5719 29.7979 26.7688
192 1 48.8312 31.0864 26.7787
191 1 48.886 30.1219 26.4285
184 1 50.4731 31.1635 26.0254
186 1 51.2753 30.5448 26.0465
189 1 50.1875 30.1195 26.8962
193 1 48.5418 32.0525 26.6863
197 1 49.6654 32.214 27.0164
194 1 48.8676 32.4685 25.9223
195 1 49.4712 31.7177 26.1356
196 1 50.148 32.2836 26.0178
185 1 51.1517 31.5602 26.214
199 1 49.6664 33.9989 26.8404
198 1 49.2738 33.1381 27.1215
200 1 50.3024 33.3032 26.677
258 1 0.431151 42.2123 25.813
161 1 1.55235 42.2661 26.2437
256 1 0.351427 43.7672 25.8507
162 1 0.905497 43.0245 26.3327
257 1 59.8012 42.9004 26.0591
361 1 35.0461 45.3484 25.8207
367 1 36.0389 45.1087 26.2854
366 1 36.9632 45.5563 26.3641
369 1 35.9532 46.008 26.6296
373 1 37.1224 46.8367 25.9384
372 1 37.3914 46.4523 26.7563
376 1 38.7876 46.5153 27.01
371 1 36.8332 47.2808 27.1186
374 1 37.6582 47.5576 26.5222
461 1 30.4278 9.45596 28.2077
462 1 31.0312 9.17393 27.4179
463 1 31.4387 9.95925 27.8309
464 1 31.8157 10.685 28.253
410 1 30.0792 11.4855 28.2814
409 1 30.9801 11.5926 28.3051
420 1 31.6637 13.1095 28.3342
59 1 39.9777 17.697 27.8815
58 1 41.0686 17.474 27.6731
57 1 42.0601 17.1939 27.4966
45 1 40.6418 19.2036 27.5712
44 1 41.075 19.4333 28.5435
41 1 42.8372 19.0359 27.8311
52 1 41.7534 19.6098 27.7551
53 1 41.6126 18.6119 27.7392
48 1 40.6661 21.0967 27.8374
47 1 40.2391 20.337 27.4359
51 1 41.6242 20.5764 27.96
49 1 41.3269 21.664 28.3878
190 1 49.1625 29.8754 27.3562
368 1 36.3678 45.2242 27.1874
370 1 36.5204 46.4089 27.3748
380 1 39.1692 45.8112 28.5462
377 1 39.0788 46.8135 27.9222
379 1 39.1748 45.7465 27.6258
378 1 39.856 46.5728 27.4993
375 1 38.2226 47.3241 27.3079
404 1 31.401 9.0049 29.2721
405 1 30.6539 9.70727 29.3613
406 1 31.4764 9.97676 28.9287
403 1 32.3489 9.41682 29.0088
412 1 29.7998 10.529 29.8795
411 1 29.928 10.895 28.9424
407 1 30.8895 10.6387 28.883
474 1 31.2148 10.9478 29.9873
466 1 32.1519 10.6723 29.388
465 1 32.4439 11.3432 28.6506
467 1 32.9302 10.2371 29.966
408 1 30.7867 11.6791 29.2317
478 1 31.8625 12.0722 29.0444
479 1 32.5785 12.4642 29.511
480 1 33.3752 12.0187 29.1516
419 1 31.3723 13.0643 29.329
418 1 30.4704 12.9664 29.7574
42 1 42.1968 19.1467 28.6723
43 1 41.7248 19.902 29.2595
50 1 41.2725 20.8706 28.8614
402 1 32.3947 9.30455 30.0536
401 1 31.433 9.39792 30.3346
468 1 33.1317 9.7591 30.6492
414 1 29.8316 10.9765 30.9817
413 1 30.223 10.2038 30.6771
473 1 30.9657 10.9639 31.0005
475 1 32.1318 10.8675 30.5894
472 1 31.4921 10.1422 31.0324
469 1 33.3885 10.7936 30.8854
415 1 30.4005 11.823 31.2944
417 1 30.6288 12.7391 30.7245
416 1 30.4208 11.9826 30.2709
477 1 31.9214 11.7371 30.0172
476 1 31.8145 11.5502 31.0561
261 1 41.0076 31.135 30.794
263 1 39.5304 32.1223 31.2507
262 1 40.2239 31.4627 30.8349
384 1 38.8215 33.6549 30.597
385 1 38.5789 34.1557 31.3256
392 1 40.3511 33.9417 31.0521
393 1 40.2435 32.9142 30.9111
470 1 32.7566 11.0211 31.5755
471 1 31.818 10.6102 31.7073
382 1 37.8702 32.6114 32.246
381 1 37.9122 31.8825 32.7055
264 1 38.8201 32.2042 32.0668
266 1 39.7156 32.6476 32.4823
267 1 40.1401 31.5865 32.5406
383 1 38.2229 33.2726 31.5071
386 1 38.1422 34.1761 32.2162
265 1 39.1701 33.1506 31.8443
391 1 39.7461 34.1237 31.8287
390 1 39.8337 33.8952 32.8443
387 1 38.7347 33.6463 32.656
395 1 41.1503 33.5813 31.8114
394 1 40.3406 33.275 31.9655
396 1 41.1214 34.0967 32.6454
75 1 12.8289 46.3749 32.7526
74 1 13.6065 46.8213 32.3165
73 1 14.0591 47.6119 32.7165
72 1 14.7167 47.1529 32.0651
268 1 39.7278 30.9669 33.2822
271 1 39.0836 30.9851 34.1982
277 1 40.4651 31.3551 33.8744
269 1 39.0262 31.7184 33.0394
280 1 39.6093 32.4223 33.6727
270 1 38.741 31.9307 33.9804
278 1 40.7323 32.1921 34.2015
279 1 40.4496 32.2628 33.3061
389 1 39.4476 33.359 33.3858
388 1 38.6338 33.8625 33.7217
397 1 40.5824 33.5162 33.3198
399 1 41.2746 34.9565 33.2294
398 1 40.5706 34.3594 33.5168
400 1 41.8169 35.87 33.4519
76 1 12.5211 46.4923 33.7096
68 1 14.4337 46.4233 34.098
77 1 12.7826 47.4587 34.1649
78 1 13.4912 48.0995 34.2228
69 1 14.0179 47.2352 33.8859
71 1 14.9477 47.3208 33.0899
70 1 14.6747 47.9596 33.7554
1 1 58.0683 14.9601 35.1913
2 1 58.6785 15.6498 35.3743
11 1 57.4215 16.9199 35.5945
487 1 25.3804 26.4024 35.4588
489 1 25.0732 27.9759 35.0003
488 1 25.791 27.2939 35.0756
273 1 38.2089 32.4152 34.8055
275 1 39.5702 32.3545 34.8774
276 1 39.8389 31.508 34.6421
272 1 38.8377 31.4966 35.052
274 1 39.0648 33.074 34.3376
61 1 14.2854 46.9132 34.9741
67 1 15.2499 46.5674 34.6302
62 1 14.17 47.8252 35.5669
63 1 15.0328 47.5531 35.6154
66 1 15.1659 47.4804 34.5478
65 1 16.1105 47.4279 35.089
79 1 13.5894 48.6419 34.9527
80 1 14.5526 48.9 35.0792
17 1 55.2791 15.1706 36.7236
16 1 56.0871 15.1979 36.0729
15 1 56.6798 15.1942 36.9162
3 1 58.5499 15.5542 36.3124
14 1 57.6188 14.8909 36.4214
18 1 55.688 16.0156 36.4302
20 1 56.2849 17.1356 36.8221
12 1 56.8305 16.4304 36.1694
10 1 57.347 17.1314 36.6834
8 1 57.7985 16.1854 37.0605
13 1 57.5559 15.7327 35.8265
491 1 23.8141 28.5155 36.4165
486 1 24.8786 27.2974 35.7664
490 1 24.6479 28.2652 35.9682
482 1 24.5517 27.6263 37.0348
485 1 25.5451 27.7431 36.1931
140 1 24.0238 29.7873 35.8401
138 1 23.3638 29.5266 37.0283
126 1 25.2638 29.8164 36.6681
128 1 25.3027 28.7405 36.6117
127 1 25.0542 29.3231 35.7605
139 1 24.3197 29.7938 36.8512
122 1 23.9631 30.7867 36.6594
121 1 24.9554 30.712 36.4681
64 1 16.008 48.0056 35.7473
6 1 56.6984 15.6008 37.8564
5 1 57.4683 15.0769 37.6271
4 1 58.3681 15.4213 37.3678
7 1 56.8646 16.3155 37.3669
19 1 55.8596 16.3867 37.2437
9 1 57.957 16.9524 37.5296
331 1 22.2066 25.0444 38.3812
329 1 23.1308 24.7681 37.6661
323 1 22.3379 26.9328 37.6996
324 1 21.9131 26.1565 38.0436
325 1 22.8647 26.3656 38.4738
327 1 23.7387 25.906 38.2919
481 1 23.9993 26.7385 37.359
328 1 23.1013 25.7604 37.5515
322 1 21.368 27.3065 37.5289
321 1 22.0233 27.9839 37.9726
493 1 24.0437 27.7285 37.8423
492 1 23.8777 28.5559 37.3752
494 1 23.0742 27.6386 38.1768
483 1 24.9869 28.0965 37.7465
484 1 25.7887 27.9957 37.1903
136 1 22.9755 29.446 37.9341
135 1 23.4023 28.6584 38.3009
137 1 23.9002 29.7291 37.8388
129 1 24.9433 29.1469 37.5013
130 1 24.4217 28.959 38.2256
123 1 24.0977 30.859 37.6612
125 1 25.0151 30.2902 37.647
124 1 25.0438 31.3671 37.6417
332 1 21.5189 25.5163 38.9904
330 1 23.118 24.9339 38.6666
335 1 20.1967 26.7724 39.3804
334 1 20.7081 26.1597 38.8575
333 1 21.0337 26.0859 39.7359
339 1 22.4627 26.1713 39.4851
338 1 21.8002 26.5698 38.9166
326 1 23.544 25.9083 39.1914
498 1 24.0614 26.7463 39.8072
336 1 20.8382 27.2165 38.7657
337 1 21.5137 27.5612 39.1587
495 1 22.6502 27.2899 38.8863
496 1 23.3255 27.8545 39.4743
499 1 24.1929 27.2523 38.9068
500 1 24.5428 28.1267 39.147
134 1 23.5749 29.2349 38.99
131 1 24.8465 29.2914 39.1534
133 1 23.4 30.1647 38.8203
132 1 24.5024 30.1157 38.708
340 1 22.8483 26.9186 40.0014
497 1 24.131 27.7662 40.1492
441 1 55.5997 33.4327 42.5245
447 1 54.4821 32.5353 44.1946
446 1 54.4002 31.5839 44.0526
443 1 55.5182 32.6426 44.0144
444 1 55.2119 32.1274 43.3104
445 1 54.4183 31.6195 43.1854
442 1 55.4961 33.5616 43.4683
454 1 56.6521 33.8809 43.1126
453 1 56.5199 33.3319 44.0463
458 1 57.4189 33.9861 44.0726
455 1 56.9345 34.733 43.4429
456 1 56.232 34.9215 44.0294
460 1 57.2583 35.417 44.2151
459 1 57.9324 34.7355 43.7918
155 1 58.5141 14.1569 45.4156
156 1 58.6733 14.0674 44.5258
157 1 57.9483 14.7702 44.6273
158 1 58.7263 15.2831 44.911
153 1 59.5197 14.4339 44.9914
152 1 59.5861 15.2497 45.5841
448 1 55.1159 31.9254 44.7684
449 1 55.0931 32.5254 45.6263
450 1 55.8418 32.6773 45.0889
451 1 55.1219 33.3984 44.9118
452 1 55.8512 34.0276 44.4746
457 1 56.9212 34.5232 44.6152
142 1 58.4325 13.2866 47.0569
141 1 58.1557 14.1259 46.7341
145 1 59.9961 13.5863 46.9479
154 1 59.4037 14.0261 45.8287
146 1 0.132558 14.5022 46.6521
150 1 58.414 15.2102 47.0569
159 1 58.0851 15.1409 45.7197
151 1 58.9507 14.8644 46.3901
160 1 58.6376 15.8231 46.1248
143 1 58.5164 13.7581 47.8969
144 1 59.07 14.0913 47.1946
149 1 58.2146 14.8131 47.8867
147 1 59.4985 15.1099 47.2696
148 1 59.2366 14.6504 48.127
425 1 31.2508 1.96868 50.9913
422 1 30.7012 3.92762 50.9278
423 1 30.9312 3.03632 51.1015
421 1 31.6255 3.91532 50.6652
424 1 31.6319 2.90022 50.5197
426 1 31.9861 2.42681 51.5473
434 1 33.6723 2.81926 52.2955
431 1 31.5034 3.4227 52.721
433 1 32.7569 3.10657 52.815
428 1 32.0811 3.77772 51.5257
427 1 32.6973 3.06071 51.4794
435 1 33.9623 3.7415 52.2468
436 1 33.3007 4.14779 52.4321
429 1 31.7043 4.44548 52.2148
29 1 36.0692 14.2641 52.8169
21 1 33.3001 14.5945 52.5448
22 1 33.9344 15.2735 52.7161
27 1 35.2675 15.5178 51.9765
28 1 35.4292 14.4488 52.1016
30 1 35.9449 15.2362 52.8483
26 1 35.5176 16.1706 52.7292
432 1 31.9694 2.78171 53.2904
430 1 32.2399 4.10813 52.934
439 1 33.3579 3.2466 54.1914
438 1 33.767 3.37388 53.3611
437 1 33.207 4.2388 53.4626
35 1 35.4396 13.0571 54.2185
33 1 34.7206 13.9641 53.898
34 1 35.7759 13.9764 54.0428
23 1 33.9524 15.5802 53.6936
31 1 35.1973 14.7359 53.4383
24 1 34.7339 16.0861 53.5907
25 1 35.6513 15.8207 53.6746
440 1 33.8226 3.96362 54.3627
38 1 36.2143 12.6719 55.3347
36 1 34.8438 13.4664 54.9522
39 1 36.7317 13.5711 54.8807
37 1 35.7283 13.5113 55.291
32 1 35.0141 14.5202 54.4638
40 1 36.6422 14.5063 54.6486
ITEM: TIMESTEP
8000
ITEM: NUMBER OF ATOMS
500
ITEM: BOX BOUNDS pp pp pp
0.0000000000000000e+00 6.0000000000000000e+01
0.0000000000000000e+00 6.0000000000000000e+01
0.0000000000000000e+00 6.0000000000000000e+01
ITEM: ATOMS id type x y z
222 1 20.7857 11.8939 10.616
221 1 21.1293 12.0347 11.4815
239 1 18.4018 12.1704 7.97676
240 1 18.6213 12.9897 7.53076
223 1 20.1719 12.3664 11.3434
224 1 19.3225 12.3384 10.8852
229 1 17.5052 12.1527 9.57936
237 1 18.571 11.297 9.08182
238 1 17.8342 11.825 8.59919
236 1 19.1808 11.5067 8.12377
232 1 18.1747 13.7487 8.96346
231 1 18.0826 12.8727 8.78785
230 1 17.5606 13.0804 9.6728
225 1 18.5268 11.8621 10.6572
228 1 16.7708 11.9088 10.1938
226 1 17.7194 12.3424 10.6571
227 1 17.6257 11.3297 10.5791
233 1 18.5876 13.248 9.88843
234 1 18.5531 12.3563 9.58909
235 1 19.0431 12.338 8.75201
107 1 12.027 48.8392 14.9522
113 1 11.9598 46.4862 13.7499
110 1 11.7638 46.7652 14.8771
106 1 12.7563 48.4846 14.4084
102 1 11.0349 46.3938 12.9621
109 1 11.1562 47.347 14.3269
108 1 11.725 47.8867 15.0207
105 1 11.7697 48.3511 13.9552
104 1 11.7559 47.5677 13.3166
283 1 47.2207 42.9428 17.8728
287 1 45.5987 41.3865 18.2056
282 1 48.1722 42.776 18.2476
281 1 47.5428 42.4135 18.9949
111 1 12.1411 45.8921 14.8374
115 1 13.1752 47.7339 13.8209
112 1 12.8713 46.2595 14.1438
114 1 12.4719 47.3148 14.0847
101 1 11.9742 46.4915 12.7438
117 1 12.6673 48.2118 13.0932
116 1 12.7851 47.276 13.0147
119 1 12.0337 47.4844 12.1644
120 1 11.0783 47.1459 12.079
103 1 10.8466 47.3206 13.3284
294 1 46.7923 42.1582 17.0563
284 1 46.7318 42.2116 18.2788
285 1 46.5728 41.5885 18.8536
298 1 47.7678 41.5399 18.2735
286 1 45.648 42.1704 18.7843
300 1 47.7848 40.7226 16.3284
293 1 47.3331 41.7324 16.3184
299 1 47.5243 41.2279 17.2323
290 1 45.4898 41.5854 17.1429
289 1 45.8318 40.616 17.2705
288 1 46.4809 41.2732 17.8403
118 1 12.7988 48.1306 12.1086
295 1 46.685 43.1552 17.0697
296 1 47.6267 42.8923 16.7716
297 1 47.771 42.1994 17.502
292 1 46.7359 40.9969 16.5121
291 1 45.6266 41.0531 16.3044
342 1 11.321 32.8275 22.6191
344 1 11.6782 31.301 21.8824
356 1 12.4001 32.0649 22.3579
354 1 12.8117 32.8412 23.3805
355 1 12.8358 32.9685 22.4116
358 1 13.1498 31.2046 22.5832
87 1 19.17 35.3477 21.7404
89 1 18.0651 36.312 21.2312
99 1 19.1903 38.1327 22.9409
100 1 18.4511 37.5059 23.131
96 1 19.5246 39.2935 22.203
98 1 18.6331 38.819 22.4495
202 1 52.4047 32.032 25.0556
343 1 11.431 32.2134 21.7718
350 1 11.5802 31.5866 23.2646
349 1 12.1084 30.7792 23.3771
345 1 11.4927 30.293 21.7625
201 1 52.47 32.8772 25.5893
352 1 11.3864 33.3714 23.8943
341 1 11.6398 33.2537 21.8481
357 1 12.8169 31.7805 23.2077
353 1 12.1807 33.558 23.2742
359 1 13.8292 31.5093 22.0242
90 1 18.6513 36.8299 20.4771
92 1 19.8881 37.1778 21.6969
91 1 19.2628 36.5542 21.1282
88 1 18.3992 35.331 21.067
86 1 18.7141 36.1852 22.0863
94 1 19.5762 38.1618 21.8295
93 1 18.8544 37.4883 21.8224
97 1 19.2892 39.0981 23.2425
84 1 19.0785 35.3777 23.1066
85 1 18.2311 35.5301 22.6085
83 1 19.3182 35.6152 24.071
82 1 19.4229 36.4304 23.458
95 1 20.2215 38.6153 22.3662
175 1 59.4892 41.5858 22.3958
169 1 58.5834 42.4115 22.6617
170 1 58.3105 41.7154 22.1324
305 1 1.11277 55.2705 26.2521
304 1 2.05209 54.8468 26.1746
216 1 51.5117 32.485 26.202
204 1 51.3507 30.9082 25.9932
348 1 12.1746 30.2586 22.4893
346 1 12.1198 30.5874 21.1934
203 1 51.5173 31.6992 25.3572
351 1 11.8158 32.5703 23.598
347 1 12.5411 29.9021 21.6795
360 1 12.9449 31.399 21.5168
81 1 19.6456 36.6805 22.5512
176 1 58.8239 41.114 22.8157
178 1 59.271 40.1953 22.6192
180 1 59.7081 40.8458 23.3887
174 1 59.952 41.8737 23.185
179 1 0.317972 40.4044 22.7118
177 1 58.9966 40.7548 21.8831
168 1 59.3798 43.0785 22.4876
166 1 58.9406 42.6328 24.2224
167 1 59.2141 42.9212 23.3225
171 1 57.5685 41.0245 22.263
172 1 58.0329 41.5125 23.2827
173 1 59.0233 41.756 23.5761
253 1 57.9743 43.904 22.3805
301 1 2.79158 53.8502 24.8483
303 1 2.4895 55.0319 25.3944
316 1 3.21543 53.9398 26.206
318 1 3.02645 52.6315 25.9491
306 1 1.56276 55.4572 25.2682
307 1 1.49301 54.9592 24.416
315 1 2.49314 53.9644 26.8059
314 1 1.5271 53.8509 27.0636
213 1 50.6371 33.1359 26.5783
210 1 50.3326 31.5637 27.2011
214 1 51.2767 33.4881 25.8668
215 1 50.7988 32.675 25.5328
211 1 49.6282 31.7859 26.5293
218 1 50.0384 31.8464 25.4054
217 1 50.6938 31.8008 26.2367
206 1 52.4671 31.5514 26.3943
208 1 51.6025 31.8023 27.8337
209 1 51.1274 32.298 27.1418
181 1 51.0298 29.9827 25.2484
205 1 52.4001 30.6409 25.8148
187 1 50.7425 30.0536 26.4749
182 1 51.5819 29.1218 25.5016
207 1 51.6955 31.3624 26.986
183 1 51.6836 29.7406 26.1802
164 1 59.2796 43.7056 24.294
259 1 58.6657 41.3583 24.6347
260 1 59.5647 41.5886 24.5237
165 1 59.1937 43.1726 25.0554
163 1 0.0415656 43.5725 23.6534
255 1 58.1642 43.4401 24.153
250 1 57.6301 42.6563 22.0882
249 1 57.4129 42.783 23.0966
248 1 57.0842 43.7578 23.3123
254 1 58.4103 43.4252 23.1507
244 1 57.6131 44.9493 22.7792
245 1 57.0938 45.7646 22.4048
242 1 57.5754 45.1317 24.3267
241 1 56.9762 44.4216 24.6854
243 1 58.2162 44.91 23.5781
364 1 36.598 48.4922 26.0137
365 1 36.0545 47.7344 25.6825
252 1 57.0917 43.5819 22.2451
251 1 56.6475 42.6337 22.2493
246 1 57.2087 45.6849 23.4231
247 1 56.9157 44.7586 23.566
362 1 34.8011 48.5577 26.9044
363 1 35.6087 48.8446 26.3214
308 1 1.84792 54.0605 24.2074
309 1 0.849772 54.0285 24.4559
310 1 0.372941 53.8408 25.352
320 1 1.53559 53.1487 25.2189
302 1 2.61104 54.8126 24.404
311 1 0.699583 54.7678 25.4373
317 1 3.23152 53.1276 26.7903
313 1 1.28311 53.9113 25.976
312 1 1.59749 54.2631 25.1957
319 1 2.26544 53.3883 25.8911
60 1 42.4592 19.2594 27.82
56 1 41.9972 21.003 27.4321
55 1 41.8725 20.4903 28.0953
54 1 41.8733 19.7045 28.7971
46 1 45.4561 19.9162 28.9086
212 1 49.9093 32.7362 26.2773
188 1 50.4217 30.0963 27.4652
219 1 50.1437 30.9385 24.9811
220 1 50.1472 30.8045 26.0298
192 1 53.064 29.7847 27.8815
191 1 52.5569 28.8673 27.544
184 1 51.4211 28.8568 26.585
186 1 50.1788 29.6134 26.0318
189 1 51.3916 30.3891 27.1899
193 1 53.7421 30.2773 27.415
197 1 52.9587 28.6033 26.4023
194 1 53.3779 29.6337 26.8371
195 1 52.7559 30.3917 26.6574
196 1 52.7235 29.555 26.0072
185 1 50.6033 28.6878 25.9581
199 1 53.793 28.6268 27.173
198 1 53.9809 28.865 26.335
200 1 54.2309 27.824 26.9501
258 1 58.0193 42.1983 24.3701
161 1 59.9422 42.6964 24.2976
256 1 57.6585 43.5816 25.0148
162 1 0.434357 43.4097 24.6024
257 1 57.3337 42.9484 24.1857
361 1 34.6373 49.2985 26.3103
367 1 35.5939 47.7755 26.7018
366 1 35.0011 48.0081 25.9415
369 1 35.0649 46.2648 26.6953
373 1 36.1804 48.4611 27.5762
372 1 37.1038 48.0755 27.3774
376 1 36.7081 48.0666 28.4946
371 1 36.3125 47.4249 27.6651
374 1 36.9434 49.0581 28.2191
461 1 31.7646 10.1585 27.9776
462 1 30.8564 10.1388 28.5873
463 1 30.4992 9.21834 28.5252
464 1 30.3632 9.22449 29.4976
410 1 28.3326 11.2611 30.6851
409 1 28.193 11.5641 29.8008
420 1 28.9033 12.9416 29.8355
59 1 41.9811 19.0093 27.1476
58 1 41.7927 19.9126 26.7953
57 1 42.639 20.3536 27.0363
45 1 44.4881 20.095 28.7937
44 1 43.7208 19.4581 28.4553
41 1 43.0447 20.3074 29.1706
52 1 42.8836 18.2125 28.705
53 1 42.7248 19.161 28.8328
48 1 44.6638 19.058 28.7947
47 1 45.2301 19.2486 29.6169
51 1 43.1004 18.3727 27.7771
49 1 43.9438 18.3414 28.8187
190 1 52.056 29.5455 27.2195
368 1 35.3297 47.0303 26.1605
370 1 35.7506 46.7123 27.1387
380 1 37.2879 46.3284 29.3209
377 1 35.7949 47.4614 28.4873
379 1 36.6118 46.7087 28.538
378 1 36.5688 47.3368 29.283
375 1 37.6315 48.4197 28.6138
404 1 29.2264 10.0701 30.9879
405 1 28.7528 10.3364 30.3298
406 1 28.4765 10.3186 29.3127
403 1 28.9632 9.14022 30.7177
412 1 29.4267 11.7858 31.1663
411 1 28.9471 11.0299 31.53
407 1 27.5757 10.5497 29.5662
474 1 30.3115 10.1535 30.4519
466 1 30.5986 8.37776 30.1722
465 1 30.9997 8.27339 29.246
467 1 31.6258 8.54152 30.3141
408 1 28.058 11.1468 28.8212
478 1 33.0632 10.1477 28.1428
479 1 32.5304 9.34844 28.4992
480 1 33.0834 9.71813 29.2688
419 1 29.6152 12.5692 30.1907
418 1 29.7473 12.2187 29.341
42 1 43.1637 20.31 28.1994
43 1 43.4241 19.6472 27.5755
50 1 44.0746 18.6561 27.8824
402 1 29.5482 9.1384 31.5753
401 1 30.2679 9.1875 30.9223
468 1 32.1942 8.89925 29.6306
414 1 29.6115 10.9201 30.0844
413 1 29.9267 11.0738 30.9911
473 1 30.1536 10.0815 31.5198
475 1 31.0381 9.94321 29.7494
472 1 31.0543 10.4976 31.0964
469 1 32.851 9.11525 30.3813
415 1 30.4694 11.3956 30.0687
417 1 29.359 11.2973 29.1312
416 1 30.2073 10.8299 29.2158
477 1 32.5856 10.6352 28.8912
476 1 31.7018 10.6243 29.229
261 1 42.6229 28.5233 31.7372
263 1 42.1939 29.4147 33.2173
262 1 42.0816 28.7945 32.5771
384 1 40.3592 32.0213 33.7521
385 1 39.6158 31.6723 33.0432
392 1 42.8439 32.7791 33.4999
393 1 42.3428 32.8679 34.5166
470 1 32.0522 9.69486 30.5217
471 1 31.2402 9.61792 30.7596
382 1 40.5846 30.7778 33.0837
381 1 41.7295 30.8574 33.2815
264 1 42.7673 29.981 33.7694
266 1 41.9938 31.6328 33.9793
267 1 41.3433 31.7284 33.1827
383 1 39.9899 30.9984 34.0507
386 1 39.7406 32.1432 32.1842
265 1 42.7359 30.9163 34.128
391 1 42.0089 33.0087 33.3926
390 1 41.3125 32.815 32.6649
387 1 39.2236 32.6621 31.4455
395 1 40.541 32.566 34.677
394 1 41.3675 32.6355 35.0835
396 1 40.6672 33.0157 33.8567
75 1 15.3605 48.9483 37.2639
74 1 14.6178 49.3541 37.8336
73 1 14.3422 49.7084 36.9979
72 1 13.6474 49.4357 36.4537
268 1 41.0086 31.2804 34.0473
271 1 40.927 31.4643 35.0068
277 1 40.8879 33.7452 35.2864
269 1 41.791 30.6629 34.4938
280 1 40.7699 32.4478 35.7902
270 1 40.8927 30.5698 34.7794
278 1 40.7982 33.7574 36.3339
279 1 40.1665 33.1196 36.0002
389 1 40.4815 33.3331 32.6225
388 1 39.9245 33.2049 31.786
397 1 41.1912 33.8971 33.7978
399 1 41.215 34.1806 32.7283
398 1 40.5301 34.5523 33.4062
400 1 42.0756 33.6251 32.5123
76 1 15.2356 48.6658 36.3967
68 1 14.4015 50.4965 34.8059
77 1 14.863 48.3878 35.6467
78 1 14.7193 49.4347 36.0846
69 1 14.3837 49.5565 35.1889
71 1 13.6894 48.9749 35.613
70 1 13.6187 49.8227 34.8657
1 1 53.0553 17.4187 39.6903
2 1 53.6316 17.2727 38.8491
11 1 52.3564 16.4891 40.0463
487 1 24.062 29.2953 36.1869
489 1 22.6169 28.3645 35.5198
488 1 23.31 28.8378 36.0147
273 1 39.7801 31.3294 35.061
275 1 39.4702 32.7145 34.5424
276 1 39.7993 33.6138 35.1452
272 1 40.6208 31.0427 35.8326
274 1 39.6573 32.2357 35.4013
61 1 14.1542 47.8317 34.547
67 1 15.274 50.1901 35.2071
62 1 14.7425 47.423 35.1086
63 1 15.6639 47.4806 34.7446
66 1 15.7816 49.4915 35.827
65 1 16.3078 48.584 35.482
79 1 14.4244 50.3488 36.0084
80 1 15.4082 50.4762 36.5171
17 1 53.83 16.4668 38.1255
16 1 53.0861 16.5217 37.5636
15 1 53.4621 17.3235 37.792
3 1 53.7843 18.2992 38.7663
14 1 52.8271 17.8118 38.3565
18 1 54.7464 16.7273 38.0103
20 1 54.4986 18.1018 37.0164
12 1 52.034 16.9492 39.2217
10 1 52.7726 15.7261 39.3902
8 1 54.4201 16.431 39.2613
13 1 52.8006 16.8122 38.5028
491 1 22.2726 27.6599 36.7081
486 1 23.5833 29.3125 37.0021
490 1 22.3728 28.6836 36.4825
482 1 23.3989 27.0412 36.776
485 1 22.8143 28.8156 37.417
140 1 21.9427 28.8621 39.3058
138 1 22.2241 27.916 38.9082
126 1 23.8488 27.5578 38.704
128 1 22.9907 27.998 38.3209
127 1 23.8614 28.059 37.8967
139 1 22.269 28.7019 38.4414
122 1 22.3867 27.6793 39.9707
121 1 22.9737 28.3166 39.515
64 1 15.9075 47.7097 35.7507
6 1 55.4224 17.0454 38.8818
5 1 55.6304 17.9499 38.755
4 1 54.7084 18.0037 39.0988
7 1 54.9466 17.0815 39.682
19 1 54.6872 17.7324 37.9271
9 1 53.4616 16.2921 39.7257
331 1 24.5858 24.5159 35.9942
329 1 24.5696 26.561 35.9889
323 1 21.9116 25.0079 36.5301
324 1 22.6151 25.7027 36.7336
325 1 23.7476 25.2136 36.7581
327 1 24.9807 25.9417 37.1126
481 1 22.7362 27.1045 35.9695
328 1 24.1597 26.2728 36.8445
322 1 21.4448 25.4934 37.2019
321 1 21.7805 24.5541 37.3908
493 1 22.4048 26.1353 37.8264
492 1 22.2761 26.9346 37.371
494 1 23.3825 25.9532 37.5894
483 1 23.7415 27.9534 36.3472
484 1 23.1616 28.2074 36.9707
136 1 22.1645 27.0281 38.4589
135 1 21.9773 26.3107 39.0229
137 1 22.7799 27.2921 39.0668
129 1 23.1563 27.1495 37.7896
130 1 23.9463 26.7805 37.9041
123 1 23.1921 28.0916 40.5533
125 1 23.846 28.4468 38.9614
124 1 23.9342 27.8503 39.7794
332 1 23.782 24.0734 36.4785
330 1 24.8337 25.4795 36.042
335 1 22.3703 24.4183 38.4392
334 1 22.4987 23.8871 37.591
333 1 22.935 24.3572 36.912
339 1 23.675 24.6343 37.9111
338 1 22.7785 25.0621 37.7151
326 1 24.5079 25.1448 37.4374
498 1 24.7868 27.5403 37.9912
336 1 21.8459 25.2304 38.5584
337 1 22.7708 25.4783 38.5106
495 1 23.9203 25.6514 38.3201
496 1 24.8283 25.8689 38.4371
499 1 24.4958 27.1905 37.1605
500 1 24.6263 28.0711 37.0083
134 1 22.7714 26.2269 39.5787
131 1 23.436 26.4239 38.7593
133 1 23.3027 25.6692 40.1807
132 1 23.5673 25.5374 39.3013
340 1 23.7787 23.8429 37.4244
497 1 24.5927 26.8328 38.6636
441 1 58.2335 34.7208 43.2271
447 1 59.4337 35.2292 42.6855
446 1 59.5781 35.146 41.6921
443 1 59.2713 35.7975 43.5311
444 1 58.7593 36.2275 42.7668
445 1 59.4196 36.1115 42.071
442 1 59.1197 34.8477 43.6609
454 1 58.6906 32.3176 44.1047
453 1 59.2077 33.2586 43.9347
458 1 0.0445109 33.6265 43.3144
455 1 58.9758 31.5881 43.4658
456 1 59.7288 31.9505 44.1257
460 1 0.167869 33.1096 44.1689
459 1 0.447267 34.0507 44.0049
155 1 1.07893 14.3573 47.6721
156 1 2.04786 14.0692 47.9563
157 1 2.01841 14.0951 46.9917
158 1 1.56114 14.3939 46.0837
153 1 2.11427 15.284 46.6069
152 1 1.18306 15.6143 46.5212
448 1 58.5441 35.3563 42.1365
449 1 58.7342 34.4799 41.8787
450 1 59.3324 34.1887 42.696
451 1 59.1342 33.0915 42.684
452 1 58.5488 33.7177 43.2236
457 1 59.8065 32.488 43.311
142 1 0.695003 12.915 47.9371
141 1 0.454451 12.1953 47.2877
145 1 59.9869 14.0375 47.3779
154 1 1.73297 15.0988 47.5485
146 1 59.8795 14.957 47.2616
150 1 0.118643 14.1531 46.2887
159 1 0.707112 14.9163 45.625
151 1 0.743196 14.7244 46.7411
160 1 1.42065 15.829 45.3482
143 1 1.42259 13.1337 47.4778
144 1 0.686767 13.5853 46.8955
149 1 59.2994 14.617 45.8634
147 1 59.5383 15.4238 46.4409
148 1 58.9932 14.5572 46.7443
425 1 33.6522 7.17543 49.1436
422 1 32.2338 6.36637 48.4162
423 1 33.1857 6.28272 48.0415
421 1 31.4017 5.95689 48.4542
424 1 33.0762 7.22197 48.2918
426 1 34.3552 6.85803 48.3995
434 1 34.3714 6.80144 47.3222
431 1 36.4724 6.71609 48.2082
433 1 35.4314 6.67886 47.3889
428 1 34.7066 8.00666 48.7894
427 1 33.9377 7.72521 48.1474
435 1 34.6385 6.6145 46.3069
436 1 35.1183 7.41087 46.1562
429 1 35.2008 7.18082 49.0924
29 1 34.8678 14.2574 54.774
21 1 36.546 12.0292 54.3455
22 1 36.3594 12.5328 53.5123
27 1 33.8598 14.448 54.2077
28 1 34.4265 15.1463 54.7617
30 1 35.7754 14.1687 54.4163
26 1 34.3475 13.6861 53.9127
432 1 35.4178 6.49257 48.3083
430 1 35.9127 7.47558 48.399
439 1 35.1897 8.44597 45.9128
438 1 34.6221 8.55134 46.7037
437 1 34.9985 7.66066 47.0467
35 1 35.8632 15.8443 55.8275
33 1 35.5931 14.7569 55.442
34 1 36.518 15.1747 55.4236
23 1 35.7488 13.0999 54.017
31 1 36.2359 14.8864 53.9061
24 1 36.1669 13.8029 53.434
25 1 35.1226 13.937 53.4621
440 1 36.0384 8.04731 45.8325
38 1 35.9335 13.6812 55.8397
36 1 35.4274 15.462 56.7146
39 1 35.8629 12.9898 55.1416
37 1 35.9791 14.6718 56.3761
32 1 35.6566 15.2543 54.5787
40 1 36.7738 13.6962 55.1082
ITEM: TIMESTEP
9000
ITEM: NUMBER OF ATOMS
500
ITEM: BOX BOUNDS pp pp pp
0.0000000000000000e+00 6.0000000000000000e+01
0.0000000000000000e+00 6.0000000000000000e+01
0.0000000000000000e+00 6.0000000000000000e+01
ITEM: ATOMS id type x y z
239 1 17.9833 10.8358 8.33727
236 1 18.5785 10.5306 7.39721
240 1 17.175 10.5389 8.00601
237 1 18.7054 9.49686 7.32179
229 1 20.0098 11.284 7.21225
238 1 18.0188 9.84654 7.98297
234 1 19.3461 10.5977 6.70135
235 1 19.4809 10.2687 7.77814
232 1 17.9974 11.4826 7.34971
231 1 18.4915 12.1554 6.96807
230 1 19.4606 12.0369 7.03472
233 1 18.5188 11.1441 6.60895
227 1 19.8456 11.0313 5.95576
228 1 20.4997 10.8353 6.54358
225 1 19.3361 10.4839 5.12611
226 1 20.3185 10.5547 5.36146
224 1 18.5432 10.3363 5.54724
222 1 17.235 9.8547 6.14441
223 1 18.0957 10.1138 6.46849
221 1 16.7471 9.42695 5.53184
120 1 11.2387 48.6335 12.2432
101 1 10.2541 48.1617 12.9797
119 1 10.7017 48.2345 11.5015
118 1 9.8038 48.0001 11.3503
102 1 9.88135 47.3941 12.4641
113 1 11.1444 46.5762 10.7456
112 1 11.3306 47.2394 11.4649
103 1 10.8956 47.3948 12.4188
105 1 12.576 47.8062 11.6399
104 1 11.8463 47.6292 12.3105
114 1 10.5324 47.3622 10.821
117 1 9.5587 46.967 11.5663
116 1 10.485 46.662 11.6899
115 1 10.1228 46.5252 10.7103
110 1 12.9597 46.982 10.8437
111 1 12.1125 46.7947 11.2827
109 1 12.7478 47.3963 9.94558
106 1 11.8111 48.2808 11.2646
108 1 11.8161 47.2607 10.2859
107 1 11.7638 48.1948 10.2393
291 1 47.7613 43.7505 18.668
292 1 47.2702 43.0571 19.13
300 1 46.4796 42.9123 17.5809
290 1 47.7166 43.0009 18.0966
294 1 45.927 42.7813 18.7097
293 1 46.6557 43.5048 18.582
296 1 45.3427 41.4327 17.402
295 1 45.5636 42.1688 18.0696
287 1 46.792 42.927 16.269
289 1 47.4333 42.4682 17.2348
288 1 47.6641 42.6079 16.3068
299 1 46.8124 42.049 18.2637
284 1 46.2862 41.9887 17.0209
282 1 45.2078 41.1901 15.4083
298 1 47.1249 41.3877 17.6073
297 1 46.1734 41.2372 17.8408
283 1 45.7447 41.7755 16.1971
286 1 46.8176 42.038 15.7731
285 1 47.0135 41.4396 16.5702
281 1 46.0277 41.826 15.127
346 1 10.5183 32.3998 22.4724
88 1 14.8301 34.2134 21.4541
89 1 14.6644 35.0819 20.9815
90 1 14.9427 35.9899 21.1183
91 1 14.8657 35.8036 22.0983
347 1 10.6071 31.3778 22.533
344 1 11.4337 32.1279 23.3041
345 1 11.4596 32.7053 22.4308
348 1 11.2282 30.598 22.378
358 1 12.8575 31.6338 22.6942
360 1 12.4267 30.4777 22.2703
342 1 13.0827 32.8114 23.882
356 1 12.3771 33.0664 22.7585
343 1 12.3926 32.1848 23.4418
359 1 13.3511 30.7641 22.4021
355 1 13.256 33.5499 22.89
341 1 12.3141 32.7063 24.4051
85 1 15.7857 35.3218 22.909
87 1 14.8326 33.6634 22.4245
86 1 15.0639 34.6826 22.6543
81 1 17.4422 36.4514 22.2139
92 1 15.4845 36.741 21.7663
94 1 15.9675 36.1176 23.6393
93 1 15.8612 36.5278 22.755
96 1 15.5543 34.6641 23.6659
98 1 14.6041 35.0928 24.0454
95 1 16.1263 35.3709 24.141
179 1 57.1959 40.7755 23.9849
171 1 57.8274 41.798 21.4735
176 1 58.1456 41.4104 23.7104
178 1 57.7163 40.0471 24.2351
177 1 58.4486 40.6812 24.3214
251 1 56.973 42.1129 20.8659
170 1 58.1756 42.589 22.1186
250 1 57.0768 42.5936 19.9653
175 1 57.6922 42.2987 23.2814
169 1 58.8373 43.3913 21.7264
252 1 56.2311 42.7071 20.8588
253 1 56.5272 42.926 21.7954
168 1 59.1654 42.8771 22.5463
244 1 55.2905 43.1464 21.4017
245 1 54.9579 42.2412 21.0528
349 1 11.8583 31.3637 22.5153
354 1 13.6733 32.5075 22.7751
350 1 11.7499 30.9011 23.4107
351 1 12.6085 31.0293 23.8164
357 1 12.4314 32.3623 22.1428
352 1 13.5661 31.1324 23.5808
353 1 13.7458 32.0063 23.7031
84 1 16.6451 35.6826 22.7317
83 1 15.9291 35.6559 21.8808
82 1 16.8664 35.7766 21.6983
100 1 14.9552 36.0912 23.1944
99 1 14.3518 35.4067 23.1158
97 1 15.1359 34.6251 24.6349
180 1 57.0913 41.0188 23.0105
172 1 57.0425 41.4108 21.7362
249 1 57.4794 41.7095 20.074
174 1 58.0747 41.5089 22.595
166 1 58.1257 44.1041 22.179
173 1 57.1351 41.9932 22.4325
163 1 57.3355 43.2157 22.5626
248 1 57.029 41.0236 20.6888
255 1 55.2388 41.7137 22.0848
254 1 56.1814 42.0096 21.7051
257 1 56.0866 41.8991 22.943
167 1 58.7249 43.5915 22.8138
164 1 57.9234 43.48 23.3886
247 1 56.0837 41.3928 20.3304
243 1 55.3072 42.7761 22.0671
246 1 55.5007 41.3607 21.1307
308 1 1.49346 55.9832 27.0109
181 1 52.4453 31.3076 26.024
182 1 53.0568 31.9214 26.4957
219 1 54.2036 32.3113 28.492
215 1 55.9069 32.0025 27.8463
218 1 53.5467 31.6823 28.5071
202 1 54.6464 32.1228 27.5024
203 1 53.6954 32.214 27.7076
201 1 54.1755 32.0811 26.5589
259 1 56.8657 42.193 24.2129
258 1 56.1953 42.491 23.6888
260 1 56.337 41.4378 23.994
161 1 57.7894 43.0375 20.8951
162 1 57.5299 43.3347 21.7538
256 1 55.7105 41.0373 22.7391
165 1 57.5713 44.4041 22.9613
241 1 55.2067 42.9348 23.0758
242 1 55.871 43.3591 22.5803
365 1 35.5085 50.8112 27.7684
309 1 1.15158 55.9436 26.1065
310 1 0.766689 56.204 25.2232
301 1 1.06653 55.293 27.8331
320 1 0.700097 55.0439 26.5259
312 1 0.11851 55.9819 26.0771
311 1 0.555033 56.8607 25.9717
303 1 0.436238 55.9384 28.2168
306 1 1.11777 56.6808 27.9247
307 1 2.06492 56.2594 27.7294
302 1 0.25753 55.4469 27.4084
58 1 45.993 19.4691 27.6972
57 1 46.0523 20.2543 28.1833
197 1 52.2842 29.4112 25.7992
200 1 49.7892 28.9211 26.0501
184 1 51.8389 31.5607 26.8718
186 1 51.7913 30.7095 28.3916
185 1 51.7501 31.533 27.7201
183 1 52.8009 31.4902 27.3761
196 1 52.2581 30.3749 25.7079
194 1 53.5341 29.6001 26.0996
198 1 51.4233 29.1879 25.8569
204 1 53.9105 31.2246 27.3841
187 1 52.8283 30.8838 28.1782
220 1 55.021 32.9122 28.4691
205 1 54.7972 31.1323 26.9287
207 1 53.4229 30.554 26.809
195 1 53.1764 30.3395 25.6121
211 1 54.2813 30.458 29.2035
212 1 54.4028 31.4518 29.3043
217 1 54.4017 31.1721 28.3227
216 1 55.3023 31.2452 28.0476
206 1 54.033 30.8378 26.2785
213 1 55.1754 31.8735 28.9472
214 1 56.0814 32.2342 28.7683
369 1 35.5938 49.0139 27.8056
368 1 34.5501 48.8375 27.7406
367 1 35.0276 49.5174 26.9986
366 1 35.817 50.1815 27.1826
364 1 35.3862 50.5645 28.7117
362 1 34.1081 50.5043 27.6116
363 1 34.8858 49.9428 28.0606
361 1 34.507 50.9245 28.295
318 1 1.594 54.9228 26.9979
313 1 59.4454 55.694 26.7837
315 1 59.7584 54.4232 26.8158
314 1 59.3487 54.937 27.5445
319 1 1.61173 54.9486 26.0696
316 1 0.532965 54.2031 27.3928
317 1 1.36995 54.0544 26.9633
305 1 0.444966 56.4847 27.2201
304 1 59.719 56.5866 27.9037
463 1 27.3886 8.474 29.3805
479 1 31.069 10.0718 30.9692
461 1 26.5291 7.14985 28.7632
478 1 31.5834 9.82747 30.1977
51 1 46.2279 19.2879 28.7757
60 1 45.0897 20.5834 28.321
59 1 44.9783 19.8391 27.6541
44 1 44.3668 19.2151 28.0912
43 1 43.4815 18.7518 28.2324
50 1 45.7087 18.7815 29.1784
56 1 46.4717 20.9733 28.6211
55 1 45.9246 20.3779 29.1696
42 1 42.8358 19.4841 28.6689
191 1 52.0853 29.0864 27.1704
190 1 51.6382 29.8635 26.7112
192 1 52.9457 28.8691 27.4809
199 1 50.7167 28.5689 26.2066
188 1 52.5639 29.9283 27.8617
189 1 52.7122 29.8565 26.8578
193 1 52.9564 28.9672 26.4917
210 1 54.9474 29.7445 28.8726
209 1 54.3862 30.0989 28.1593
208 1 53.7776 29.7932 27.4607
370 1 36.606 48.6746 28.1546
379 1 33.149 48.0976 27.8438
373 1 35.9304 49.2415 29.0447
372 1 36.3052 49.9244 28.3468
376 1 34.5504 49.5245 28.9881
371 1 36.5516 49.4382 27.3342
377 1 33.8975 49.5333 28.2735
374 1 35.7452 48.3044 28.6499
465 1 28.6312 8.46729 29.8172
464 1 28.011 9.10119 30.0163
475 1 29.9969 8.91948 28.9362
468 1 30.5282 7.7794 29.7905
480 1 30.9925 9.62544 31.8477
406 1 29.1982 10.6751 32.1448
407 1 30.0361 9.93764 32.2956
408 1 29.0873 9.26152 31.9132
417 1 27.7282 10.4389 28.9979
462 1 27.2209 7.6622 28.7301
416 1 28.3577 10.04 29.6481
477 1 30.8266 9.15952 29.9533
476 1 30.6141 9.65734 29.2665
409 1 29.4929 9.99277 31.3413
418 1 28.661 10.8152 28.8588
420 1 27.3118 10.2715 27.8571
52 1 47.1177 19.9927 28.6581
49 1 45.0428 19.4408 29.0314
54 1 46.7902 20.1025 29.7125
53 1 47.1186 19.2154 29.3378
46 1 44.1608 20.5817 28.8903
48 1 43.9726 19.5509 29.0757
47 1 44.1047 20.3142 29.7751
41 1 43.1164 20.4548 28.9686
45 1 44.1211 20.2385 27.9819
380 1 32.9077 48.5336 27.064
378 1 33.7753 48.5837 28.4581
375 1 34.9059 48.5664 29.0534
466 1 29.0377 8.07338 28.9889
467 1 29.665 7.71279 29.6225
403 1 27.9899 10.4666 31.7144
401 1 28.9631 9.38862 30.721
471 1 30.3987 8.99305 31.001
469 1 30.2596 7.64925 30.7202
470 1 31.0151 8.28249 30.951
410 1 29.2892 10.2543 30.3971
404 1 28.3239 11.1 30.9227
405 1 29.2479 11.3074 31.3702
414 1 29.0105 11.2063 29.8594
413 1 29.7889 10.9213 29.4081
474 1 29.1626 9.43757 29.2954
472 1 30.1691 9.84648 30.4308
415 1 28.0492 10.8984 29.9355
412 1 30.6929 11.1965 29.9985
419 1 27.9511 11.1042 28.1604
402 1 28.303 10.1108 30.7198
411 1 29.9909 10.8682 30.7778
473 1 29.7094 9.14117 30.018
261 1 43.5107 28.8917 35.2056
262 1 43.9306 29.7067 35.2527
386 1 43.0035 31.3358 33.8688
387 1 43.1566 32.2407 34.3341
390 1 42.2254 30.6781 35.493
388 1 43.4961 31.5487 34.9986
389 1 42.9183 31.2799 35.5021
399 1 41.1583 31.7597 33.304
400 1 41.6589 32.5262 32.7545
263 1 44.5601 29.3244 35.8184
264 1 44.4536 29.058 36.7856
383 1 42.7335 30.2405 33.5034
382 1 41.8891 30.9721 33.8111
268 1 43.9121 31.5244 35.9051
381 1 42.1139 31.009 32.9533
265 1 43.6721 28.8745 36.2495
385 1 43.3917 30.4874 34.5418
384 1 42.4289 30.207 34.4042
267 1 43.655 30.4548 36.018
266 1 43.4738 29.6778 36.7522
392 1 42.1455 32.1829 35.176
396 1 41.2365 33.0909 33.7391
397 1 42.1643 32.5988 34.2845
391 1 42.3174 31.3706 34.6332
398 1 42.2256 31.9148 33.5261
489 1 20.8363 25.8274 37.2022
273 1 41.3929 31.0294 36.7563
270 1 42.7717 32.2336 36.6634
269 1 43.2194 32.22 35.8317
275 1 41.1918 30.5455 34.7436
274 1 41.2381 30.4009 35.8362
395 1 41.9904 33.5547 34.032
394 1 41.6238 33.5182 35.0294
271 1 42.0959 31.8111 36.3015
393 1 42.4999 33.1018 35.2308
276 1 40.6834 31.1068 34.1339
277 1 41.3389 31.8481 34.3946
61 1 14.2377 51.5647 33.9948
77 1 15.3372 49.2209 39.9307
62 1 13.5555 51.6575 34.7933
63 1 14.201 51.877 35.4111
64 1 14.3971 50.9581 35.3616
71 1 16.4885 51.1735 38.0695
70 1 15.7482 51.9576 38.0814
69 1 15.7528 51.186 37.4188
65 1 15.1768 50.2354 35.8264
68 1 15.8143 52.1874 37.0822
67 1 14.8049 52.0267 36.7083
20 1 49.2085 17.4601 42.918
332 1 23.0594 26.7912 35.5874
323 1 22.0687 26.0544 37.041
324 1 22.8244 26.2234 36.68
325 1 23.8142 26.6043 36.5439
333 1 23.9088 26.3921 35.4534
331 1 23.7596 27.3867 35.9577
330 1 22.7975 27.6071 36.1864
481 1 22.9182 27.1052 38.7134
482 1 22.3124 26.4494 38.0516
328 1 24.2893 26.9822 37.4349
329 1 23.2846 27.3992 37.1497
327 1 25.1752 26.7196 37.318
499 1 24.1586 26.5577 38.7238
491 1 21.6364 24.256 36.4838
483 1 21.4695 25.7219 38.0814
484 1 21.8083 24.8047 37.9178
500 1 24.2267 27.5292 38.576
490 1 21.4525 25.2032 36.6266
487 1 20.7132 25.083 38.9092
488 1 20.4501 25.6723 38.1795
486 1 20.6384 24.3969 38.1892
272 1 41.1468 31.9924 36.0988
280 1 40.3996 31.998 34.9132
278 1 41.4598 31.4175 35.3264
279 1 40.5069 31.1607 35.4597
72 1 16.7628 51.4725 38.9695
73 1 15.7896 51.4403 38.9984
76 1 16.081 49.6804 39.4742
78 1 14.6565 48.9411 39.2313
66 1 14.9891 51.1899 36.2973
79 1 15.4948 49.051 38.7952
80 1 15.5606 49.6609 38.1976
13 1 50.2596 18.4518 39.1951
17 1 49.8198 17.8768 41.0307
16 1 50.4109 17.0057 40.8267
18 1 49.9787 17.4395 41.8436
14 1 49.7223 17.4559 39.091
15 1 50.3502 17.2829 39.8638
19 1 50.1024 17.2157 42.9163
334 1 24.2692 25.4869 35.1625
340 1 24.9997 26.1391 35.8474
322 1 21.4262 26.4642 36.2914
321 1 22.0205 25.8036 35.9808
335 1 24.5697 24.7873 35.6202
338 1 23.2684 25.4113 36.0612
336 1 24.6511 24.6729 36.563
337 1 23.6988 24.5726 36.6173
339 1 24.2374 25.6764 36.251
495 1 23.5222 25.5305 37.0616
326 1 24.5854 27.1749 36.4387
493 1 22.4816 24.9839 36.6318
492 1 22.2774 24.2443 37.1702
136 1 22.0507 23.7731 38.4126
494 1 22.748 25.2706 37.5333
129 1 23.8919 24.6529 38.2917
130 1 23.3228 24.0088 38.9604
496 1 24.3875 25.8334 37.2041
128 1 23.1473 24.2602 38.0046
127 1 22.4963 24.6796 38.5976
498 1 23.7881 25.8062 38.1241
485 1 21.2211 24.1164 37.5926
139 1 22.3785 24.3598 40.606
75 1 16.4625 50.3008 38.871
74 1 15.5767 50.7466 38.3417
12 1 49.8775 18.2346 39.961
10 1 50.4673 19.5688 39.8356
9 1 50.1533 20.3383 40.5209
8 1 51.0237 20.3378 41.0632
6 1 50.5449 18.5303 41.4207
7 1 50.4656 19.5789 41.2127
1 1 51.5432 18.6442 41.143
2 1 51.2524 19.2346 40.4938
3 1 51.096 18.1937 40.3478
5 1 51.0617 17.928 41.8571
4 1 51.3016 17.5208 40.9346
132 1 24.4418 23.9142 37.5521
135 1 22.5309 23.0992 38.9063
134 1 23.0728 22.8565 37.9234
131 1 24.1156 23.5168 38.4318
497 1 24.7998 25.5976 38.046
138 1 22.331 24.2755 39.6671
137 1 21.5094 24.2343 39.0886
126 1 22.1007 25.2561 38.9538
121 1 20.7529 26.4226 39.2012
125 1 22.96 25.5772 38.6637
124 1 22.5446 26.222 39.3096
140 1 22.9145 25.1969 40.7239
11 1 50.2832 18.8 40.4462
133 1 23.7484 23.3381 37.2742
122 1 21.1424 25.661 39.6461
123 1 21.9574 25.7749 40.0213
450 1 1.57734 35.481 42.6951
451 1 1.66389 34.5129 42.2847
447 1 3.54831 34.747 42.9324
446 1 4.19782 34.2186 43.4511
448 1 3.41572 35.6086 42.6237
449 1 2.44422 35.1484 42.5856
444 1 2.63521 34.1867 44.4797
445 1 3.6401 34.0337 44.1789
454 1 2.38576 35.6621 40.1603
455 1 2.95825 35.6535 40.9155
456 1 2.70978 35.9359 41.875
457 1 2.30664 35.1252 41.5546
458 1 2.65112 34.4281 40.8843
460 1 1.93243 33.561 40.6184
459 1 2.503 33.5792 41.3586
453 1 1.77259 35.3258 40.7356
452 1 1.19484 35.1871 41.61
441 1 3.10488 34.0498 42.3183
442 1 3.07009 33.8338 43.2867
443 1 2.92231 34.8041 43.7907
159 1 1.59776 14.8447 47.6037
160 1 2.15939 15.639 47.7911
435 1 34.9368 10.7439 42.1753
436 1 34.9278 9.93325 42.7498
439 1 35.9588 10.3544 43.4618
438 1 35.9854 9.52786 43.5534
437 1 35.7027 9.26205 42.6217
440 1 35.1769 11.0668 43.2146
150 1 3.5502 14.721 46.494
144 1 3.39627 13.9498 47.7701
157 1 0.623926 14.2339 47.4933
152 1 1.94442 14.8957 46.5391
151 1 2.80121 14.6676 47.1303
158 1 1.22551 14.1225 48.1808
153 1 2.37968 14.0825 46.1357
149 1 4.1321 14.9282 47.3451
147 1 4.9751 14.5271 47.8312
148 1 4.03772 14.8424 48.2305
421 1 36.9658 10.3857 44.1383
422 1 36.9948 11.3365 44.3485
423 1 37.8184 10.8983 44.1133
426 1 37.5793 12.2459 43.9637
434 1 35.9153 11.3399 42.4605
433 1 35.9947 10.2512 42.4212
432 1 36.7409 10.7323 41.971
431 1 36.9559 10.2127 42.957
424 1 38.2186 11.0219 43.1864
427 1 36.5878 11.9806 43.6095
430 1 37.0563 11.2171 43.0117
141 1 2.9132 13.4801 46.9183
142 1 2.57936 12.9682 47.7438
145 1 4.10094 13.6801 47.2527
156 1 0.906797 14.6464 46.57
143 1 2.41604 13.9363 47.8124
155 1 1.44767 13.8824 46.9681
154 1 2.00484 13.2759 46.4439
146 1 4.62943 13.628 48.187
425 1 38.4603 11.9147 43.6025
428 1 36.9825 12.752 43.2182
429 1 36.9804 12.0864 42.4562
22 1 35.999 14.8223 56.1644
26 1 37.737 13.2458 55.8942
25 1 37.2927 14.039 55.3208
23 1 36.8336 14.339 56.2594
24 1 36.9678 14.9969 55.5909
27 1 36.9249 12.6905 55.9668
31 1 34.9494 14.3568 55.1907
21 1 36.2086 15.7394 55.8622
29 1 35.9272 13.8214 55.5307
30 1 36.0444 14.6332 54.9762
39 1 35.0907 14.4487 56.708
40 1 34.4302 13.9328 57.0091
28 1 36.5714 13.1531 55.2432
33 1 35.368 13.0192 54.8788
32 1 34.5119 13.4675 55.1053
34 1 35.489 11.9499 55.0083
38 1 36.0955 14.2813 56.9984
36 1 35.5193 13.236 56.3887
37 1 36.3499 13.3665 56.6743
35 1 35.7406 12.5062 55.8658
ITEM: TIMESTEP
10000
ITEM: NUMBER OF ATOMS
500
ITEM: BOX BOUNDS pp pp pp
0.0000000000000000e+00 6.0000000000000000e+01
0.0000000000000000e+00 6.0000000000000000e+01
0.0000000000000000e+00 6.0000000000000000e+01
ITEM: ATOMS id type x y z
221 1 19.8742 9.51781 4.68647
224 1 18.5487 10.1348 5.27469
225 1 17.5502 10.2363 5.432
226 1 17.1986 9.27023 5.13463
222 1 19.6406 10.1703 3.96505
233 1 19.3686 9.15444 3.72844
223 1 18.8133 10.1635 4.42672
234 1 19.0776 8.85074 4.50045
227 1 17.831 9.53674 4.38997
228 1 18.2776 8.87349 3.81871
231 1 18.4594 9.15969 2.71573
230 1 17.5316 8.80331 2.69857
238 1 19.6021 8.6186 2.72068
237 1 18.6344 8.09291 2.92554
239 1 20.3497 8.00036 2.61743
240 1 21.0498 7.69703 3.34799
236 1 19.1976 7.80783 3.60624
229 1 17.6805 8.16359 3.36951
235 1 19.3418 7.80757 4.65074
232 1 18.5915 9.7889 3.43539
109 1 8.62355 46.9701 8.68022
113 1 10.3417 46.607 9.94903
115 1 11.0288 47.7346 10.7039
111 1 9.602 46.5824 8.08948
110 1 8.98661 47.3146 7.8124
118 1 11.0194 48.6523 9.20594
114 1 10.1117 47.2425 10.7242
106 1 9.80249 48.5919 8.82274
108 1 9.51427 47.4264 8.76123
107 1 9.19978 48.1434 9.42315
117 1 11.4055 47.9216 9.68288
116 1 11.2849 48.5795 10.341
102 1 11.7074 47.0948 8.31663
119 1 10.2961 48.2536 9.82495
112 1 9.7932 46.4844 9.07344
103 1 10.6798 47.2458 8.13338
105 1 10.1778 48.1489 8.061
104 1 11.0704 48.0735 8.33412
120 1 10.4367 47.6034 9.24969
101 1 11.1856 46.9505 9.08277
282 1 47.2534 43.7499 18.438
281 1 46.366 43.573 18.849
284 1 46.5942 43.1029 17.8234
283 1 47.4415 43.2625 17.4803
286 1 46.3574 42.4386 18.6866
285 1 47.2598 42.6009 18.4178
288 1 46.8415 41.8954 17.5235
287 1 45.9285 42.1049 17.84
297 1 46.2018 44.0457 16.2946
298 1 46.6587 43.1993 15.9314
296 1 45.7938 43.6414 17.2939
295 1 45.3859 43.2468 16.5636
299 1 47.2686 42.6581 16.5127
289 1 46.8199 41.5616 16.495
300 1 46.2832 42.704 16.8871
290 1 45.7717 41.4194 16.8883
294 1 45.3592 43.02 15.5225
250 1 56.6436 41.7106 19.7846
293 1 45.8195 42.3755 15.0712
291 1 45.2298 41.765 16.2682
292 1 46.0258 42.1346 16.0379
89 1 11.0715 33.952 22.6076
90 1 10.4086 33.9052 23.3079
246 1 55.6321 40.3102 19.5835
248 1 56.943 40.0593 19.7188
247 1 56.3576 40.5649 20.0961
245 1 54.7987 40.8067 20.0476
251 1 55.7584 41.4617 20.1839
252 1 55.4698 40.7949 21.0364
249 1 56.9997 40.8822 19.1254
244 1 53.8717 40.9962 20.4602
161 1 56.0274 42.4307 19.3017
347 1 10.8237 32.3024 23.5731
348 1 10.8627 32.149 22.5874
360 1 10.8881 30.9786 20.0673
349 1 11.2019 31.7042 21.783
359 1 11.5064 31.1334 20.8192
346 1 11.4679 32.7815 23.9602
345 1 12.3941 32.3008 24.2521
357 1 12.6439 31.7498 21.4793
358 1 12.1724 30.9983 21.5728
354 1 13.2344 31.6528 23.2335
356 1 12.373 32.4858 22.0375
88 1 11.7945 33.1788 22.591
87 1 12.4184 32.5397 23.2293
86 1 12.4134 33.2583 23.6446
84 1 11.6471 33.906 23.5037
83 1 12.4561 34.2446 23.0782
91 1 10.8203 34.8199 23.679
92 1 10.8863 35.4052 24.603
93 1 11.4089 35.7485 23.7801
82 1 11.7559 34.9324 22.8543
81 1 11.2049 34.8292 21.9721
172 1 57.2361 41.4134 20.6511
256 1 55.6729 40.3195 22.4847
255 1 56.2044 40.0968 21.74
243 1 54.4716 41.831 20.505
173 1 56.3112 41.3737 21.0454
254 1 56.704 39.6021 20.9761
171 1 57.2814 42.3311 20.8249
170 1 56.3317 42.4501 20.6289
174 1 56.2936 42.016 21.8982
253 1 55.7647 39.8376 20.7363
242 1 54.6967 41.4034 21.483
166 1 55.5626 44.159 22.0357
163 1 55.4405 43.117 20.3735
162 1 55.0078 42.6083 19.5796
169 1 56.7917 43.2332 21.0613
168 1 56.1522 43.8265 21.1431
167 1 55.9987 43.0694 21.8235
350 1 11.6836 31.3024 22.5137
351 1 11.6031 31.8062 23.2761
352 1 12.3129 31.3109 23.5532
344 1 13.193 32.0544 24.5089
343 1 13.9603 32.405 23.8131
342 1 14.2531 31.5728 23.3267
353 1 13.0671 30.7928 23.448
355 1 12.8305 31.6516 22.5487
96 1 13.0788 34.2331 24.0358
98 1 13.1014 33.3487 24.6538
99 1 12.2293 33.3453 25.174
85 1 12.1609 33.8673 24.2736
95 1 12.9962 35.1118 23.7869
100 1 13.102 32.955 25.6313
94 1 12.0521 35.0305 23.8232
180 1 55.1153 42.2202 23.2568
179 1 54.7772 42.4377 22.4032
176 1 54.9395 41.3864 22.6501
178 1 54.0786 42.2158 21.7425
257 1 54.8949 40.1316 21.9314
259 1 53.8114 40.1883 23.0081
258 1 53.9572 40.6059 22.1492
260 1 54.2205 40.904 23.3971
175 1 55.5922 41.3471 21.9302
241 1 55.3685 42.0423 21.0556
164 1 55.0512 43.6674 21.1553
165 1 55.1 44.6691 21.2355
196 1 53.4655 32.6698 28.35
195 1 53.8323 32.88 27.4263
341 1 14.4009 31.2895 24.255
97 1 13.5477 33.3585 23.784
177 1 53.951 41.5386 22.4315
310 1 1.05905 57.2159 28.4504
200 1 55.0774 32.8531 28.4255
198 1 54.061 33.1681 29.2661
199 1 55.0959 33.2569 29.2351
197 1 54.0953 33.5028 28.2446
190 1 55.2606 31.8057 28.6468
189 1 54.9692 30.8878 28.2098
194 1 53.4938 32.0603 27.1875
193 1 53.4957 31.6468 28.0987
181 1 55.8278 31.3521 29.5858
207 1 55.8339 31.0774 27.178
206 1 56.6211 30.6681 27.67
205 1 56.3488 30.7736 28.6598
184 1 54.9481 30.2979 30.1987
182 1 54.8932 31.0594 29.3254
201 1 57.9094 29.1647 28.7961
380 1 32.9955 51.4473 28.6887
367 1 34.854 52.0592 29.6486
317 1 59.7309 56.2856 27.2526
320 1 59.164 56.0014 28.1979
318 1 0.494672 56.7471 27.7896
319 1 0.00814941 56.2735 28.6325
313 1 59.9102 58.0453 28.2199
315 1 58.9248 57.2192 27.1516
309 1 0.76319 56.9485 29.4426
312 1 59.9597 57.3789 28.9109
311 1 0.805825 57.9205 29.1404
308 1 59.8257 57.1055 30.042
420 1 25.6452 11.9177 31.5916
419 1 25.6631 11.0918 32.1809
43 1 48.2214 22.2235 28.7649
59 1 47.4089 19.1292 29.4556
44 1 47.256 22.286 28.4291
58 1 48.0991 18.54 29.1089
45 1 46.5079 21.9289 29.1581
60 1 47.3322 19.8382 28.844
57 1 47.6432 18.0884 28.3405
191 1 54.7706 32.1917 29.5463
188 1 54.3756 30.2434 28.6044
192 1 54.2671 32.1204 28.6147
208 1 54.9323 31.648 27.0222
186 1 54.5878 29.1993 30.3295
187 1 54.3696 29.714 29.4601
204 1 55.9049 29.972 28.4083
217 1 56.4072 29.6269 27.5038
216 1 56.3203 30.0685 26.7953
209 1 54.1781 31.25 27.4649
185 1 55.6338 29.5637 30.3549
183 1 55.4515 30.3301 29.357
218 1 55.7579 28.8272 27.7508
203 1 56.418 29.6892 29.2561
219 1 54.9616 29.3913 28.0819
202 1 57.1543 29.8017 28.6298
215 1 56.0518 29.118 26.5035
220 1 55.3288 29.3892 29.0845
379 1 32.3778 51.488 27.8892
377 1 32.9295 50.2988 28.5898
378 1 32.6279 50.6229 27.8
369 1 34.4893 51.7074 28.1115
368 1 35.2379 51.5283 28.8151
363 1 33.9651 51.6667 29.0572
370 1 34.9052 51.0033 27.8042
372 1 34.438 50.2906 29.6282
371 1 34.4884 50.8312 28.6962
362 1 34.4029 52.4764 28.7893
365 1 33.3007 51.0623 30.3218
361 1 33.6779 52.8003 29.5105
366 1 34.201 51.4672 30.1549
316 1 58.6697 56.2207 27.0596
301 1 57.9792 56.2793 28.1042
302 1 58.6287 56.8821 28.4379
314 1 59.5459 57.1311 27.9908
303 1 57.9468 57.2099 27.8261
306 1 58.6476 57.4295 29.6246
305 1 58.9899 57.9628 28.7697
307 1 59.1955 56.6422 29.3929
304 1 58.6498 57.9051 27.868
461 1 25.7863 8.83543 28.4941
463 1 26.4632 8.47476 29.7661
462 1 26.2306 9.29774 29.2086
465 1 27.2847 7.70191 29.2228
466 1 28.0801 8.3211 29.3379
467 1 27.4394 8.18333 30.2434
468 1 26.6169 8.44129 30.8472
464 1 26.4369 7.94025 28.9126
474 1 29.6882 7.21086 29.8503
473 1 28.8649 6.71244 29.8377
475 1 29.5293 7.57313 30.937
476 1 29.1333 8.10655 30.0965
417 1 26.8004 11.1213 30.8674
416 1 26.3483 10.3589 30.4029
415 1 26.7673 9.47857 30.3105
418 1 26.2753 10.626 31.4914
414 1 27.4627 9.31796 29.6096
413 1 27.4115 8.89223 28.734
412 1 28.3395 9.26795 28.7601
42 1 47.7136 22.3834 29.411
48 1 47.1861 20.9005 29.1753
50 1 46.2169 20.1844 29.4388
49 1 46.5903 20.4611 28.4683
51 1 45.9394 19.789 30.3761
53 1 47.3952 18.5136 30.2878
46 1 46.4778 21.6211 28.173
47 1 47.32 21.1509 28.2327
41 1 47.1051 23.1409 29.6076
56 1 46.7119 18.2914 28.404
55 1 46.9068 18.1043 29.3917
52 1 46.3862 18.9148 30.188
54 1 46.6315 17.8506 30.1956
210 1 53.2236 30.8529 27.4174
211 1 53.6876 29.9333 27.544
212 1 54.0601 30.2139 26.7704
213 1 54.9805 30.3567 27.2037
214 1 55.3382 29.4956 27.0304
375 1 33.7231 49.9856 27.3106
374 1 33.721 49.6532 28.1819
376 1 33.7205 50.7312 28.0849
373 1 34.103 49.6625 28.9571
364 1 33.5421 50.7967 29.3717
469 1 27.426 8.90723 31.0358
470 1 28.2161 8.23675 31.3422
401 1 28.2952 10.4869 31.5168
477 1 30.3085 8.3768 30.1088
471 1 28.4939 7.33589 30.7778
472 1 27.933 6.94418 30.0301
478 1 29.6798 9.24968 30.0813
404 1 29.1173 10.0223 30.3923
402 1 27.6824 9.8949 30.9407
409 1 29.1963 8.82641 31.6295
410 1 28.808 8.88758 30.7004
405 1 29.5729 9.55636 31.1466
411 1 28.6734 9.05307 29.6462
479 1 30.4975 9.51316 30.2591
408 1 29.7152 8.52352 30.9271
480 1 31.2202 8.82795 30.3542
407 1 30.285 8.33075 31.6753
403 1 28.1742 10.1621 30.0693
406 1 30.5602 9.22384 31.459
400 1 42.7694 31.1027 32.9208
276 1 42.8491 29.9212 35.6492
383 1 45.0749 29.5322 33.3381
382 1 44.1786 29.3886 33.2541
381 1 44.0332 28.7875 33.9497
386 1 44.59 31.1093 35.6628
399 1 43.711 30.855 32.9206
398 1 43.9404 30.5261 33.6777
396 1 43.2555 31.3816 34.302
395 1 42.498 30.9923 34.9223
61 1 14.4293 53.3564 38.086
334 1 21.2552 26.6491 36.9242
335 1 21.9916 26.8278 36.2863
332 1 21.5405 26.9782 38.3531
333 1 22.0068 26.879 37.5613
261 1 45.4619 30.0074 37.7468
262 1 44.8314 29.9257 38.4642
275 1 42.7536 30.1339 36.5713
279 1 42.5668 30.3118 34.0884
390 1 44.2999 29.8938 37.5007
384 1 44.9312 29.5042 34.3581
391 1 43.5698 29.7143 36.7177
278 1 43.3538 29.8463 34.4545
389 1 44.5635 30.8792 37.7388
385 1 44.5806 30.2161 35.0112
277 1 42.5157 29.5637 34.9807
280 1 41.6519 30.2776 34.6041
392 1 43.7923 30.5512 36.171
397 1 44.2018 31.1093 34.5455
387 1 44.28 31.5031 36.6463
388 1 45.0575 30.7818 36.7265
394 1 43.434 30.6716 35.0108
393 1 43.6942 31.4421 35.6438
64 1 14.3702 53.6596 40.427
62 1 14.3452 53.2459 38.93
63 1 14.0622 53.8333 39.5723
491 1 21.8664 25.1631 36.5754
490 1 21.361 24.4232 36.0494
493 1 22.1714 24.6812 37.377
338 1 23.0086 25.4712 37.5877
337 1 22.9619 25.8933 36.6809
339 1 23.4949 26.0374 38.1622
495 1 23.0696 23.503 37.7857
336 1 22.1327 26.0798 36.9466
322 1 20.8484 25.6601 36.8347
323 1 20.847 25.2835 37.7497
324 1 21.6355 24.8241 38.2695
321 1 21.0203 25.6374 35.7875
325 1 21.8917 25.7206 38.1854
340 1 22.7763 26.6387 38.1057
330 1 20.5297 25.9641 38.6149
331 1 20.8767 26.542 38.0306
329 1 20.9797 25.2815 39.2025
326 1 22.6907 25.2829 38.5453
265 1 44.6973 30.9272 39.3839
266 1 43.7751 30.5933 39.52
263 1 45.9163 29.7783 38.7327
264 1 45.4195 30.6809 38.5781
273 1 42.0915 31.297 36.6482
274 1 42.7437 30.8945 36.0643
267 1 42.8197 30.521 39.2205
272 1 43.2299 31.5001 36.7101
270 1 42.78 30.5535 37.5011
271 1 43.5978 30.8187 37.1302
268 1 43.2277 31.1987 38.5228
269 1 43.5246 30.3147 38.114
65 1 15.0808 53.4864 39.7361
66 1 15.527 53.9067 39.0482
67 1 15.7071 52.9299 38.8506
68 1 16.4117 52.3233 38.978
134 1 25.5779 24.7538 37.0168
485 1 22.0722 23.1476 37.443
492 1 22.739 24.8335 36.6047
136 1 25.0724 23.0766 37.4884
131 1 24.08 23.4577 37.1736
133 1 24.8868 24.661 36.2548
132 1 24.5785 24.3106 37.1648
488 1 20.302 24.0712 36.9961
486 1 21.5249 22.9217 36.6712
484 1 21.1794 22.6803 37.9069
494 1 22.3604 24.0318 38.0497
129 1 23.3997 22.6833 37.2031
128 1 23.0439 23.3965 36.7682
497 1 24.0001 24.038 38.2378
489 1 21.217 24.3255 37.0342
482 1 21.1984 23.7754 38.841
483 1 21.1751 23.7481 37.8684
328 1 21.5893 25.0917 39.9211
498 1 23.8815 24.7625 38.9305
327 1 22.2018 24.7439 39.1505
496 1 23.41 24.4193 37.4128
80 1 17.4007 52.7149 40.4344
74 1 15.995 51.4032 39.2191
71 1 17.5156 52.6727 38.1787
69 1 16.2186 52.1007 37.8954
70 1 17.1551 52.1955 37.4223
14 1 45.504 18.7611 42.9107
12 1 46.4985 18.4995 43.3932
13 1 45.6632 18.7907 43.8759
15 1 46.3241 19.0095 42.4437
10 1 47.3614 18.1265 42.124
135 1 25.5032 23.728 36.7473
138 1 23.8666 21.8895 36.8679
137 1 24.896 22.2441 36.9172
130 1 24.0701 23.026 37.9998
487 1 20.537 23.1778 36.7303
122 1 22.6414 20.5862 37.3273
127 1 22.4922 22.5284 36.7692
126 1 22.8362 21.489 36.6235
125 1 21.853 21.5549 36.8596
121 1 23.2235 19.9316 37.7982
124 1 22.0643 22.0016 37.8646
481 1 21.8316 23.1645 38.7243
499 1 23.7347 24.8119 39.9042
500 1 23.0007 25.5379 39.8625
77 1 15.6419 52.1391 40.1483
78 1 16.3796 51.3003 40.2585
79 1 16.5468 52.1285 40.6307
76 1 14.7931 52.3849 39.7539
73 1 16.8537 51.4295 38.6535
75 1 15.0944 52.0217 39.0417
72 1 17.7668 51.7118 38.305
16 1 46.2102 19.5278 43.2413
17 1 46.5015 20.2208 42.6499
6 1 48.1686 19.8572 44.1008
3 1 47.2323 20.7222 43.5707
4 1 48.3589 21.1098 43.5294
7 1 48.0797 20.0227 43.0649
2 1 47.1467 19.6755 43.7396
11 1 47.306 18.4202 42.9591
1 1 47.4293 18.7333 43.9152
9 1 47.419 19.0633 41.7267
8 1 47.5744 19.3801 42.7438
139 1 24.043 22.6475 36.3206
140 1 23.2387 22.4606 36.0015
123 1 21.9909 21.0282 38.0145
460 1 5.80425 37.0704 42.0307
459 1 6.40561 36.2298 41.9093
454 1 6.98709 35.0225 43.4389
458 1 5.73436 35.9764 41.3071
453 1 6.22036 35.1322 42.6472
455 1 7.21166 34.8369 42.5322
436 1 39.2092 14.3874 38.8161
437 1 39.1085 13.5103 39.247
435 1 38.8892 14.565 39.6687
434 1 38.5477 14.5048 40.5398
433 1 38.318 13.618 40.2055
432 1 38.0351 13.9903 39.3562
429 1 39.1757 15.4787 38.3878
18 1 47.0543 20.2378 41.8622
5 1 48.9386 20.4407 44.1248
441 1 6.76497 35.6027 40.9368
452 1 5.4929 35.5976 42.3507
450 1 4.95011 35.7734 40.6976
451 1 4.86684 35.1964 41.629
449 1 5.02567 34.6872 40.6952
457 1 6.01471 35.1372 41.532
448 1 5.6707 33.9059 41.0112
456 1 6.98407 34.7243 41.6279
438 1 39.8847 13.498 38.5467
440 1 40.4701 14.7503 38.8403
439 1 40.0151 14.2849 37.9113
421 1 37.2048 14.4514 38.3547
431 1 37.705 14.9604 39.5585
430 1 38.2616 15.2517 38.6743
423 1 38.8074 14.8863 37.5271
424 1 37.8652 14.9275 37.4347
427 1 39.0142 16.0771 37.1669
428 1 39.791 15.5903 37.5934
426 1 38.0587 16.5276 37.6105
425 1 37.5132 15.7886 37.8286
20 1 46.2529 21.0043 42.1468
19 1 46.2503 20.2886 41.316
446 1 5.42817 35.1148 39.6113
445 1 5.99855 35.1578 40.3975
442 1 7.00632 36.6118 40.8587
447 1 5.54706 34.1598 40.0691
443 1 6.08647 36.9285 40.5126
422 1 38.2993 14.2696 38.2844
444 1 6.30216 36.0795 40.0886
153 1 4.35732 14.9297 48.2584
155 1 5.11768 13.2657 49.0418
154 1 4.90055 14.2105 48.8421
141 1 2.9527 14.5486 48.8072
156 1 4.90506 13.3801 48.0597
152 1 5.27331 14.8439 47.9522
151 1 4.75943 14.2659 47.426
150 1 4.95598 14.2472 46.5498
157 1 5.87126 13.6054 48.333
158 1 6.26555 14.4803 48.2528
142 1 3.82183 14.3711 49.2898
143 1 3.87864 13.8886 48.4043
144 1 3.54444 14.4652 47.6638
145 1 3.59382 13.4582 47.2976
146 1 3.19585 13.6868 46.322
159 1 5.76564 14.8029 48.9583
160 1 5.99534 15.7197 48.6404
149 1 4.99527 13.2839 46.6377
148 1 4.47178 13.4482 45.7145
147 1 3.57193 13.0259 45.8209
34 1 36.8619 13.5422 56.7643
33 1 36.736 12.9139 56.0198
32 1 37.7156 13.3362 56.0513
29 1 36.4784 14.5845 56.2122
28 1 35.9301 14.7771 57.093
25 1 35.0735 13.4009 57.2359
31 1 37.8104 13.8696 56.9738
24 1 35.7281 13.901 56.7064
30 1 37.1967 14.6066 56.9609
27 1 34.8977 15.0785 56.9121
35 1 37.173 13.49 57.7911
40 1 37.0916 11.367 56.0051
36 1 36.3545 13.924 58.2308
37 1 36.1734 12.8589 58.0375
26 1 35.0309 14.3319 57.5616
39 1 37.2393 11.9826 56.748
22 1 35.9742 12.7364 56.8165
23 1 35.3924 13.2032 56.094
38 1 36.8394 12.529 57.4674
21 1 35.3837 12.0864 56.5205
ITEM: TIMESTEP
11000
ITEM: NUMBER OF ATOMS
500
ITEM: BOX BOUNDS pp pp pp
0.0000000000000000e+00 6.0000000000000000e+01
0.0000000000000000e+00 6.0000000000000000e+01
0.0000000000000000e+00 6.0000000000000000e+01
ITEM: ATOMS id type x y z
239 1 17.9647 6.94034 0.38058
231 1 20.1568 7.43727 2.71767
230 1 19.8579 8.40966 2.54431
238 1 17.9909 6.15412 59.9124
229 1 20.0199 8.24826 1.48392
237 1 18.9552 5.69486 0.113938
236 1 18.5802 6.09277 0.997835
240 1 17.0959 7.12586 0.907465
228 1 20.1264 8.71124 0.693494
232 1 19.2757 7.46598 2.48951
233 1 18.4249 6.97582 2.28076
222 1 18.9693 6.77532 0.142874
235 1 19.5354 6.43684 1.17716
226 1 18.2884 8.07027 0.971424
227 1 19.2102 8.48519 1.08153
221 1 19.0756 6.99996 59.2664
234 1 19.0886 7.14271 1.51959
225 1 17.8534 8.0888 0.0810035
224 1 18.8127 7.80429 59.8993
223 1 19.5818 7.59282 0.519821
111 1 9.37909 46.5019 7.80966
102 1 8.69051 47.6932 6.93846
110 1 8.55484 47.1501 7.74906
103 1 9.52181 47.5727 7.40149
105 1 10.1575 48.9349 6.76505
104 1 9.43749 48.5691 7.42891
109 1 9.20688 47.6089 8.41935
112 1 10.255 46.8739 7.19307
113 1 9.31991 46.7644 6.71937
101 1 7.95181 47.0938 6.90999
108 1 10.2267 47.4947 8.27823
107 1 10.2839 48.3925 7.95242
117 1 8.57214 48.4203 5.08382
119 1 10.2609 48.1644 5.75177
120 1 9.43138 48.2084 6.29226
106 1 10.3516 48.0772 7.01556
118 1 9.5417 48.2117 5.08216
115 1 9.16855 47.1494 5.68904
114 1 9.98301 47.1169 6.17752
116 1 8.55909 47.761 5.85891
293 1 47.2566 43.8344 18.2593
294 1 46.5601 43.1164 18.157
290 1 46.7941 43.2764 17.0431
291 1 47.7435 43.5357 17.0366
289 1 46.9926 44.1217 16.4304
300 1 45.1672 43.9109 16.6432
292 1 47.5586 42.9592 17.9177
299 1 45.4146 43.4266 17.4324
295 1 46.0114 43.7651 18.5302
297 1 45.7327 42.2941 18.1177
298 1 45.9805 42.5949 17.2182
288 1 46.4186 44.0889 15.6146
287 1 46.0941 43.3709 16.237
285 1 45.5141 42.3284 15.1931
284 1 45.1494 42.9258 14.4589
296 1 45.7016 43.038 18.8174
282 1 45.2794 42.7502 16.103
283 1 44.9158 43.3749 15.4191
246 1 56.3903 40.6703 19.5821
248 1 55.4218 41.8658 20.2018
249 1 56.0429 42.1375 19.362
286 1 46.2659 42.9817 15.2791
162 1 53.4667 41.0535 17.9223
250 1 55.0849 41.9383 19.1036
161 1 54.3533 40.689 18.3931
281 1 44.9265 41.8123 15.8557
360 1 10.6475 32.5873 20.5087
359 1 11.0761 32.917 21.2773
254 1 54.3252 40.7289 20.3609
253 1 55.284 40.4006 20.3671
244 1 55.4145 40.1708 18.8878
245 1 55.9891 39.6524 19.3771
252 1 55.2368 41.0348 19.6078
247 1 56.008 41.3121 20.1545
251 1 55.6595 41.2007 18.7346
173 1 53.7314 41.8346 20.6476
172 1 54.6464 41.7624 21.0873
243 1 55.3591 39.2508 18.3653
241 1 54.5798 40.3406 19.4169
170 1 54.8804 42.82 19.8055
171 1 54.8838 42.6242 20.7766
163 1 53.4918 40.0875 18.1318
164 1 52.7248 40.4274 18.6245
169 1 54.1593 42.44 20.0203
168 1 54.253 41.5221 19.8214
165 1 53.501 40.5758 19.1676
358 1 11.3549 32.0683 21.6926
350 1 9.79251 32.0489 23.8415
348 1 10.1963 30.2812 24.2316
349 1 10.2669 31.1507 23.9063
357 1 10.4261 31.7799 21.3632
356 1 10.327 32.4655 21.9658
355 1 9.57548 32.5824 22.6064
89 1 11.004 31.9362 24.7246
88 1 11.3004 32.466 23.8967
81 1 8.49985 32.5675 24.1911
258 1 52.3086 41.6263 22.3974
256 1 53.6494 41.9972 21.6751
242 1 54.7065 39.2779 19.0069
176 1 52.3017 40.9817 21.3671
257 1 53.2177 41.2272 22.0052
175 1 52.7986 41.7721 21.0128
255 1 54.0021 41.0024 21.3003
178 1 52.3948 39.9767 20.8214
177 1 53.1152 40.4022 21.232
179 1 52.5002 39.9457 19.7306
174 1 52.9909 42.5563 20.7127
166 1 53.0905 41.4959 19.2342
167 1 54.0257 41.6867 18.9327
352 1 9.11438 30.951 23.1791
353 1 9.6998 31.3579 22.5386
341 1 12.1415 32.0314 25.5799
347 1 10.1847 30.4495 23.2416
346 1 11.1418 30.6392 23.2489
345 1 10.8349 31.4837 22.8029
87 1 10.9264 32.5577 22.9539
351 1 8.87488 31.8696 23.2862
354 1 9.28569 31.9396 21.9417
343 1 12.2418 32.0784 23.9676
342 1 11.8083 32.6429 24.8526
90 1 10.8773 30.9878 24.8021
86 1 11.0084 33.5241 23.0324
84 1 10.4692 33.1483 23.8726
83 1 10.0307 33.2774 23.1141
96 1 9.981 32.5175 24.6868
97 1 10.7583 32.8681 25.0533
91 1 9.96752 30.6661 25.1608
93 1 9.11561 31.3354 24.5992
82 1 9.13787 32.9461 23.6357
94 1 8.7651 31.3861 25.5977
95 1 9.40948 32.1505 25.4592
259 1 51.8513 40.8246 22.2752
260 1 52.1186 39.811 22.1887
180 1 52.5707 40.8252 20.304
344 1 11.6815 31.5558 23.2279
99 1 11.8119 33.788 24.865
85 1 11.319 33.5823 23.99
98 1 11.3549 33.0959 25.5743
100 1 11.1932 34.6891 25.1118
92 1 10.0085 31.5744 24.835
214 1 55.094 31.7423 28.7209
215 1 54.3403 31.1245 28.932
212 1 56.6683 32.0036 28.216
216 1 54.4191 31.2441 27.9635
208 1 58.4868 31.7545 28.7894
316 1 58.7424 58.4182 29.1807
315 1 58.0651 58.0322 29.8876
461 1 26.6689 7.35368 29.2547
56 1 47.9222 21.7228 29.3249
57 1 48.7378 21.3017 29.0963
49 1 49.6177 21.1075 30.0913
47 1 49.6646 19.9629 30.4631
46 1 50.5029 20.2165 29.9124
44 1 49.7785 18.9971 29.5275
211 1 56.7805 32.3795 29.1923
219 1 55.0613 30.5112 28.3705
204 1 56.2713 30.2121 28.9387
217 1 55.1132 31.7258 27.4413
218 1 55.7565 31.1449 28.1479
209 1 58.0827 32.6572 28.999
210 1 57.5729 32.246 29.731
189 1 56.2203 31.436 29.1102
213 1 55.8295 32.3782 28.3674
207 1 57.5006 31.5802 28.8447
206 1 57.677 30.6134 28.6917
196 1 59.8694 31.245 30.7592
194 1 58.51 32.102 30.2312
193 1 58.7695 31.1982 30.037
200 1 58.179 29.8127 29.4053
195 1 59.0838 31.7146 30.9326
197 1 58.9646 30.6306 30.9079
374 1 33.6695 52.9565 29.0346
378 1 31.9592 54.343 28.9159
375 1 32.8881 52.9221 28.4054
376 1 32.303 53.5708 28.291
370 1 33.126 51.6626 29.7975
379 1 32.9313 54.3154 28.7726
369 1 33.9978 51.2625 29.9434
318 1 59.3508 57.8633 29.9501
301 1 57.2667 59.2817 28.443
317 1 59.4588 58.8087 29.785
320 1 0.060281 58.9193 28.9168
302 1 58.1162 59.2686 29.0405
310 1 57.3094 57.4344 30.4815
303 1 58.1575 0.158591 29.4469
313 1 58.5233 58.6046 30.6217
314 1 58.3528 57.6106 30.7899
304 1 58.6551 59.4886 29.9675
473 1 27.2524 7.63959 32.2343
463 1 25.6377 8.51232 29.6526
464 1 24.9819 8.29015 30.5141
465 1 24.9229 7.57101 31.052
466 1 25.7857 7.86919 31.3217
474 1 27.7564 6.79197 32.0195
462 1 25.6387 7.53433 29.2287
414 1 27.2992 9.66892 30.2723
413 1 26.3899 9.44865 29.7312
412 1 26.9985 8.70761 29.729
411 1 27.0196 8.72881 30.6975
55 1 46.8954 21.5612 29.34
58 1 48.3108 20.4546 29.0675
59 1 48.2115 19.7674 29.8175
60 1 49.1463 20.0947 29.5962
50 1 48.8364 21.8055 30.3
48 1 49.0075 20.6679 30.7448
45 1 50.1407 19.9976 29.0201
43 1 50.7944 19.0711 29.8566
42 1 50.9872 19.2255 28.8502
41 1 50.9121 18.7962 27.9572
187 1 54.876 30.5078 29.6691
220 1 55.2921 29.5388 28.501
203 1 56.2 30.1249 27.8981
202 1 56.507 29.2907 28.2242
201 1 57.2376 29.9528 27.9616
182 1 57.0574 29.9425 29.5676
188 1 55.643 31.0302 29.6111
183 1 56.0989 30.2497 29.9665
181 1 57.1728 30.4461 30.5066
205 1 56.8342 30.8748 28.2131
190 1 56.8605 31.2155 29.6434
191 1 57.8061 31.1519 29.9434
192 1 58.1375 31.2587 30.8317
198 1 58.4219 30.0653 31.4563
199 1 58.2822 29.7782 30.4436
373 1 34.2089 52.2879 29.4342
377 1 31.7547 53.3254 28.9185
364 1 32.4461 52.5694 29.6328
372 1 34.2426 51.9194 28.4842
371 1 33.322 51.8711 28.869
380 1 32.7136 53.4761 29.3159
363 1 31.4073 52.8146 29.873
367 1 33.8726 52.1994 30.6785
368 1 33.4217 51.3697 30.7225
362 1 30.692 53.321 30.2897
361 1 30.4767 53.3274 29.1766
309 1 58.0307 56.9298 29.9119
319 1 59.6718 57.9884 28.968
307 1 57.1478 58.4041 29.507
311 1 57.3291 58.3569 30.8776
312 1 58.0936 58.6185 31.4617
306 1 56.6374 58.9298 30.3173
305 1 57.694 59.3598 30.2301
472 1 26.2067 7.71704 32.2804
468 1 26.0344 8.78097 30.7007
467 1 25.922 7.88947 30.3585
470 1 24.5764 8.13124 31.8342
471 1 25.3129 7.94924 32.4853
475 1 27.0804 7.16731 31.3787
476 1 27.5192 7.64231 30.5978
408 1 28.8856 8.10657 29.1925
477 1 27.7046 7.32487 29.5733
415 1 27.1592 9.49508 31.2866
469 1 25.1997 8.77405 31.4722
402 1 28.0054 8.59253 31.2411
478 1 28.123 6.54557 29.0469
404 1 28.2448 9.70152 30.0238
410 1 27.8741 8.48729 30.1933
405 1 27.965 9.07157 29.2535
479 1 28.8617 7.10798 29.0665
480 1 28.8483 7.4399 28.214
417 1 27.257 8.61376 32.57
416 1 27.7528 9.41341 32.0818
403 1 28.528 9.47686 30.8748
54 1 47.2574 22.2642 29.9093
53 1 47.2592 21.3338 30.3567
51 1 48.2736 20.9256 30.0631
52 1 47.387 20.5346 29.6374
186 1 54.4845 29.6126 29.419
185 1 55.1925 28.9631 29.717
184 1 56.1082 29.2709 29.861
365 1 33.1856 52.873 30.0854
366 1 32.9482 52.2394 30.8768
308 1 57.4412 57.4072 29.2686
407 1 28.6366 8.48814 28.306
409 1 28.9018 8.73215 30.0408
406 1 27.8105 8.18262 28.9034
419 1 25.8326 9.03532 32.4946
418 1 26.497 8.80605 31.7468
401 1 28.9056 8.39889 31.1291
420 1 25.7126 9.8374 31.8501
382 1 46.2496 28.3318 36.5947
381 1 45.8063 27.5586 36.3171
383 1 47.1376 28.6782 36.8255
400 1 46.8532 29.9924 34.2362
279 1 45.4782 29.1421 34.9058
399 1 46.2925 30.3121 35.0779
398 1 45.5536 30.3232 34.6419
277 1 45.1659 28.635 35.9688
276 1 44.4198 28.8738 36.4991
278 1 44.5606 28.7385 35.2359
384 1 46.972 28.8448 35.8541
395 1 44.999 29.8823 36.2536
280 1 45.905 29.3904 35.8423
396 1 44.0593 29.619 35.798
397 1 44.4665 30.0839 34.9238
394 1 45.0868 29.9173 37.3115
385 1 47.9361 29.2079 36.2113
393 1 45.193 28.8777 37.2377
427 1 39.8355 19.1412 34.0103
127 1 24.135 24.1373 34.7288
126 1 23.5766 23.3589 35.2948
125 1 23.2902 22.671 34.4867
138 1 24.4886 24.9514 36.5397
139 1 24.1366 24.5559 35.7065
140 1 24.0332 23.6259 36.1779
137 1 24.4928 24.1356 37.0653
488 1 21.8101 22.8187 36.3568
487 1 21.6886 22.8668 35.3683
486 1 22.4755 22.4931 35.5572
128 1 23.0665 24.0794 34.7539
135 1 23.6293 23.2692 37.0334
490 1 21.1068 23.4326 37.1875
322 1 19.8396 22.7088 39.9029
321 1 19.9648 21.9546 39.3191
489 1 21.3588 23.7023 36.2113
491 1 21.1338 22.5097 37.1815
492 1 21.3775 21.4916 36.9464
134 1 23.5962 22.3675 37.6478
133 1 22.8379 22.9659 37.6667
132 1 22.1008 23.4546 37.3898
334 1 19.7104 23.1093 38.8358
335 1 19.4894 24.0075 38.2945
336 1 19.8302 24.6279 37.6778
337 1 20.3679 24.3899 38.5804
391 1 45.4924 28.9744 38.2207
275 1 44.2158 28.3491 37.3562
273 1 44.3495 29.5563 38.0925
274 1 43.6382 29.0038 37.8931
392 1 45.1696 28.1791 37.909
271 1 43.9091 29.7281 39.0855
386 1 47.2476 29.9359 36.7625
388 1 46.0474 30.2896 36.7872
387 1 46.7326 30.0551 36.0119
272 1 44.4181 29.019 38.9997
438 1 40.1344 17.8919 33.3768
421 1 41.9098 17.8799 33.9991
424 1 40.0091 18.3262 35.8726
422 1 41.7359 18.3837 34.7111
429 1 41.1759 19.2405 34.8068
423 1 40.7671 18.3227 35.2086
428 1 40.4358 19.8801 34.4469
439 1 40.111 17.2354 32.6953
426 1 39.5131 18.7867 34.8597
425 1 39.5136 17.888 35.0261
121 1 24.5035 22.134 34.7294
122 1 24.5201 23.1013 34.7922
123 1 24.5154 22.7001 35.7487
484 1 22.6212 22.1912 36.9702
124 1 23.6502 22.2762 35.3914
129 1 22.4556 23.4261 34.9226
483 1 22.2996 21.408 36.289
485 1 23.1444 22.6489 36.3049
494 1 21.087 21.8396 38.1764
495 1 21.8996 22.5267 38.0106
131 1 22.7165 23.6146 36.6949
497 1 22.6322 20.976 38.7209
130 1 22.5416 23.8719 35.6792
136 1 23.4866 24.2187 37.2573
323 1 20.6383 22.1059 40.217
493 1 21.638 21.2672 37.7215
324 1 21.0623 21.4458 39.5937
326 1 21.8449 21.7857 38.9237
338 1 20.3879 23.6129 37.857
496 1 22.6241 22.0099 38.2163
331 1 20.9128 23.3639 40.4374
332 1 20.5632 23.3976 39.4733
333 1 19.5278 23.7841 39.5581
325 1 21.0515 22.3542 39.1453
340 1 21.4099 24.1196 38.0655
339 1 21.1567 23.1269 38.3698
262 1 45.1275 30.2171 40.1201
390 1 46.0474 28.5189 37.6438
270 1 44.0996 30.6201 38.7689
268 1 42.7533 30.8783 38.1254
269 1 43.343 30.1601 38.2734
261 1 44.9164 30.0678 39.1101
389 1 46.1302 29.3516 36.9754
69 1 16.2751 54.8396 39.7285
70 1 16.3633 54.3115 38.8706
71 1 15.4215 54.6351 39.0644
72 1 14.7876 54.2739 39.8182
61 1 17.3045 54.3689 44.3871
432 1 41.621 19.2178 32.7453
437 1 40.6078 18.4527 34.1012
431 1 42.2445 19.7281 33.408
430 1 42.002 19.6732 34.4037
436 1 41.5215 18.836 33.8447
435 1 40.6953 19.1926 33.3731
440 1 40.6618 16.6418 33.2888
482 1 23.1351 20.9528 36.2687
481 1 23.0576 21.4368 35.3936
329 1 21.6371 23.9182 39.0364
328 1 21.6395 23.0831 39.634
327 1 22.2057 22.7683 38.9707
498 1 23.5808 21.1108 39.1094
499 1 23.0433 21.9088 39.296
500 1 22.4656 22.0424 39.9532
330 1 21.2596 24.2545 39.8565
263 1 45.1482 31.0508 39.4075
266 1 43.482 32.0845 39.0854
267 1 42.7551 31.6732 38.5918
265 1 44.4639 31.7781 39.4387
264 1 44.2295 31.0379 39.6994
446 1 11.0625 36.7894 41.607
74 1 15.6014 53.0122 39.9838
76 1 17.3613 53.6311 39.5081
75 1 16.4821 53.6093 39.8189
68 1 15.8331 54.3321 40.4317
73 1 15.2291 53.7335 39.4603
63 1 16.7299 54.596 43.4829
62 1 17.1465 55.2935 44.0811
65 1 16.6315 54.9542 42.0221
66 1 15.7532 54.573 41.5746
67 1 16.3544 55.122 40.8793
433 1 41.0489 18.7618 32.1481
434 1 41.1053 18.3283 33.0192
19 1 44.6474 19.6006 44.8329
448 1 9.40951 37.2347 41.2553
447 1 10.1694 37.0779 41.8679
449 1 9.07357 36.4082 41.8309
441 1 10.4939 35.2917 40.1149
445 1 10.6941 36.1962 40.8359
450 1 8.72489 35.8583 41.1613
458 1 10.2137 36.3355 39.5913
442 1 9.8157 34.4864 40.0513
443 1 9.98004 34.8139 41.0608
444 1 10.6104 35.4911 41.2773
78 1 17.1909 54.3398 40.1323
77 1 17.5358 54.6349 39.2732
79 1 16.9007 53.8282 40.8708
80 1 16.7881 52.9574 41.3339
64 1 16.0717 54.5108 42.7565
10 1 42.1565 21.4311 45.3912
15 1 42.9512 20.5009 45.0441
9 1 42.8006 21.0652 46.0488
8 1 43.1851 21.8183 45.5278
17 1 44.0647 20.2133 46.2688
18 1 44.8556 19.6687 45.8513
20 1 43.8773 19.5712 44.4254
452 1 8.45786 36.0382 39.5816
451 1 8.25347 36.2566 40.4787
453 1 7.89914 36.3118 38.8214
457 1 9.53854 36.2311 40.3517
456 1 9.17862 36.8447 39.6431
455 1 8.20525 37.4006 39.4809
460 1 8.84575 35.1738 40.1211
459 1 9.51687 35.6004 39.5316
12 1 42.9824 20.9935 44.034
11 1 42.5539 21.8343 44.5506
14 1 41.9137 20.4479 44.5284
13 1 42.6783 20.0684 43.9457
16 1 43.9302 20.3033 45.3427
2 1 44.6738 20.4833 44.4262
6 1 44.0755 21.3341 46.1128
1 1 45.3696 20.9829 44.3703
3 1 44.6786 21.0306 45.1976
4 1 44.2237 21.6373 44.5133
7 1 43.4185 21.9122 46.4255
5 1 44.2015 21.9291 45.3616
454 1 8.61502 37.0466 38.6582
146 1 7.03697 14.2031 49.2793
147 1 6.42825 13.4843 49.1014
150 1 6.03838 15.1769 48.5806
149 1 5.75876 14.1799 48.3846
148 1 6.07186 14.3319 49.3596
143 1 8.09907 14.055 49.0961
145 1 6.9536 15.1754 49.3669
156 1 5.70041 13.0562 48.2421
157 1 5.17126 13.689 47.6758
144 1 7.71423 14.9448 48.6994
153 1 6.52804 13.9941 47.5711
152 1 7.19963 14.148 48.3057
151 1 6.82598 14.9973 48.121
158 1 5.44255 14.4181 47.0966
155 1 6.68401 12.992 48.1203
154 1 6.17724 13.1108 47.329
141 1 7.02236 12.8552 49.9815
142 1 7.64759 13.2541 49.2334
159 1 5.79853 13.7501 46.5125
160 1 6.4861 13.07 46.1027
40 1 36.1522 13.6114 59.7605
21 1 37.1293 12.6516 55.8669
22 1 36.8615 13.6084 56.3128
39 1 36.3466 14.1321 59.0787
23 1 37.8588 13.6902 56.4375
34 1 35.8236 12.9593 57.77
33 1 36.3197 13.805 57.5326
24 1 37.3453 13.5756 57.2144
32 1 35.7155 14.2601 58.1912
31 1 35.429 13.4949 58.7302
27 1 37.3557 11.7565 58.2836
29 1 36.3221 11.6008 59.1075
28 1 37.2311 12.2745 59.1305
30 1 35.8233 12.4749 58.8328
38 1 36.6459 13.2144 58.8493
25 1 37.3257 12.7488 56.9407
35 1 36.6352 12.6446 57.8327
36 1 37.4448 12.851 58.1977
37 1 37.3252 13.7902 58.4176
26 1 37.0605 11.8068 57.404
ITEM: TIMESTEP
12000
ITEM: NUMBER OF ATOMS
500
ITEM: BOX BOUNDS pp pp pp
0.0000000000000000e+00 6.0000000000000000e+01
0.0000000000000000e+00 6.0000000000000000e+01
0.0000000000000000e+00 6.0000000000000000e+01
ITEM: ATOMS id type x y z
237 1 20.0654 6.48704 58.3864
240 1 21.2965 5.22714 59.0959
239 1 20.5863 5.53831 59.3115
236 1 19.3036 6.34831 57.8104
222 1 17.1844 6.51913 59.3237
235 1 19.2216 5.72742 58.4018
226 1 18.1625 6.58727 57.6543
225 1 18.386 6.37484 58.5794
227 1 17.983 5.62309 57.8582
223 1 17.3233 5.92155 58.6758
228 1 18.048 5.4558 56.8919
233 1 19.8678 4.97746 58.0081
234 1 18.9544 5.17407 57.6363
230 1 19.1653 4.39929 56.903
232 1 20.0482 5.31249 57.1552
231 1 20.2052 4.40598 57.1712
229 1 18.5238 4.8077 56.2566
117 1 8.24038 48.8671 5.2647
118 1 7.61332 49.5825 4.81811
115 1 7.96743 47.8966 6.04594
101 1 8.9895 48.0014 5.51335
113 1 8.26747 46.8185 5.22977
114 1 7.41138 47.2031 5.58887
116 1 7.45066 48.6317 5.76912
102 1 8.99512 48.4394 4.61391
120 1 7.96819 47.9287 5.01671
119 1 7.57885 48.6868 4.44263
106 1 8.67246 46.4206 4.10306
105 1 7.87991 47.0442 4.22888
111 1 9.74212 47.4478 4.67891
112 1 8.77814 47.3313 4.57898
110 1 9.77855 47.9087 3.82812
103 1 8.87091 48.5544 3.64789
104 1 8.2449 47.7653 3.78534
109 1 10.0765 47.4967 2.97844
108 1 10.084 46.8455 3.74716
107 1 9.09501 46.9944 3.57569
285 1 46.3773 45.2208 18.14
284 1 46.6413 44.685 17.3491
283 1 46.0834 44.4685 16.601
288 1 45.6102 44.4375 17.5863
286 1 46.752 44.6181 18.9299
282 1 46.9576 43.9629 16.5312
281 1 46.7097 42.8744 16.7147
300 1 44.706 44.1636 16.4512
290 1 45.6573 42.9565 16.5726
289 1 45.3477 43.4539 17.3986
287 1 45.9794 44.0899 18.4718
291 1 45.5185 41.9368 16.9413
243 1 52.9939 40.3133 20.8224
162 1 54.7262 40.2209 18.2859
163 1 54.239 39.4896 18.6638
161 1 54.6005 40.0079 17.3069
297 1 46.4861 43.8072 15.5869
298 1 45.8378 43.0952 15.5884
299 1 45.3223 43.9319 15.7114
294 1 44.769 42.6157 15.0544
295 1 45.2351 43.2854 14.5278
293 1 44.7849 43.0375 16.0366
292 1 45.4132 42.1491 15.9053
179 1 52.7876 38.9138 18.0092
242 1 53.4727 39.5077 20.5324
245 1 53.5465 40.8577 20.1183
164 1 53.3791 39.8605 18.7939
165 1 53.465 39.7861 17.7829
244 1 53.7846 41.2302 20.9358
252 1 53.1191 40.9542 18.5363
251 1 53.9517 41.4644 18.3222
241 1 54.2286 40.0517 20.1145
246 1 53.9733 41.0071 19.2195
168 1 52.0138 40.7537 18.1758
166 1 52.7213 40.4503 17.4327
167 1 52.3677 39.8995 18.1151
250 1 53.2404 41.454 17.6458
170 1 50.9339 40.8934 17.659
249 1 52.4321 41.7578 18.2246
296 1 46.1839 43.5871 14.6809
360 1 7.20725 33.8609 23.8328
357 1 7.68739 31.9374 23.9634
359 1 7.69139 33.1195 23.9288
178 1 52.5727 38.3099 18.7295
176 1 51.6716 39.1321 18.9677
180 1 52.3451 39.2928 17.2738
255 1 51.6704 41.5349 20.4216
177 1 52.73 39.0749 19.337
254 1 52.5867 41.6131 20.1419
253 1 52.6854 41.1765 19.2247
247 1 53.7039 41.8977 19.552
175 1 51.2582 39.0955 18.1103
173 1 50.7886 40.8663 18.9812
169 1 51.4853 40.1828 17.3693
174 1 51.1575 40.0101 18.4361
248 1 53.1359 42.3725 18.6239
172 1 51.6291 41.4633 19.3419
171 1 51.3261 41.5157 18.2804
353 1 7.49928 30.1154 22.5986
355 1 7.67973 30.6084 23.791
354 1 6.90599 30.0965 23.4333
358 1 8.2929 32.4225 23.534
356 1 7.13752 31.1369 24.3233
345 1 9.01803 31.6809 22.9981
260 1 51.6746 39.6798 20.3811
259 1 51.0986 40.2478 20.9126
257 1 51.8033 40.4435 19.2337
258 1 51.151 40.7125 19.97
256 1 52.2217 40.7102 20.2474
352 1 8.24664 30.5601 22.8235
348 1 8.40177 30.4539 21.7758
349 1 8.6494 29.4519 21.818
347 1 9.07399 31.1249 22.0103
346 1 9.38638 30.6735 22.9156
81 1 7.25253 29.7973 24.5235
350 1 8.41708 29.428 22.8242
351 1 8.82162 30.0094 23.4906
88 1 8.89525 31.5753 24.5513
87 1 8.69703 32.4943 24.8593
343 1 10.0957 32.9274 23.9286
344 1 9.65699 31.9558 23.7433
82 1 7.11164 30.4155 25.1495
86 1 8.27769 32.4248 25.7711
84 1 8.03345 30.9285 25.3032
83 1 7.63147 30.3774 25.9286
85 1 8.03019 31.4729 26.1534
91 1 9.97047 30.6927 25.2399
93 1 9.59739 29.7437 24.9323
94 1 8.8321 30.3353 25.1822
90 1 9.62839 30.6642 24.321
96 1 9.30506 31.9249 25.8436
95 1 9.1617 30.8518 25.8455
89 1 8.84411 31.0305 23.7787
92 1 9.94771 29.8597 25.7805
341 1 10.3098 32.5862 22.4315
342 1 10.3343 33.4152 23.0351
97 1 9.74774 32.2303 25.0294
98 1 9.84238 33.12 25.4981
99 1 9.49564 33.8193 24.6972
100 1 10.0403 34.6372 24.3522
480 1 23.6828 5.6724 30.7115
407 1 26.1362 8.62037 29.4493
41 1 48.0378 19.8238 30.4214
220 1 57.8876 32.5557 30.4972
202 1 58.4241 31.6538 29.8557
201 1 57.5773 31.8182 29.5238
216 1 58.578 31.3077 31.7055
219 1 58.7411 32.1408 30.9541
218 1 58.2532 32.6611 31.5904
203 1 59.0094 32.2621 29.177
205 1 59.4529 31.3247 29.9797
217 1 57.9676 31.782 32.1944
212 1 0.414073 29.6554 31.1401
213 1 0.37777 30.6839 31.0527
372 1 32.1167 53.1235 30.1808
376 1 32.4421 55.3632 31.2413
375 1 32.303 54.6439 30.547
301 1 58.045 0.645099 31.7708
303 1 57.2363 0.183579 32.5732
478 1 24.8842 6.29613 29.5941
479 1 24.0947 5.63456 29.7675
463 1 25.2441 8.28715 30.4894
462 1 25.6321 9.09728 30.2181
461 1 24.7249 9.33178 29.7413
477 1 24.619 6.21797 30.5402
406 1 26.9746 9.06385 29.8552
408 1 25.1168 8.28895 29.304
413 1 26.3506 8.29813 30.4759
412 1 26.0697 7.52774 29.9037
405 1 27.3286 8.48202 30.4561
59 1 51.2326 20.5697 29.089
44 1 50.3478 19.9997 29.4533
45 1 49.7594 20.0754 30.2401
43 1 49.367 20.2441 29.237
42 1 48.6568 20.4224 30.0095
58 1 51.8549 21.2329 29.532
52 1 52.1586 20.8338 30.9594
57 1 51.9514 22.0404 29.1897
60 1 50.4423 21.0606 29.4662
46 1 49.589 20.9864 30.5191
55 1 52.5841 21.5408 30.297
56 1 52.7356 22.2993 29.6465
54 1 51.9397 22.2378 30.5609
186 1 56.8709 31.0809 30.9749
185 1 56.7548 31.2293 32.033
182 1 56.2946 31.5164 29.91
184 1 56.6312 32.0426 31.3856
200 1 58.9185 30.1136 29.6182
215 1 59.2237 32.0018 31.9332
187 1 57.8481 31.6082 31.0457
188 1 57.6729 30.5929 31.5418
204 1 59.4928 32.3367 29.966
183 1 56.71 32.0889 30.3607
190 1 58.8352 30.6126 30.9364
206 1 0.291148 31.3034 29.6466
191 1 58.1267 30.7782 30.3756
214 1 59.6298 31.1723 31.4856
211 1 59.7226 29.9342 30.5403
189 1 58.413 29.9794 31.4425
208 1 0.237466 29.7388 28.6344
209 1 59.5205 29.3497 29.1217
210 1 59.781 29.028 30.0598
207 1 0.206605 30.7015 28.8426
369 1 32.1182 54.6725 29.2426
363 1 30.5694 54.7398 29.9428
364 1 31.3798 54.8988 30.2361
370 1 32.831 54.3365 29.6598
373 1 31.327 53.0821 30.7634
371 1 32.6376 53.3551 29.3427
361 1 30.6263 54.6263 31.1554
377 1 31.6156 54.8425 31.4948
380 1 32.2783 55.6504 30.202
374 1 31.755 53.8976 30.8254
378 1 31.4306 55.7954 31.4084
379 1 31.4097 55.9132 30.309
309 1 57.4533 59.8565 30.6374
315 1 57.0481 58.9729 31.1041
307 1 56.8517 0.745644 30.8441
308 1 57.0013 0.473919 29.935
316 1 56.8741 59.8636 31.6696
318 1 57.827 59.5411 31.719
319 1 58.7714 59.253 31.5853
320 1 58.4885 59.9579 30.8688
302 1 57.2221 0.869172 31.9475
317 1 57.024 59.0968 32.1487
304 1 56.3251 0.292643 32.7223
464 1 25.6083 8.14351 31.3762
465 1 24.9008 8.07855 32.1355
466 1 24.6053 7.61939 31.1807
467 1 25.017 6.76782 31.5296
475 1 25.7724 6.07062 30.3634
476 1 25.0946 5.36572 30.2201
410 1 24.9201 7.27128 29.8188
401 1 27.6664 7.77698 31.5177
411 1 25.6717 7.25237 30.6842
468 1 25.8243 6.42403 31.3391
414 1 26.3962 9.09661 30.978
415 1 26.8663 8.40503 31.5797
402 1 26.9635 7.42734 30.8521
404 1 27.5888 8.05308 29.6061
403 1 27.854 7.28377 30.3029
409 1 25.584 7.30787 29.014
47 1 50.4145 20.506 31.0037
53 1 51.8505 21.7767 31.4597
51 1 51.298 21.141 30.521
49 1 51.1074 19.5187 29.8212
48 1 50.779 19.6425 30.6348
50 1 51.5434 20.2259 30.2075
199 1 59.0166 30.9864 29.0456
181 1 57.1355 30.9874 29.8947
192 1 57.7713 29.7837 30.3278
196 1 57.1796 30.6546 28.7195
193 1 58.5002 29.1186 29.9309
197 1 57.9464 30.3443 28.1819
194 1 58.0936 29.6256 29.1
195 1 58.015 30.6175 29.2893
368 1 32.194 54.0529 28.5402
367 1 31.9416 53.2022 28.6308
366 1 31.306 53.034 29.369
362 1 30.1238 53.9577 30.5431
365 1 31.3639 53.9839 29.7742
310 1 57.3114 59.4008 29.8561
314 1 56.0743 59.0624 31.6256
311 1 56.2858 59.3291 29.6924
306 1 55.9 0.883451 31.0899
313 1 55.5948 59.7673 31.1605
305 1 56.0716 0.416552 31.9064
474 1 26.7292 6.41156 30.6935
470 1 25.6777 7.05843 32.5602
471 1 25.3851 6.06982 32.3451
472 1 26.3485 6.02082 32.1629
473 1 27.1573 6.24721 31.7069
469 1 26.304 7.1422 31.7283
420 1 25.2069 9.99793 31.9168
419 1 26.2898 10.3356 31.6012
418 1 27.3146 10.2809 31.5269
417 1 27.4096 9.29985 31.3579
416 1 26.9578 9.192 32.2708
439 1 45.062 21.4512 30.5995
433 1 41.5911 21.9284 29.2793
432 1 41.8791 22.5574 28.4995
198 1 58.963 30.1277 28.4828
312 1 56.2797 59.9089 30.5089
440 1 44.6107 21.6895 29.7883
438 1 44.0886 21.5144 30.771
437 1 43.0902 21.4958 30.6348
434 1 41.1735 22.8588 29.3196
421 1 43.1238 21.8582 29.3646
427 1 43.9833 22.5702 29.6494
435 1 41.5454 22.5655 30.2346
431 1 42.3071 22.7131 29.3058
436 1 42.2561 22.0121 30.1785
400 1 47.092 27.7337 36.242
425 1 43.4739 22.4997 28.6683
423 1 42.4 22.0132 27.5594
422 1 42.7429 21.6422 28.4517
426 1 44.2764 23.1236 28.7664
429 1 42.7756 22.9919 30.2037
428 1 43.335 23.214 29.4983
430 1 41.9515 23.5001 29.9195
486 1 21.176 22.5273 36.103
125 1 21.6709 25.1061 36.8706
124 1 21.2467 25.1274 37.7747
481 1 24.2248 21.6306 36.3834
121 1 21.9836 23.5645 38.9391
487 1 20.4998 21.8612 35.6549
129 1 20.4098 22.4844 36.8019
130 1 21.217 22.2345 37.1927
127 1 20.8863 23.9122 37.5838
126 1 21.768 24.1599 37.0869
128 1 20.1452 23.1587 37.5825
122 1 22.5749 23.7861 38.1572
139 1 22.4768 22.2313 38.8606
279 1 47.322 26.9322 37.5038
278 1 46.8052 27.8218 37.3778
398 1 46.518 29.1203 37.2016
397 1 47.0112 29.7178 37.5253
399 1 46.3498 28.3886 36.5241
424 1 42.8133 22.9369 27.8479
483 1 22.654 22.7137 35.9275
482 1 23.4162 22.114 36.2177
492 1 20.4853 20.8673 35.3814
488 1 20.8756 21.409 36.5096
484 1 22.0774 23.3293 36.376
485 1 21.2775 23.2301 36.8187
123 1 22.287 24.7799 38.0295
489 1 19.9143 21.2689 36.338
131 1 21.8891 21.8569 36.5253
140 1 21.6464 22.2827 39.1629
135 1 22.0321 23.1656 37.5012
137 1 22.8177 22.8348 38.0663
138 1 23.4325 22.3833 38.8817
382 1 48.4874 28.4506 38.0201
381 1 48.5954 27.7265 38.7245
396 1 46.7377 30.2718 38.265
277 1 46.1222 27.5709 37.9962
276 1 46.3382 26.5519 38.3809
395 1 46.518 29.3643 38.5721
383 1 48.3137 27.5026 37.6148
384 1 48.3251 28.297 36.9604
280 1 47.5149 27.6806 38.2399
389 1 47.7349 28.1212 39.5996
385 1 47.6637 28.9957 37.3274
386 1 47.5535 28.968 38.3601
388 1 48.5978 28.7079 39.8286
387 1 48.197 28.9717 38.9603
493 1 20.8209 20.3113 36.1296
491 1 19.523 21.0299 35.1901
494 1 21.7556 20.088 35.8821
495 1 21.4362 21.0547 35.6984
496 1 22.4426 21.3875 35.6243
134 1 22.8191 22.7963 36.9317
335 1 21.0848 20.7518 38.7267
490 1 19.2858 21.8732 35.731
338 1 20.5314 20.693 37.2904
340 1 21.803 21.1944 37.4621
339 1 21.21 20.2941 37.6238
133 1 22.3771 22.1572 37.3672
132 1 22.662 21.4061 36.8516
136 1 21.8261 22.5388 38.1154
336 1 21.0102 21.5339 38.1049
275 1 46.7786 27.3422 38.7804
392 1 46.0746 28.7134 40.5314
390 1 46.7033 28.2669 39.7888
274 1 46.017 27.9438 38.9791
394 1 45.9824 28.8462 39.3207
393 1 45.4085 28.1946 39.8838
391 1 47.0745 28.6 40.4333
273 1 46.8333 28.3597 38.6928
268 1 45.1886 29.4439 37.1956
269 1 44.7398 29.1887 38.1167
497 1 23.1939 20.7257 36.2074
498 1 23.9386 20.5462 36.9154
322 1 20.8125 18.0915 37.4176
321 1 20.3267 17.7232 38.1887
324 1 21.8221 19.5244 37.1101
325 1 22.5974 20.1805 36.8372
326 1 22.9252 20.3211 37.5868
327 1 22.9465 21.0402 38.2537
500 1 24.2054 22.3502 37.1063
499 1 23.6166 21.5199 37.3039
334 1 21.7998 20.4037 39.3113
333 1 21.4312 19.6938 38.6209
332 1 22.0542 20.4148 38.2745
330 1 22.9132 20.9142 39.6911
329 1 22.1388 21.4228 39.5179
328 1 22.006 21.3801 38.5715
337 1 20.3855 21.4934 37.4489
271 1 45.6263 28.3345 37.2583
272 1 46.1774 28.6581 38.0159
270 1 44.9306 28.1826 37.9602
264 1 44.9316 31.4518 38.0144
261 1 44.0991 31.9056 39.1393
263 1 44.5341 32.3743 37.8637
267 1 45.9357 29.8467 37.6471
266 1 45.5109 29.9667 38.4275
265 1 45.1858 30.5887 37.7715
459 1 14.3392 36.9703 39.443
452 1 13.1998 38.0987 41.1262
453 1 13.22 37.2724 41.4861
456 1 13.3711 35.7306 40.4372
454 1 13.677 36.6544 40.8626
458 1 13.4573 36.6506 39.7652
455 1 14.3723 35.9475 40.6502
72 1 16.7964 56.0499 42.0933
74 1 17.1121 57.1818 41.7751
73 1 16.8492 56.4877 41.2019
75 1 17.5621 57.4058 42.7258
76 1 17.9123 57.3398 43.7692
71 1 16.045 56.4815 42.403
69 1 15.5301 55.3353 42.3145
70 1 14.9536 56.203 42.5977
77 1 17.4887 56.654 43.8915
323 1 21.3893 18.6839 37.6308
331 1 22.79 20.3683 38.9518
262 1 45.0654 32.2522 38.7635
442 1 12.9071 36.2655 38.1461
443 1 12.9735 37.065 38.8227
460 1 13.8897 37.6347 40.0893
441 1 12.2425 36.3673 38.9257
444 1 12.0635 37.4715 38.4304
451 1 12.9558 37.2691 40.4265
450 1 12.3379 37.1859 39.633
457 1 12.6025 36.1638 40.1046
445 1 12.551 37.0792 37.492
448 1 11.1806 36.4452 38.5878
79 1 17.6814 55.9872 42.7762
80 1 16.8903 56.2753 43.1371
68 1 16.1976 55.4196 43.0293
67 1 16.5067 55.059 43.9642
78 1 18.4345 56.4042 43.4925
449 1 11.3946 36.9304 39.4555
446 1 11.9053 36.3646 37.4271
447 1 11.3363 37.0507 37.7315
65 1 17.3127 55.0463 42.5306
66 1 17.2821 55.2055 43.4278
64 1 16.37 54.7975 42.1543
13 1 39.4492 21.94 46.895
12 1 40.2827 21.5031 46.952
63 1 16.4505 55.4474 41.3821
62 1 17.434 55.4778 41.5883
20 1 40.3783 22.3302 48.8287
19 1 39.655 22.3491 48.2724
14 1 38.5975 21.5464 47.081
15 1 37.9111 21.7792 47.679
16 1 38.7217 22.3104 48.0593
2 1 41.5398 22.2895 46.9818
1 1 42.1551 22.2764 46.1994
3 1 40.7225 22.3826 47.5291
10 1 40.7417 20.6696 47.8549
11 1 40.7474 20.5839 46.8441
8 1 41.4438 21.2845 46.544
4 1 40.0503 22.7305 47.0875
5 1 40.6941 22.8025 46.41
61 1 17.2603 55.385 40.6169
159 1 7.7476 15.5603 50.0968
160 1 8.49781 15.3327 50.5196
158 1 8.29122 15.0618 49.4051
18 1 40.0886 23.3764 48.1816
9 1 41.4376 21.2746 47.4766
17 1 39.0608 23.2283 47.8132
6 1 41.3799 22.8426 45.6469
7 1 41.1786 21.882 45.9726
156 1 8.70334 13.987 48.7791
157 1 8.77854 14.2393 49.6839
149 1 8.42578 13.4967 47.7827
153 1 6.76512 14.229 49.6734
155 1 7.89823 13.7849 49.2037
154 1 7.66439 14.2845 50.0628
152 1 7.27612 14.5221 48.8422
151 1 8.05138 14.89 48.4134
141 1 9.63667 12.3165 48.899
146 1 9.70206 13.2176 47.5097
147 1 9.52411 13.5056 48.3803
143 1 8.05307 12.4021 48.1207
142 1 8.76937 12.7419 48.6498
150 1 7.75331 14.0726 47.883
148 1 9.13746 14.1581 47.809
145 1 9.39123 12.3374 47.8656
144 1 8.72277 11.7516 48.3165
21 1 36.8981 14.5965 58.4355
25 1 36.0553 13.2032 59.354
22 1 36.6974 13.6079 58.4329
23 1 35.9879 13.0759 58.0154
35 1 37.4093 12.9015 58.6529
26 1 36.1253 12.3024 59.7771
27 1 37.0472 12.8629 59.6636
36 1 36.532 12.4296 58.7846
32 1 38.0704 12.2871 59.7719
34 1 37.8248 12.0234 58.4168
33 1 38.0727 11.5305 59.187
24 1 35.4069 12.6312 58.8051
37 1 36.8918 12.4151 57.8391
238 1 20.9112 6.33455 59.0137
221 1 17.568 7.29063 58.7696
224 1 18.2701 5.44917 58.8997
29 1 38.1062 13.3727 59.407
30 1 38.5785 13.2432 0.554467
28 1 37.1856 13.8242 59.4319
31 1 37.8124 12.7402 0.663807
40 1 36.8671 11.5533 59.4672
39 1 37.1796 11.3024 58.6131
38 1 36.3647 11.5938 57.9773
ITEM: TIMESTEP
13000
ITEM: NUMBER OF ATOMS
500
ITEM: BOX BOUNDS pp pp pp
0.0000000000000000e+00 6.0000000000000000e+01
0.0000000000000000e+00 6.0000000000000000e+01
0.0000000000000000e+00 6.0000000000000000e+01
ITEM: ATOMS id type x y z
27 1 37.285 10.788 0.413862
25 1 38.6747 11.2566 0.135047
30 1 36.3197 11.8087 1.19244
29 1 36.4265 12.0552 0.180293
26 1 37.7978 11.6274 0.682779
34 1 37.1048 13.7442 0.314263
32 1 36.9177 12.8779 1.01218
33 1 36.3709 13.7022 0.966736
39 1 37.897 13.2159 0.828755
40 1 38.7235 13.3954 0.508266
111 1 7.27821 46.8607 1.25996
101 1 7.14934 48.5249 1.33388
112 1 7.80755 47.5567 0.924846
114 1 8.9804 47.8076 1.29388
31 1 37.2426 12.1989 1.60042
105 1 7.4257 46.8146 2.57855
108 1 5.98555 47.832 2.67203
110 1 7.06503 47.5346 1.88944
109 1 7.01691 48.1823 2.69607
103 1 8.06593 47.7802 2.73191
113 1 8.18312 47.1554 1.69842
102 1 7.97753 48.1603 1.73695
115 1 8.9963 47.7757 2.2283
117 1 8.00652 49.1222 2.19232
116 1 8.97647 48.8734 2.04392
107 1 6.0482 46.8093 3.0241
104 1 8.04787 47.0408 3.37455
106 1 6.95822 47.2681 3.38625
118 1 7.66027 48.7528 3.29005
119 1 8.25438 49.5074 3.15547
120 1 8.71842 48.6053 3.00541
286 1 43.8386 42.1024 15.082
281 1 45.3644 42.8508 15.6552
287 1 44.5653 42.8643 15.0481
288 1 44.6004 43.795 15.3251
289 1 45.1559 44.6726 15.455
292 1 46.2133 45.2839 15.5497
174 1 50.9965 37.7472 16.4334
175 1 51.7513 37.6016 17.0472
171 1 49.9464 38.8689 16.9644
170 1 50.8512 38.889 16.5018
169 1 50.9435 39.8131 16.491
249 1 51.4335 41.0163 16.4808
250 1 52.0776 40.3669 16.6809
285 1 44.4647 42.371 15.979
248 1 52.2023 41.6896 17.0072
283 1 44.2376 43.7863 16.7732
284 1 43.9813 43.213 16.0323
282 1 45.1036 43.4758 16.3487
297 1 46.2828 44.2402 16.8501
290 1 45.8354 44.0713 15.7394
298 1 45.3634 44.5568 16.8319
294 1 47.0537 45.4177 16.8237
291 1 46.7609 44.5101 15.746
293 1 46.2364 45.2071 16.5117
295 1 47.6307 44.5559 17.066
178 1 51.6859 36.7341 17.8179
257 1 49.1206 38.1829 17.6567
176 1 51.3748 38.4634 17.3978
177 1 51.1847 37.6373 17.9847
173 1 50.4938 38.0285 17.1804
258 1 50.0648 37.9214 18.2502
179 1 52.2795 37.6136 18.0002
180 1 52.5075 38.5295 17.8095
256 1 49.535 38.8331 18.2313
255 1 49.3337 39.542 17.7593
168 1 51.3439 39.5734 17.281
172 1 50.5332 38.9039 17.7297
254 1 50.1763 39.872 17.1839
167 1 51.5912 39.5531 18.2634
252 1 50.9573 40.9001 17.4192
253 1 50.5979 40.0633 17.8944
166 1 51.6632 40.5002 18.5065
251 1 51.8236 40.7881 17.5345
164 1 52.5674 40.1355 17.887
162 1 53.0338 40.9826 18.2855
163 1 52.9978 40.8159 17.3108
245 1 51.0125 41.6728 18.4283
246 1 51.4477 42.4553 17.9295
247 1 52.1289 41.6676 17.9378
296 1 46.8043 44.5887 17.6367
300 1 46.028 45.2626 17.5513
299 1 45.7613 44.3976 17.803
259 1 50.6281 38.3626 18.6515
260 1 50.5806 39.438 18.7178
165 1 52.3344 39.8517 18.8697
161 1 52.6625 41.0596 19.175
243 1 50.1433 42.3323 19.2004
244 1 51.0041 41.8156 19.4092
241 1 49.8168 42.9488 19.9775
242 1 50.1434 43.3543 19.1817
349 1 6.64619 30.8016 22.3949
348 1 7.04445 31.5607 22.551
439 1 44.5849 25.5136 23.8672
428 1 44.2469 26.4658 23.587
438 1 45.2034 26.1307 23.98
82 1 7.55328 28.5297 24.0604
429 1 44.8322 27.2457 23.764
355 1 5.55677 29.8947 23.8603
356 1 4.80517 29.2936 24.161
88 1 6.6146 29.4253 24.2604
81 1 7.52335 29.3803 23.6073
350 1 6.65454 30.1673 23.0733
353 1 6.13142 31.2523 23.522
352 1 7.11785 30.9898 23.5175
354 1 6.39302 30.4023 23.9555
351 1 7.73031 30.4401 23.05
90 1 7.93046 30.5902 24.0374
91 1 8.7702 30.8813 23.7437
347 1 6.59823 32.0721 23.1801
346 1 6.63423 31.9756 24.1281
440 1 44.2211 24.9272 24.5679
422 1 44.6313 25.0467 25.4843
421 1 45.2163 24.5481 25.0492
437 1 45.5744 25.192 24.3041
435 1 46.4985 25.4331 25.5101
436 1 45.8461 25.7133 24.9646
427 1 43.7285 25.9657 24.3744
425 1 44.2828 27.119 25.3732
426 1 43.8824 26.9553 24.5681
424 1 44.519 26.1673 24.9716
431 1 45.4652 26.8685 25.1786
430 1 44.968 27.5252 24.655
357 1 4.6921 29.9801 25.1278
87 1 6.5552 29.4772 25.1824
89 1 7.47979 29.8539 24.5934
84 1 8.05699 29.6207 25.5489
83 1 8.0809 29.0093 24.7974
358 1 5.53233 30.0585 24.9355
345 1 7.05699 31.2229 24.6271
344 1 6.25848 30.9574 24.8534
98 1 7.04808 31.3582 25.627
96 1 7.84791 30.7013 25.2221
92 1 8.79765 31.1319 24.73
341 1 5.26841 32.685 24.6599
343 1 5.49416 31.6046 24.4983
342 1 5.90273 32.0928 25.1166
99 1 7.81218 31.8718 25.1598
100 1 8.54154 32.2186 24.5857
93 1 9.32155 31.8494 25.1681
432 1 45.5577 26.9171 26.189
423 1 44.6255 26.0181 25.9297
433 1 45.7319 26.0278 25.9133
434 1 46.5807 26.4805 25.7478
85 1 7.24833 29.0497 26.0148
360 1 5.1438 30.0039 26.2745
359 1 6.00856 30.302 25.8972
86 1 7.13908 30.1238 25.7858
97 1 7.78867 31.3584 26.2016
94 1 8.81703 31.403 25.9018
95 1 8.68851 30.4653 25.8047
407 1 23.8598 8.14273 29.4294
409 1 24.6594 7.31725 29.7226
406 1 24.9078 8.29236 29.1385
420 1 27.7742 8.08563 29.7366
60 1 53.7806 19.9872 29.5729
58 1 52.7476 20.0853 29.6696
46 1 51.8395 22.533 29.9266
207 1 59.037 31.3794 29.4454
198 1 0.908238 32.1562 29.4202
200 1 0.181446 31.4735 29.9277
208 1 58.7871 32.2362 29.9384
197 1 0.844136 32.9938 29.8314
372 1 30.857 55.1272 29.6776
368 1 31.2808 56.2465 29.6045
365 1 30.2386 56.2164 29.4629
366 1 30.2351 57.2254 29.501
367 1 31.2466 57.2185 29.6006
313 1 55.6858 1.6081 31.413
474 1 24.0688 4.59092 30.7664
473 1 24.7785 5.27455 30.8737
401 1 25.7462 5.6494 30.2743
478 1 22.9785 6.5718 31.4193
410 1 24.0574 6.83515 30.3688
411 1 24.0854 6.00716 30.6763
412 1 24.9216 6.34839 30.258
413 1 24.8397 6.98105 30.9583
472 1 25.3172 6.0086 31.3006
402 1 26.2214 6.49778 30.2557
403 1 25.9613 7.14183 31.0168
408 1 24.1661 7.87528 30.284
404 1 25.6321 7.52026 30.024
405 1 25.0772 8.32321 30.0883
415 1 24.8296 7.96584 31.1146
417 1 26.5867 8.50399 30.4825
416 1 25.7546 8.34441 30.997
419 1 28.3147 8.24345 30.5649
418 1 27.2791 7.90185 30.7708
462 1 24.0885 9.65044 30.9541
463 1 24.3314 8.84796 31.2625
57 1 52.531 19.8955 30.6055
56 1 53.3141 19.3537 30.1852
55 1 53.7677 19.5047 31.0151
54 1 52.9704 18.8199 31.1494
48 1 52.2535 21.0577 30.5604
59 1 53.3013 20.6881 30.1165
50 1 53.1633 20.9987 31.0215
49 1 52.823 21.8508 30.7367
47 1 51.6076 21.6796 30.0706
44 1 52.6994 22.8757 30.3714
41 1 52.6327 24.1284 30.4332
45 1 51.8581 23.2039 30.7108
43 1 53.4039 23.449 30.0388
42 1 53.6633 24.4096 30.2567
204 1 0.193723 29.4508 30.1649
220 1 0.814372 28.5992 30.52
214 1 59.0323 29.5134 30.6079
217 1 59.9526 28.8394 31.2194
215 1 58.7649 28.6166 31.1302
203 1 0.738294 30.0289 30.8115
206 1 58.9233 30.5428 30.1508
205 1 59.8592 30.3835 30.1039
212 1 59.7531 30.7089 31.3103
211 1 59.4217 31.3122 30.7143
213 1 58.8913 30.387 31.2005
194 1 0.00323922 32.5038 30.0755
199 1 1.14694 31.7292 30.3368
190 1 0.270163 31.7295 31.0648
209 1 58.1797 32.4241 30.718
210 1 58.4752 31.5281 30.716
191 1 59.4956 32.3757 31.0755
196 1 0.96556 33.5992 30.6274
195 1 0.356317 32.9614 30.8932
193 1 59.4596 33.2355 30.3901
362 1 29.3561 55.623 31.3605
374 1 29.7681 55.0733 30.3697
375 1 29.5643 54.5359 31.1558
373 1 30.5886 54.6639 30.582
363 1 29.9673 56.2604 30.9489
361 1 28.8679 56.4025 31.1156
371 1 30.838 55.767 30.5734
370 1 30.9843 56.4814 31.2227
364 1 30.5844 56.6411 30.3121
369 1 31.6385 56.554 30.4763
304 1 54.8237 0.998889 32.6844
319 1 55.6647 0.0587442 32.5267
316 1 55.9243 1.09067 32.6805
314 1 55.9679 0.710037 31.5402
318 1 56.556 0.292521 32.4513
307 1 55.6579 2.08913 32.8571
306 1 55.2734 2.46732 32.0407
305 1 54.5872 1.78896 32.0848
311 1 56.7662 2.67743 32.3078
315 1 56.5214 1.46004 32.0883
312 1 56.2221 2.36569 31.6059
476 1 23.4752 5.22943 32.5691
477 1 23.0236 5.70111 31.7928
475 1 24.0062 5.09202 31.7036
468 1 24.8232 5.45545 32.1985
470 1 26.652 5.69562 31.8204
471 1 25.832 5.13979 31.4642
480 1 22.8675 6.60686 32.5419
466 1 23.9825 7.06508 31.6467
467 1 24.2618 6.21751 31.8156
469 1 25.6554 5.73151 32.2416
479 1 22.5411 7.39868 31.9831
464 1 23.5689 8.2899 31.6066
465 1 23.7566 7.60133 32.4006
414 1 24.9494 7.26963 31.7725
461 1 24.7196 10.0661 31.5265
53 1 52.1628 18.514 31.6249
52 1 52.0994 19.465 32.012
51 1 52.9355 20.0309 31.5028
219 1 1.3466 28.3173 31.5127
182 1 1.2802 29.8941 32.7254
218 1 0.809663 29.1876 31.5525
216 1 59.3742 28.6855 32.0057
181 1 0.875901 30.6955 32.5325
202 1 0.7287 30.7879 31.4872
201 1 1.58578 30.2507 31.6835
183 1 1.8864 30.5682 32.6454
189 1 0.221999 31.5115 31.9902
187 1 1.01001 31.9262 32.7069
192 1 59.5791 33.2023 31.5289
376 1 30.5411 55.1581 31.4648
378 1 31.257 55.6789 31.9628
377 1 30.2968 56.1017 31.9639
379 1 31.8343 56.3699 32.4507
320 1 54.6583 59.8772 32.6924
303 1 54.7154 1.06756 33.7057
302 1 55.5017 0.528825 33.4683
317 1 56.701 0.861802 33.1953
310 1 56.8028 1.94596 33.0829
309 1 56.048 2.18552 33.7666
308 1 56.1459 2.91765 33.1037
188 1 0.151149 31.3772 32.9803
184 1 1.70321 30.1935 33.666
185 1 2.16894 31.0946 33.7023
186 1 1.14854 31.4633 33.6153
380 1 32.0864 56.2838 33.4567
301 1 55.1093 0.0886122 34.3057
340 1 19.6926 18.3551 35.5061
491 1 19.5088 19.3814 35.679
336 1 22.05 19.5091 35.6741
324 1 22.7399 21.3322 35.2194
261 1 46.0352 29.2863 34.7454
337 1 22.0041 18.5468 36.0879
490 1 18.5898 19.3933 35.8495
129 1 19.711 19.4532 36.6715
338 1 21.1713 19.0245 36.3203
339 1 20.3454 18.8417 35.8542
130 1 20.6033 19.9057 36.9397
335 1 22.0917 19.6142 36.5838
334 1 23.0222 19.8273 36.1124
329 1 23.9737 18.7941 36.906
328 1 23.4294 19.6346 37.1305
330 1 24.2466 19.1985 35.9947
487 1 19.8126 20.6371 36.6225
489 1 18.6699 20.0194 36.6675
492 1 20.1782 20.0374 35.7147
493 1 20.7624 20.7735 36.0332
131 1 20.7682 20.8785 37.1255
325 1 22.0166 20.7059 35.8226
326 1 22.0287 21.0222 36.7115
332 1 23.687 20.8382 37.0719
333 1 23.0426 20.7983 36.4003
331 1 24.0817 20.1484 36.4864
486 1 19.3772 21.5204 36.3016
494 1 20.7564 21.8037 36.0983
485 1 20.0148 21.7457 37.1292
495 1 21.5202 21.9642 36.9018
322 1 22.8513 22.5484 36.431
323 1 22.4669 21.769 35.9181
321 1 23.5039 22.3652 37.0059
268 1 46.7132 27.6354 36.942
263 1 46.3916 28.5092 36.6106
262 1 45.8002 29.0529 35.8592
137 1 21.1989 19.2526 37.7577
128 1 20.0304 19.4121 37.5691
139 1 22.3109 18.6712 37.7343
138 1 21.5786 18.8546 38.442
140 1 22.9535 19.3166 38.3824
488 1 19.0491 20.6068 37.4779
126 1 19.5546 20.8827 38.5278
127 1 19.9914 20.2904 37.8253
135 1 21.0122 20.1554 38.1429
132 1 21.4384 21.2848 37.6475
327 1 22.7195 20.3111 37.2365
133 1 22.152 20.7513 38.0664
136 1 21.5267 20.0987 37.2151
498 1 23.3729 20.5078 37.9863
483 1 21.1201 22.3111 37.9432
484 1 20.5173 21.5276 38.1065
496 1 22.501 21.9375 37.2269
497 1 22.9639 21.5018 37.8537
269 1 47.0067 27.5087 37.9184
266 1 47.0876 28.5653 38.4303
267 1 47.0675 28.4573 37.4564
265 1 46.2173 28.1923 38.0068
270 1 47.8306 27.835 37.9055
264 1 46.1752 29.0358 37.4658
399 1 47.8424 29.8028 38.1208
451 1 15.4027 36.2313 37.96
453 1 15.4801 37.0877 37.2972
452 1 16.1544 36.4303 37.4809
450 1 15.1522 37.1836 38.3429
454 1 15.2757 37.9716 37.5346
455 1 15.4067 38.3822 38.3573
457 1 16.1057 37.4771 38.2313
456 1 16.3847 38.2795 37.9347
444 1 17.3746 37.9154 37.7804
443 1 17.8734 38.6646 38.1767
124 1 19.8217 19.8597 38.9828
122 1 20.881 19.7299 39.0688
123 1 20.1133 19.2305 39.6187
121 1 21.7387 19.7935 39.1926
125 1 20.4406 20.7353 38.875
134 1 21.4471 20.8565 38.7156
499 1 23.3316 21.0754 38.8219
481 1 21.3209 21.8508 39.158
482 1 21.2549 22.7936 38.8554
500 1 22.4777 21.6017 38.7243
279 1 49.4442 26.765 39.9777
278 1 48.8822 26.0959 39.4124
280 1 50.1899 26.2089 39.9558
271 1 48.2251 27.5472 38.6869
397 1 48.3778 28.5507 38.839
396 1 47.5992 28.0465 39.3097
384 1 49.5173 28.312 39.3983
272 1 48.7122 27.5012 39.5418
398 1 47.7949 29.1395 38.884
395 1 47.8864 28.8077 39.848
381 1 48.6255 29.9727 38.975
400 1 47.2232 30.0679 38.8098
460 1 15.6346 34.9533 38.9784
459 1 15.5969 35.9217 38.916
458 1 16.1335 36.7439 38.9351
448 1 15.6394 38.4063 39.4662
449 1 15.5266 37.562 39.1361
446 1 16.7177 37.8409 39.2569
445 1 17.5142 37.6362 38.7701
441 1 16.4521 39.0546 39.445
442 1 17.2062 38.8339 38.7664
275 1 46.8708 26.8186 40.5666
276 1 47.3837 26.0775 40.2919
277 1 48.3786 26.5884 40.1431
393 1 47.8395 28.3388 41.0179
274 1 47.6537 27.3409 40.0731
273 1 48.4985 27.8658 40.5032
388 1 48.3105 27.2021 41.2295
392 1 47.1796 27.7196 41.0237
385 1 49.9648 27.9214 40.317
386 1 49.9991 27.5618 41.3163
394 1 47.5226 29.1977 40.6368
382 1 48.593 29.7235 40.0367
383 1 49.101 28.9351 40.1909
447 1 15.9828 37.7338 40.0464
390 1 47.2799 27.9783 42.0355
389 1 47.7991 27.2307 41.9751
387 1 49.1486 27.7636 41.495
391 1 47.0232 28.699 41.454
67 1 17.5147 56.8323 42.3113
66 1 16.6119 57.3049 42.6305
70 1 16.7873 56.4906 43.546
71 1 17.8549 56.5768 43.5678
65 1 15.6898 57.6851 43.2386
63 1 16.1543 57.2004 44.1741
69 1 17.1337 57.4192 43.6159
64 1 16.3239 58.0352 43.794
79 1 17.6422 58.2334 44.0264
68 1 17.6244 57.78 42.877
62 1 16.9059 56.7462 44.6708
61 1 16.9804 57.9167 44.7748
72 1 17.8634 57.2291 44.3912
80 1 18.4915 58.2238 44.3423
73 1 18.6434 57.2573 45.0694
74 1 19.2383 57.907 45.6266
77 1 17.5926 58.5946 45.136
78 1 17.5267 59.1555 44.4927
75 1 18.3207 58.3738 45.7684
76 1 17.4497 58.6768 46.1206
158 1 10.6115 12.6825 47.9679
145 1 8.63944 14.2084 48.1258
144 1 9.59777 13.7623 48.4562
159 1 11.5489 13.1106 48.3036
14 1 35.106 24.1517 48.2035
15 1 35.1188 23.263 48.5337
13 1 35.8841 24.1246 47.8242
12 1 36.6391 24.6093 48.074
142 1 9.55784 12.5232 49.5302
160 1 11.8665 12.8555 49.2394
146 1 8.08577 13.6882 48.7636
143 1 9.12598 13.3352 49.1456
148 1 9.20086 14.1894 49.7408
150 1 10.4619 13.9792 49.8748
151 1 11.2105 14.0911 49.2627
156 1 10.8351 12.9566 49.6883
157 1 10.3527 13.068 48.804
152 1 12.1673 14.1028 49.3919
147 1 8.37733 14.4669 49.2202
149 1 9.97866 14.6904 49.2335
5 1 37.9283 21.3659 49.7917
17 1 36.1084 22.3474 48.8072
18 1 36.3463 22.4573 49.7805
4 1 38.1959 22.4673 49.6805
2 1 39.3494 22.7904 49.3136
9 1 36.6589 24.0443 49.7836
19 1 37.0977 22.9366 49.5447
16 1 35.8724 23.2181 49.2004
20 1 36.8149 23.5521 48.7091
3 1 38.4058 23.3523 49.0656
11 1 36.8761 24.9586 48.9893
10 1 35.8644 24.6612 49.2838
141 1 9.16496 13.0449 50.184
155 1 11.5649 13.5673 50.2329
154 1 12.4995 13.9454 50.3065
153 1 11.8448 14.6365 50.1351
6 1 37.4121 22.0601 50.4191
8 1 36.4998 23.2264 50.4519
7 1 37.4714 22.9515 50.7514
1 1 39.7643 23.3332 50.0982
240 1 18.0168 3.37105 52.6589
238 1 18.3276 4.1539 53.8334
237 1 19.2947 4.0683 54.086
239 1 18.5762 3.93237 52.8921
232 1 18.6128 2.989 55.0672
233 1 19.2269 3.87245 55.361
234 1 19.6879 3.30317 54.7255
235 1 20.3292 3.86939 55.3116
225 1 18.2244 4.35899 54.9724
236 1 19.9061 4.47141 54.7026
224 1 18.9838 4.86874 54.797
223 1 19.6285 4.9314 55.6884
230 1 18.5071 3.04057 56.5064
231 1 18.1352 3.53987 55.9442
229 1 19.4379 2.87084 56.0282
227 1 19.2966 4.05899 56.3107
228 1 20.2041 3.45245 56.3544
226 1 18.6621 4.565 55.9392
222 1 19.7866 5.51458 56.4287
221 1 20.4349 6.12556 56.9709
21 1 37.3944 10.799 58.5096
22 1 37.9895 10.9742 59.3151
28 1 37.1049 11.5296 59.7377
23 1 37.565 11.857 58.8544
24 1 38.1815 12.0377 59.7292
36 1 37.2474 12.5319 59.7302
35 1 36.4676 13.0806 59.9494
37 1 37.2511 13.4624 59.1415
38 1 38.0954 13.1206 59.7505
ITEM: TIMESTEP
14000
ITEM: NUMBER OF ATOMS
500
ITEM: BOX BOUNDS pp pp pp
0.0000000000000000e+00 6.0000000000000000e+01
0.0000000000000000e+00 6.0000000000000000e+01
0.0000000000000000e+00 6.0000000000000000e+01
ITEM: ATOMS id type x y z
27 1 37.2891 11.4437 2.57083
25 1 36.1181 11.7498 1.24069
30 1 38.7729 11.6911 1.16796
29 1 38.801 12.5765 1.60746
26 1 36.2701 11.3058 2.09774
34 1 37.6399 11.2526 1.58319
32 1 38.6842 10.4192 1.52867
33 1 37.7819 10.3494 1.78744
39 1 37.4175 13.1375 0.0614533
40 1 36.7324 12.5203 0.560482
111 1 7.30809 48.206 1.13664
101 1 6.22999 48.252 1.44634
112 1 6.99458 47.2926 1.05272
114 1 5.46107 47.6971 0.805881
31 1 38.9614 11.236 2.003
105 1 6.7845 47.5006 58.8856
108 1 8.19613 48.5142 0.307124
110 1 7.01253 49.1328 1.15669
109 1 7.26647 48.8694 0.231234
103 1 6.47366 48.0561 0.370962
113 1 6.07714 47.0477 0.730848
102 1 6.03011 48.8102 0.650641
115 1 5.36958 48.0725 59.8486
117 1 6.72133 48.4511 59.2043
116 1 5.88909 48.8221 59.5561
107 1 8.35882 47.5939 59.9091
104 1 6.15294 47.4279 59.6471
106 1 7.35808 47.6191 59.8096
118 1 7.53637 48.3782 58.6761
119 1 8.14531 47.5788 58.792
120 1 8.12524 46.7432 59.3385
286 1 45.7589 44.0636 17.2056
281 1 45.84 44.2494 14.0923
287 1 46.3287 44.7399 17.6719
288 1 45.835 45.4042 16.9932
289 1 45.3525 45.7934 16.0715
292 1 45.0265 44.8668 17.5054
174 1 51.4117 38.0853 18.5565
175 1 51.6542 37.5359 17.6521
171 1 50.619 39.202 17.1303
170 1 50.6134 39.6181 18.0156
169 1 50.4592 40.3599 17.331
249 1 49.3175 40.203 15.5454
250 1 48.5806 39.8359 15.1286
285 1 46.2019 43.6901 16.4487
248 1 49.0809 40.4427 16.3824
283 1 46.3335 44.4373 15.1655
284 1 46.1327 44.6103 16.0967
282 1 45.6189 43.8244 14.9942
297 1 44.2634 44.536 15.6278
290 1 45.1555 44.9396 16.3169
298 1 44.4277 45.4323 15.4951
294 1 45.2178 43.9783 16.0065
291 1 44.6795 45.4121 16.9107
293 1 44.7309 44.1989 16.9051
295 1 44.8826 43.0216 15.9063
178 1 51.1337 38.4987 16.4324
257 1 49.4229 36.4649 16.9944
176 1 52.3625 37.4419 17.0703
177 1 51.7429 37.6283 16.3469
173 1 50.95 38.4044 17.6446
258 1 50.0141 36.0197 17.4229
179 1 50.7089 37.7038 16.1166
180 1 50.5131 36.8932 16.6192
256 1 49.3382 37.2517 16.7777
255 1 49.9957 37.8814 16.9659
168 1 49.8115 39.8733 16.7599
172 1 49.9709 38.7789 17.5537
254 1 49.0174 38.284 17.086
167 1 48.8051 39.485 16.8996
252 1 48.6888 38.5024 15.8744
253 1 49.5261 38.765 16.4728
166 1 49.062 39.2674 17.8101
251 1 48.3242 39.4033 15.9084
164 1 49.1039 40.3917 17.6864
162 1 49.6373 40.9313 16.9951
163 1 48.6427 41.1756 17.1985
245 1 48.0093 40.8136 14.8975
246 1 48.0718 40.646 15.8693
247 1 48.8346 41.3722 16.0356
296 1 44.2466 43.6264 15.4712
300 1 44.802 44.2889 14.6709
299 1 45.3541 44.9601 15.2792
259 1 50.2508 36.9571 17.7755
260 1 49.441 37.5736 17.8961
165 1 49.5486 39.9094 18.4447
161 1 49.9461 40.9223 15.9987
243 1 49.4853 42.0289 15.5778
244 1 48.837 41.2517 14.9651
241 1 49.2425 42.1476 16.8098
242 1 49.066 42.884 16.0367
349 1 2.67015 29.8471 24.1642
348 1 3.28164 29.2362 24.7715
439 1 45.7646 29.239 21.5221
428 1 47.1752 30.5089 20.694
438 1 46.0567 28.5058 21.0564
82 1 7.91577 28.3558 24.0617
429 1 47.6989 31.3266 20.9175
355 1 4.53936 28.4256 24.9561
356 1 4.97517 29.1667 25.3606
88 1 5.5355 29.6438 23.3157
81 1 8.67241 28.5126 23.4589
350 1 3.1271 30.5979 23.8687
353 1 4.49681 30.1392 24.5036
352 1 4.30331 30.8523 24.0745
354 1 4.79204 29.2103 24.3384
351 1 3.49333 31.4769 23.6016
90 1 6.61828 29.9324 24.2208
91 1 6.90022 30.9677 23.983
347 1 3.48985 30.1763 24.8323
346 1 3.33811 30.6938 25.6772
440 1 45.3544 29.1913 20.6361
422 1 47.5996 29.0013 19.918
421 1 48.413 28.4447 20.2314
437 1 46.3216 28.9117 20.215
435 1 46.639 29.9293 19.879
436 1 46.998 29.4123 20.7241
427 1 47.8602 30.0742 21.2332
425 1 48.7654 29.7013 19.8124
426 1 48.3624 30.1465 20.5327
424 1 47.8508 30.0203 19.5073
431 1 47.0821 31.4721 20.0508
430 1 47.898 30.925 20.0713
357 1 5.84964 28.8909 25.6041
87 1 6.38765 29.2627 23.0158
89 1 5.86708 29.1323 24.1632
84 1 6.83555 28.781 24.3211
83 1 7.66155 29.0314 24.5213
358 1 5.85412 29.5643 26.2658
345 1 4.40667 30.7958 25.4408
344 1 4.28386 29.9453 25.5763
98 1 5.90173 31.0309 27.4539
96 1 4.94549 30.8238 26.4708
92 1 5.91082 30.6755 24.0258
341 1 2.88669 30.095 26.413
343 1 3.88057 29.0791 25.8064
342 1 2.93544 29.4156 25.7262
99 1 5.0359 30.5769 27.4901
100 1 5.7333 29.8733 27.3473
93 1 5.947 30.7824 24.968
432 1 46.1804 31.129 20.4321
423 1 48.138 29.1564 19.14
433 1 46.2291 30.2598 20.7758
434 1 45.5467 30.0654 20.0267
85 1 6.31637 28.2634 23.5721
360 1 6.44015 29.7372 25.4537
359 1 6.7017 30.055 26.3519
86 1 7.22636 28.7115 23.2594
97 1 5.18178 31.6037 26.9714
94 1 5.69178 31.7088 25.4598
95 1 5.65246 31.0684 26.0346
407 1 23.991 6.9311 31.2096
409 1 22.4941 7.71449 31.14
406 1 24.0948 7.59021 30.3465
420 1 24 6.42197 28.9016
60 1 54.8939 21.0092 30.1544
58 1 53.5675 21.0927 29.7911
46 1 56.3722 20.8154 31.744
207 1 1.64301 32.3663 33.5241
198 1 2.36246 30.6629 32.1603
200 1 2.77637 31.6599 31.7046
208 1 2.30353 33.1561 33.6736
197 1 3.09272 30.2541 31.5887
372 1 29.8518 56.8309 30.6823
368 1 30.0175 58.3055 32.9063
365 1 30.145 58.9481 31.2761
366 1 30.9452 59.5858 31.4809
367 1 30.6136 58.7598 32.2333
313 1 55.3113 2.17539 34.7109
474 1 22.6124 5.49581 30.759
473 1 23.3252 5.54725 30.2776
401 1 26.1244 5.40003 30.2927
478 1 22.7594 6.56923 33.3812
410 1 21.9429 7.02405 31.2261
411 1 21.9628 7.02205 30.2628
412 1 22.8813 6.60158 30.6877
413 1 23.4036 6.06143 31.2239
472 1 23.1594 4.47968 30.4421
402 1 25.1969 4.90403 30.0182
403 1 24.8809 5.17525 29.1344
408 1 23.0917 7.08768 31.6121
404 1 24.4313 5.82492 29.8479
405 1 23.8278 6.57447 30.1612
415 1 25.1777 6.01562 30.718
417 1 24.7781 6.85016 30.0871
416 1 25.1721 7.07707 30.9418
419 1 25.0371 6.55995 29.1221
418 1 25.7754 6.75595 29.7649
462 1 24.9007 7.94132 32.6768
463 1 24.5666 7.76385 31.5125
57 1 52.9396 20.8664 30.5754
56 1 52.2138 21.1453 31.2667
55 1 52.2959 22.1313 31.4262
54 1 53.0609 22.887 31.713
48 1 54.7128 21.3545 31.7912
59 1 54.3458 21.4325 29.3299
50 1 53.2602 21.2623 31.6422
49 1 53.8394 21.8169 32.2007
47 1 55.5197 20.8777 32.0721
44 1 57.3859 20.599 30.5509
41 1 57.4039 21.3411 31.6616
45 1 56.4272 20.8096 30.7716
43 1 57.0163 21.5532 30.3424
42 1 57.2122 22.2376 31.194
204 1 0.723537 32.579 31.4485
220 1 0.482305 34.1315 30.1739
214 1 1.16932 31.2122 33.0076
217 1 0.132349 32.0701 30.7791
215 1 0.329987 31.4124 32.5797
203 1 1.01632 31.7009 31.7548
206 1 1.61707 33.0525 32.7746
205 1 0.714368 32.4566 32.4488
212 1 2.09105 31.6929 32.4936
211 1 3.03586 31.4174 32.7275
213 1 2.07924 31.3027 33.4323
194 1 4.1562 30.4737 31.9687
199 1 1.94957 31.2016 31.3763
190 1 3.11886 29.3084 32.8811
209 1 2.67115 32.2278 33.564
210 1 3.44489 31.6918 33.4504
191 1 3.73812 29.6193 33.4695
196 1 2.8331 29.2401 31.7314
195 1 3.82895 29.4434 32.0851
193 1 3.59601 30.3712 32.6989
362 1 28.1022 58.4937 31.661
374 1 28.7257 56.8131 31.5643
375 1 28.7473 57.6766 32.1509
373 1 28.8682 56.8782 30.639
363 1 29.0164 58.7701 31.7004
361 1 28.326 57.7056 30.9405
371 1 30.7581 56.9418 30.9054
370 1 30.368 57.845 30.9685
364 1 29.4283 58.1913 31.0969
369 1 30.1511 57.844 31.91
304 1 54.2315 2.7725 33.3609
319 1 54.8038 2.03993 32.8547
316 1 54.7952 3.01088 34.2771
314 1 55.8898 2.96828 34.2473
318 1 54.5705 1.74632 33.7961
307 1 54.4055 4.38138 34.9186
306 1 54.0045 3.78734 34.145
305 1 54.7788 3.59751 33.4713
311 1 54.0879 3.33251 35.1347
315 1 55.3577 2.40483 33.6569
312 1 54.9184 2.74243 35.4011
476 1 22.8805 5.91383 32.2145
477 1 22.1717 6.29438 32.7083
475 1 22.3706 5.29275 31.531
468 1 23.5956 5.44301 32.8353
470 1 23.908 4.2955 31.9552
471 1 23.2051 4.4922 31.3026
480 1 22.7013 7.69663 33.3451
466 1 23.469 6.93891 32.5706
467 1 23.9906 6.18226 32.9922
469 1 23.9218 5.29061 32.0445
479 1 23.4129 7.12036 33.8278
464 1 23.5424 7.99416 31.4203
465 1 23.7426 7.75726 32.2127
414 1 24.2001 5.86309 30.9042
461 1 24.0128 7.76788 33.1602
53 1 53.4713 22.7394 30.7841
52 1 53.5179 21.8697 30.8586
51 1 54.0209 21.0455 31.0267
219 1 0.0856212 33.2325 30.4833
182 1 1.24483 30.4361 32.1835
218 1 59.6325 32.6993 31.2616
216 1 59.9381 31.8424 31.7797
181 1 0.39119 30.1747 32.1592
202 1 0.953731 31.4886 30.9267
201 1 1.5462 30.9248 30.3642
183 1 1.00965 30.3427 31.18
189 1 2.5783 30.1154 33.0271
187 1 2.25832 28.5057 32.7336
192 1 4.34054 30.3221 33.1339
376 1 28.7377 57.1273 32.9873
378 1 29.9377 56.614 31.6485
377 1 29.4646 56.8921 32.2939
379 1 29.5546 55.92 31.0538
320 1 54.124 2.61463 32.3384
303 1 53.4229 2.0639 33.5382
302 1 53.7627 1.72261 32.7767
317 1 54.1414 2.29963 34.4828
310 1 54.4883 3.59567 35.9895
309 1 55.2176 3.79935 35.4304
308 1 55.1682 3.95232 34.468
188 1 1.78817 29.4101 33.0729
184 1 1.78065 29.6974 31.2352
185 1 2.00686 29.6991 32.0854
186 1 1.73585 28.8319 31.8543
380 1 28.5232 55.9586 31.0237
301 1 53.4888 0.646699 32.8516
340 1 19.2185 19.7018 34.9878
491 1 19.4074 20.3589 37.0031
336 1 22.0791 21.0674 35.312
324 1 20.5357 21.5451 37.6811
261 1 50.8481 26.399 38.3798
337 1 21.3966 20.3675 35.5177
490 1 18.93 20.6502 36.1661
129 1 20.1876 16.9964 35.6742
338 1 20.5178 20.3865 36.0025
339 1 20.1809 20.2219 35.0719
130 1 19.9455 16.891 36.6607
335 1 22.4524 21.2058 36.2903
334 1 21.5233 21.252 36.162
329 1 22.7038 21 38.0568
328 1 22.4332 20.4464 37.1358
330 1 23.2413 21.4245 37.3051
487 1 19.9358 18.6134 36.8182
489 1 19.5484 19.8979 36.0268
492 1 19.8814 19.5385 37.2752
493 1 18.9736 19.2243 37.6289
131 1 20.4194 17.1561 37.4674
325 1 20.598 20.6137 37.1899
326 1 21.0906 19.9159 37.5545
332 1 22.2232 22.4027 36.8408
333 1 21.5027 21.6224 36.9411
331 1 22.744 22.1915 37.6903
486 1 19.4173 18.2559 37.6046
494 1 19.1148 18.8797 38.4908
485 1 19.0901 17.701 38.3128
495 1 20.0548 18.8216 38.2397
322 1 21.0563 20.2178 38.7108
323 1 20.7075 21.1205 38.6514
321 1 20.2746 20.027 38.1912
268 1 47.77 26.8241 39.4416
263 1 49.6606 26.3396 38.2549
262 1 50.3034 26.7008 39.0448
137 1 22.6523 19.3448 36.8565
128 1 21.1394 16.909 36.1255
139 1 23.2751 20.5092 35.8882
138 1 22.4346 20.1666 36.1606
140 1 24.356 20.5481 35.8884
488 1 19.2477 19.071 36.3041
126 1 21.878 16.8733 36.9687
127 1 21.7304 17.5558 36.357
135 1 21.12 19.329 36.1071
132 1 21.2367 17.3653 37.6089
327 1 21.5077 20.3998 36.7034
133 1 20.7921 18.2038 37.2397
136 1 22.0076 18.8834 36.3202
498 1 21.9107 19.0715 37.5153
483 1 19.9429 17.1274 38.5533
484 1 19.3511 16.7327 37.7926
496 1 20.4854 18.0396 38.2274
497 1 21.0744 18.8345 38.1659
269 1 47.9723 25.8695 39.7096
266 1 48.8185 28.2748 39.2569
267 1 47.7524 27.8623 39.4599
265 1 48.9987 27.8056 38.3202
270 1 48.5787 25.2085 39.7747
264 1 48.8907 26.9686 38.2662
399 1 50.4451 29.4055 40.9252
451 1 19.0606 38.8443 38.1314
453 1 19.7252 39.5697 39.1357
452 1 19.2448 39.7992 38.2833
450 1 18.4941 38.6948 38.8996
454 1 19.6487 38.6011 38.9743
455 1 20.2572 38.5526 38.2017
457 1 20.3084 38.6097 36.8726
456 1 20.7672 38.1012 37.5372
444 1 18.9128 36.4209 37.1387
443 1 19.085 37.347 36.8849
124 1 22.912 17.1674 37.1235
122 1 22.4517 17.6296 38.0215
123 1 22.5058 18.0618 37.1719
121 1 22.1059 17.3825 38.9226
125 1 22.7136 16.5918 36.3494
134 1 20.8445 18.3777 36.1805
499 1 22.0182 19.0088 38.5808
481 1 21.0621 17.2084 38.7238
482 1 20.4935 16.5561 38.2968
500 1 21.4635 18.5494 39.0316
279 1 49.7328 28.0711 41.5689
278 1 49.8826 27.6648 42.3552
280 1 50.0197 29.1227 41.9178
271 1 49.2436 25.1196 40.6126
397 1 50.016 27.6205 40.5899
396 1 50.0997 26.826 40.341
384 1 48.557 29.335 40.2539
272 1 49.6427 24.9132 39.6995
398 1 50.5888 28.4109 40.7512
395 1 49.4395 27.2616 39.7033
381 1 47.3856 28.4591 40.1614
400 1 50.0913 29.0561 39.9587
460 1 20.0444 39.3511 37.6154
459 1 19.2575 39.0037 37.0964
458 1 19.751 39.3944 36.4622
448 1 19.7484 37.3425 38.136
449 1 19.0071 37.7428 38.6755
446 1 20.2768 37.2043 37.2101
445 1 19.8889 36.1993 37.4534
441 1 18.5511 38.133 36.1725
442 1 18.4722 37.0878 36.2011
275 1 50.1609 26.1159 41.1815
276 1 49.9061 26.9877 41.6246
277 1 50.6656 27.6109 41.4508
393 1 48.5989 26.7966 40.5453
274 1 50.5773 25.8408 40.3607
273 1 49.5801 25.9162 39.8641
388 1 49.0027 27.5394 43.1012
392 1 48.3242 25.7938 40.6572
385 1 49.2068 29.3753 40.9447
386 1 48.8878 28.82 41.6367
394 1 48.8057 26.5547 39.5584
382 1 48.0925 27.7542 40.4185
383 1 48.5648 28.491 40.7625
447 1 19.5821 38.0103 37.4921
390 1 48.8348 27.4392 41.7684
389 1 48.3678 27.1756 42.4226
387 1 48.8472 28.2183 42.3875
391 1 48.6525 26.3988 41.5915
67 1 17.1972 0.479777 46.5817
66 1 18.0717 0.0360885 46.722
70 1 16.8818 59.5329 45.9903
71 1 16.7261 0.0442614 45.1279
65 1 18.4342 59.2074 46.2424
63 1 17.1041 57.9248 45.5476
69 1 16.8586 59.5508 46.9256
64 1 17.4691 58.7577 46.0501
79 1 17.8952 59.9401 45.6164
68 1 16.088 0.21178 46.4127
62 1 17.1181 57.4923 46.5876
61 1 18.0321 57.4972 46.4206
72 1 17.3178 59.7756 44.3079
80 1 18.2206 0.784954 45.7366
73 1 18.204 0.0347485 44.7222
74 1 18.849 59.2824 44.934
77 1 19.3998 59.3725 46.5376
78 1 18.9925 59.8713 45.7508
75 1 19.6561 58.7473 45.318
76 1 20.1187 59.1054 45.9612
158 1 10.7685 13.2479 49.5528
145 1 13.5354 14.2674 50.997
144 1 12.7459 14.6122 50.4532
159 1 11.0751 14.0139 50.1599
14 1 32.608 23.2835 50.7676
15 1 33.466 23.445 50.2434
13 1 33.295 23.6594 51.3554
12 1 34.2575 23.4743 51.3008
142 1 12.3254 13.6237 50.368
160 1 10.0927 14.1422 49.9969
146 1 14.1203 14.0056 50.2842
143 1 11.9878 14.2864 51.0805
148 1 13.4183 13.0863 50.2457
150 1 12.5667 13.2809 49.1969
151 1 12.0653 13.7231 48.5152
156 1 12.1059 12.1665 50.1894
157 1 11.6583 12.9644 49.7806
152 1 11.2704 14.0389 48.9134
147 1 14.4329 13.175 50.0593
149 1 13.3499 13.6417 49.4574
5 1 33.2571 24.6152 51.8556
17 1 32.8502 24.4607 50.8052
18 1 32.6964 25.5007 50.6491
4 1 32.7295 25.1989 52.5496
2 1 34.0536 24.9264 53.2835
9 1 35.3681 24.9812 51.2377
19 1 32.4731 25.2904 51.5839
16 1 33.8168 24.2981 50.4193
20 1 32.1771 24.3172 51.8577
3 1 33.642 25.4694 52.6095
11 1 34.5095 23.4365 50.3571
10 1 35.1138 24.3203 50.6685
141 1 12.0698 14.2334 49.6224
155 1 12.5268 12.0893 49.1547
154 1 11.4868 12.2478 48.8585
153 1 11.0102 13.0695 48.4364
6 1 33.6777 25.3534 51.5547
8 1 34.4397 25.2805 50.8218
7 1 34.4221 24.8111 51.7002
1 1 33.708 24.2504 52.7022
240 1 19.8846 3.42112 54.3048
238 1 19.441 3.1304 53.3654
237 1 19.2528 3.64732 52.5627
239 1 18.866 3.32759 54.1635
232 1 18.4193 1.422 53.5853
233 1 18.3402 1.66814 52.6011
234 1 18.3403 2.33704 51.8374
235 1 18.9019 2.52325 52.727
225 1 20.2973 2.31928 51.5751
236 1 19.2341 2.90211 51.8501
224 1 20.0559 2.65371 50.5962
223 1 19.4479 3.27946 50.4158
230 1 19.9389 2.29221 53.9074
231 1 18.9645 2.20844 54.0634
229 1 20.0616 2.3959 53.0256
227 1 19.3315 0.980314 52.3312
228 1 19.4965 1.75302 53.0697
226 1 19.2737 1.90345 51.8296
222 1 19.293 2.66726 49.6818
221 1 18.6446 1.90757 49.8352
21 1 38.9348 13.3457 0.532
22 1 38.1542 13.2504 0.908574
28 1 38.1145 12.0033 2.09825
23 1 37.6835 12.5546 1.25136
24 1 36.7277 12.3144 1.6806
36 1 37.9401 11.3526 0.247288
35 1 37.1107 11.571 0.909968
37 1 38.3183 12.33 0.316759
38 1 37.5516 12.222 59.7108
ITEM: TIMESTEP
15000
ITEM: NUMBER OF ATOMS
500
ITEM: BOX BOUNDS pp pp pp
0.0000000000000000e+00 6.0000000000000000e+01
0.0000000000000000e+00 6.0000000000000000e+01
0.0000000000000000e+00 6.0000000000000000e+01
ITEM: ATOMS id type x y z
23 1 38.4345 11.4033 1.33423
38 1 38.3222 12.7055 0.851808
40 1 39.057 12.0957 0.0858267
39 1 39.2734 12.5253 0.955729
36 1 37.262 11.3339 1.72971
21 1 38.1208 10.3823 1.53861
29 1 37.7291 10.4408 2.76267
22 1 39.088 10.7979 1.55673
28 1 38.6429 10.9915 2.49141
35 1 37.0124 12.1074 2.32665
37 1 37.6135 12.1581 1.43321
34 1 37.78 11.6273 2.49914
25 1 38.8105 12.0721 2.82907
24 1 38.8508 12.098 1.89379
31 1 36.9926 10.9317 3.55779
30 1 37.5754 10.1089 3.78105
27 1 38.2325 11.1268 3.39914
32 1 36.9808 11.8496 3.5741
33 1 37.6985 12.4134 3.14153
26 1 38.5715 11.9144 3.73403
242 1 47.1255 38.6629 12.6606
241 1 47.3382 37.8114 12.9557
246 1 46.344 38.9618 13.5209
247 1 46.0636 39.9306 13.7646
245 1 47.2361 38.8415 13.7063
249 1 47.8471 39.6926 14.198
244 1 48.0465 38.8165 13.1458
243 1 47.604 39.5963 12.8916
251 1 48.3968 38.7227 14.1809
248 1 47.0435 40.0228 13.7104
289 1 43.9803 44.4909 14.2375
437 1 51.7091 32.3885 15.6684
425 1 47.1319 33.8183 14.6611
422 1 47.9354 32.8797 15.5694
424 1 47.4813 33.887 15.5836
426 1 48.1308 33.8872 14.7744
433 1 49.2948 33.9424 15.2669
439 1 50.7893 33.4439 15.3292
428 1 48.4787 34.7002 15.4651
427 1 47.7643 34.766 14.6153
254 1 48.0964 37.1956 15.17
253 1 48.0546 38.1824 15.2994
257 1 49.8375 38.1346 14.7604
256 1 49.0604 37.8308 15.393
161 1 46.9051 39.4839 15.6174
250 1 47.63 39.0673 14.9715
168 1 48.4168 39.4559 15.6953
252 1 48.6945 38.8261 14.9902
258 1 50.5964 38.6489 15.3909
288 1 44.0336 44.0192 15.1598
285 1 45.634 44.0439 14.99
287 1 44.7198 43.7271 14.6291
290 1 44.1847 45.0871 15.1345
284 1 44.9027 44.4263 15.6096
286 1 45.0004 44.5931 14.4441
292 1 45.3756 45.4685 14.7917
293 1 46.1526 45.0522 15.3398
291 1 44.8826 45.748 15.5637
436 1 50.9657 32.2852 16.1654
423 1 48.427 33.6067 15.7765
421 1 48.0394 33.0154 16.6226
430 1 48.6682 33.7793 16.9504
434 1 49.4906 33.2724 15.8542
431 1 49.6836 34.1403 17.0382
435 1 50.4672 33.04 16.1985
440 1 50.4506 34.2852 15.7312
438 1 51.639 33.5155 15.8157
429 1 48.3617 34.5317 16.3271
432 1 49.3497 34.4529 16.0848
255 1 48.4739 37.3786 16.0988
171 1 47.6712 37.9705 16.7544
178 1 49.5738 38.5345 16.0099
179 1 49.6077 37.8537 16.7888
260 1 49.934 37.4588 15.9264
172 1 48.5841 37.6121 17.1063
169 1 48.6195 38.506 16.3005
259 1 50.5643 38.1012 16.1134
162 1 46.9571 39.6666 16.7054
163 1 46.6123 38.6656 16.3607
166 1 48.2907 39.6013 16.9912
170 1 47.7441 38.9153 16.4109
177 1 49.3845 38.8699 16.8643
167 1 47.966 40.0459 16.1509
281 1 43.5675 43.2912 16.793
282 1 44.4607 43.7222 16.607
283 1 44.15 44.6114 16.1782
300 1 44.8195 45.1109 17.112
294 1 45.5613 45.0671 16.2052
298 1 45.4534 46.1013 16.7364
296 1 45.768 46.4872 15.8174
297 1 46.4165 46.674 16.6799
295 1 46.3318 45.7281 16.1837
173 1 48.4366 38.499 17.4265
175 1 49.5551 37.9992 17.9773
174 1 48.6823 38.0513 18.291
180 1 50.2342 38.4338 17.2271
164 1 46.5974 38.6706 17.4084
165 1 47.5307 39.0665 17.4958
176 1 49.3442 39.0251 17.8532
299 1 45.629 45.5989 17.5785
350 1 1.88123 28.5978 23.9303
87 1 3.89659 29.9518 24.089
83 1 4.21027 28.8325 23.0299
82 1 4.45503 28.6618 24.0239
84 1 4.78332 29.4617 23.3683
85 1 4.74305 30.4391 23.0507
86 1 4.42953 30.7666 23.9893
349 1 2.34234 27.7866 24.5181
348 1 2.68842 27.4216 25.1764
347 1 1.90614 27.9999 25.4936
355 1 3.23966 28.3638 25.137
341 1 3.90982 27.7189 25.6013
81 1 4.77465 28.0102 24.5863
352 1 1.44334 28.9789 25.4864
351 1 1.99712 29.3002 24.6577
356 1 2.85274 29.1013 25.4413
357 1 3.60813 29.3799 24.8758
358 1 4.26695 29.2143 25.4894
360 1 5.27612 28.9633 25.6795
89 1 4.27124 30.471 25.631
91 1 3.76547 31.0291 24.7802
92 1 2.8588 31.1044 25.0797
93 1 2.93528 30.2374 25.1781
88 1 4.54001 30.0363 24.7756
90 1 3.81908 31.5114 25.6322
354 1 2.78211 28.3645 26.0258
346 1 2.0771 27.4425 26.3219
345 1 2.69642 27.728 27.1147
343 1 3.93781 27.5493 26.9507
342 1 3.16259 27.3393 26.2786
353 1 2.13042 29.2235 26.1477
98 1 4.11594 28.7736 26.998
359 1 4.98668 29.9324 25.885
94 1 2.27393 30.2962 25.8629
96 1 4.22361 30.1815 26.6475
95 1 3.2795 30.0858 26.17
344 1 3.39787 27.0276 27.5252
97 1 3.67282 29.6517 27.2047
100 1 5.67261 29.6154 27.4506
99 1 4.81165 29.2487 27.3479
402 1 20.5174 5.50473 29.9382
401 1 21.0137 4.7189 29.7859
418 1 24.0106 5.45921 29.5554
420 1 25.4677 5.64263 29.8609
419 1 24.8949 5.56868 29.0256
403 1 21.3178 5.91835 29.999
405 1 22.4282 5.94561 29.9462
413 1 21.0446 5.25723 31.2156
414 1 21.9146 4.64259 31.2692
415 1 22.0486 4.63858 30.3694
417 1 23.7508 4.5931 30.075
416 1 22.9076 5.0129 30.0997
468 1 23.5615 5.44744 31.0123
412 1 21.3308 6.21457 31.257
404 1 22.1348 5.92119 30.525
407 1 22.4662 7.10548 30.9064
406 1 23.1379 6.39305 30.4726
42 1 54.9656 20.8047 31.0522
45 1 56.1782 21.0574 30.9024
43 1 55.7776 20.1914 31.3415
51 1 57.2573 21.2921 30.9944
59 1 55.4899 22.3695 30.3835
60 1 55.0046 21.765 31.1137
58 1 56.1804 21.7294 30.1422
57 1 56.517 22.1764 30.9308
56 1 57.345 22.6637 31.2284
52 1 58.1075 21.596 31.021
196 1 3.06753 29.7851 31.3088
195 1 2.20682 30.1303 30.7805
200 1 4.00328 31.1154 30.9341
199 1 3.2991 31.7124 31.3643
380 1 27.3452 58.5425 31.0809
379 1 28.33 58.177 30.6524
378 1 28.35 59.0945 30.3195
376 1 27.9948 59.3532 31.3253
377 1 28.7868 58.9635 31.2028
363 1 27.7695 0.497628 32.2109
374 1 28.6506 0.0514665 31.8892
361 1 27.7838 1.4726 32.5714
472 1 21.7067 4.03546 32.4693
473 1 20.98 4.65088 32.8016
470 1 22.2181 4.94895 32.3503
469 1 22.6532 5.36717 31.5749
467 1 23.7909 5.67552 31.9322
411 1 20.6793 6.5192 31.8763
475 1 21.5439 5.85488 32.3446
408 1 22.3928 6.33332 31.6013
464 1 23.324 6.78521 31.4338
466 1 24.2283 6.2665 32.5008
465 1 23.2789 6.71535 32.4127
478 1 22.9361 5.84824 32.6513
462 1 24.8142 5.7282 31.6482
463 1 24.33 6.57692 31.5436
461 1 25.4293 6.63915 31.6389
410 1 21.2975 7.25756 32.0802
409 1 22.3056 7.24519 32.0663
41 1 54.8933 20.2512 31.9172
44 1 56.5302 20.7345 31.5981
47 1 56.4431 22.3678 31.9745
46 1 55.9306 21.61 31.8373
53 1 58.224 22.3511 31.8292
50 1 57.2914 21.7437 31.8099
49 1 57.4194 22.2038 32.6057
55 1 57.5793 23.0738 32.129
54 1 58.3146 22.9342 32.6341
194 1 2.05725 29.9907 31.8139
210 1 4.47057 29.5473 32.5222
193 1 1.90847 30.938 31.8334
192 1 1.97008 30.864 32.7091
198 1 3.70256 31.2366 32.2002
197 1 2.97992 30.6314 31.767
212 1 3.67018 30.4664 32.8028
211 1 4.82905 30.4277 32.6997
184 1 2.6399 31.5654 32.3241
183 1 3.17085 32.281 32.301
201 1 4.74062 31.5257 31.8787
202 1 4.33032 32.4728 32.0863
372 1 28.6468 58.4311 31.9887
371 1 29.5038 58.1487 32.3293
375 1 27.9692 59.4247 32.2427
373 1 29.186 59.2515 32.0705
370 1 30.1834 58.723 32.4575
364 1 27.1683 0.2059 32.9438
362 1 28.3396 0.643373 33.0419
471 1 22.0598 4.74472 33.2084
480 1 23.6874 4.77706 33.7974
479 1 23.7796 5.49908 33.0192
474 1 21.002 5.75987 33.0385
476 1 21.7715 6.52099 33.1073
477 1 22.3016 5.88674 33.4383
130 1 21.24 16.5401 33.601
129 1 21.9826 16.6679 34.148
128 1 22.3098 16.4809 33.1923
131 1 20.9139 17.2316 34.1669
126 1 22.1105 18.0651 34.2525
127 1 21.9174 17.4806 33.4112
48 1 56.4841 22.4151 32.8988
209 1 4.59603 29.4688 33.4108
190 1 1.93718 30.0409 34.042
188 1 2.37618 30.9589 33.6415
191 1 1.55525 30.1271 33.1439
189 1 2.67554 30.2557 33.2607
214 1 3.35022 30.8771 34.1487
213 1 3.75012 30.1208 33.6677
216 1 5.10691 31.3506 34.158
207 1 4.31537 30.9877 33.428
208 1 4.86975 30.2715 33.753
185 1 3.15672 31.5051 33.1644
186 1 3.39364 32.0344 33.9494
203 1 4.20235 32.0123 32.9366
205 1 5.33272 32.2161 33.4812
206 1 5.11673 31.4494 33.0011
182 1 3.60499 33.0843 33.0241
181 1 3.55358 33.1429 34.0113
204 1 4.59312 32.8767 33.438
369 1 29.702 58.405 33.3431
368 1 28.8392 57.8224 33.2904
365 1 27.0524 59.6014 33.6967
366 1 27.9813 59.4574 33.3849
367 1 28.6448 58.7641 33.1364
314 1 52.6805 3.56865 35.206
302 1 53.9278 4.05009 34.2984
315 1 53.567 3.22572 35.2661
308 1 52.2336 4.64741 35.3144
301 1 52.9951 4.39323 34.3376
304 1 54.1995 5.53251 35.175
303 1 53.9236 5.00065 34.5194
318 1 53.5353 4.36374 35.5392
307 1 53.0858 5.20957 34.9359
320 1 55.0458 4.40088 34.3139
319 1 54.4748 4.36826 35.1706
483 1 21.0219 15.4792 35.5004
484 1 21.1502 15.4233 34.5226
486 1 20.2763 16.5674 35.4219
485 1 20.558 16.1104 34.5472
123 1 22.7413 16.7133 35.3439
482 1 21.9588 15.7956 35.3745
122 1 21.7674 16.82 35.6061
132 1 21.094 17.4104 35.0884
125 1 22.3728 17.6678 35.2106
219 1 3.7643 31.1364 35.484
215 1 4.20603 31.3821 34.4665
217 1 4.95554 30.9667 35.0806
187 1 2.56993 31.64 34.3062
218 1 4.57378 31.7211 35.4484
441 1 22.8902 40.9656 35.5867
313 1 52.7166 3.04548 36.1645
312 1 51.8769 3.03078 35.8437
311 1 51.8358 3.33435 36.6771
309 1 52.636 4.10824 36.0933
310 1 52.6853 3.74218 36.9417
316 1 53.7366 3.56696 36.1866
306 1 53.3613 5.45715 35.9198
317 1 53.4381 4.5077 36.5819
305 1 54.3068 5.07602 36.0116
487 1 19.4326 16.7778 35.8125
481 1 22.6571 16.012 36.036
491 1 18.3585 17.2592 36.7822
489 1 19.8177 17.9826 36.5807
488 1 19.1855 17.6275 35.9511
133 1 20.5358 17.8016 35.8567
495 1 21.1819 17.6578 36.7818
498 1 22.0995 18.3729 36.8724
499 1 22.6525 18.4058 36.027
121 1 22.0182 17.4529 36.2309
124 1 23.1111 17.4656 35.8807
340 1 19.3324 19.4784 36.5025
339 1 19.9718 19.0144 37.1295
134 1 20.5549 18.762 35.8543
137 1 20.9839 19.7502 36.6556
135 1 21.475 18.8399 36.161
136 1 21.9638 19.5128 36.6899
500 1 23.0323 18.7315 36.7663
220 1 4.42046 30.7112 35.9925
452 1 22.6961 36.7408 36.7169
451 1 22.4113 37.6811 36.5708
450 1 21.8924 38.0943 35.9859
457 1 23.1983 37.5642 35.821
456 1 23.4598 37.9052 36.7505
459 1 22.6284 38.6483 36.9777
448 1 21.8846 39.8395 36.7785
449 1 22.0272 39.0296 36.1952
443 1 22.9657 39.797 36.4235
458 1 22.934 38.5939 36.0671
444 1 23.7029 40.1404 36.962
442 1 23.4452 40.1522 35.7361
445 1 23.9437 40.9726 36.6091
446 1 23.0196 40.8157 36.6469
492 1 19.1682 16.8972 37.2042
493 1 19.9298 16.8945 37.8023
490 1 19.0449 17.9608 37.237
494 1 20.7989 17.4213 37.5709
496 1 21.8744 17.513 37.4842
497 1 21.6876 18.3993 37.7108
337 1 18.3692 19.6017 37.8268
336 1 18.7993 19.0269 37.1976
338 1 19.4133 19.5637 37.8275
335 1 18.8196 18.6022 38.1253
333 1 19.9454 18.6797 38.4975
138 1 21.2343 19.2618 37.4101
140 1 20.5108 19.5893 38.3214
139 1 20.8996 20.1451 37.689
454 1 23.804 37.0028 37.6863
460 1 22.4418 38.3808 37.8209
453 1 22.8326 37.1468 37.5813
455 1 23.5133 37.9845 37.8261
447 1 22.4051 40.4465 37.3361
332 1 19.4056 18.0546 38.9123
327 1 21.3738 17.6428 39.7455
326 1 20.3816 17.481 39.4597
328 1 20.9566 18.3279 39.2562
334 1 18.9572 19.3105 38.7535
331 1 19.4976 18.8025 39.5189
330 1 19.975 19.7323 39.2425
329 1 20.5135 19.0763 39.8359
384 1 49.7791 26.183 39.755
385 1 49.0822 26.9437 39.6028
325 1 20.5827 17.0287 40.3076
324 1 20.1442 17.7605 40.7919
323 1 19.7797 18.6635 40.7096
322 1 20.5643 18.8138 41.3056
269 1 50.3863 24.2702 41.4015
270 1 49.3927 24.3037 41.3181
381 1 49.029 25.2902 40.7615
268 1 51.258 24.6078 41.3795
267 1 51.8419 25.4493 41.304
266 1 52.7254 25.3813 40.8675
382 1 49.1289 26.2271 40.5544
383 1 49.9937 25.9709 40.6888
395 1 50.6513 27.0313 40.0973
393 1 50.9619 26.4467 41.213
394 1 51.5592 26.8217 40.3965
389 1 49.033 27.3895 41.2854
386 1 49.6557 27.2224 40.299
388 1 49.6867 28.0557 41.1025
396 1 50.8494 27.532 40.8633
387 1 50.0313 28.1378 40.1306
262 1 52.7563 27.8453 40.8351
400 1 50.5318 29.3186 40.8358
321 1 19.9518 18.1839 41.7765
271 1 49.8103 24.8277 42.1002
272 1 50.7784 25.1842 42.1804
391 1 49.6419 26.2778 42.0821
390 1 49.8691 26.9655 41.5556
392 1 50.3604 25.9755 41.6512
278 1 50.3417 26.8801 42.5983
277 1 51.1112 26.3468 42.5525
264 1 52.1052 26.3784 41.6721
261 1 53.4483 27.1304 41.4286
265 1 52.9684 25.8143 41.5439
397 1 51.0563 27.273 41.8668
398 1 50.3461 27.9651 42.0424
263 1 52.2319 27.2699 41.4451
399 1 50.9753 28.8005 41.5004
273 1 50.7408 25.3343 43.152
274 1 50.0742 25.4746 43.871
279 1 49.7169 26.537 43.3847
276 1 51.1315 26.1695 43.7609
280 1 49.3933 27.4669 43.6387
64 1 17.972 1.03696 45.4568
275 1 50.7688 25.8926 44.5365
63 1 17.5956 0.510634 46.21
65 1 18.6355 0.661406 46.2733
79 1 18.1318 2.35936 47.0286
80 1 17.9496 2.74406 46.092
77 1 18.5618 1.79164 46.2594
76 1 17.6614 1.55508 46.5901
78 1 19.0221 2.26793 46.8546
62 1 17.8809 59.9244 46.9046
61 1 17.1174 0.330273 47.2659
71 1 17.309 1.3541 48.4358
75 1 17.6587 1.40577 47.5014
66 1 18.6915 0.381397 47.2428
240 1 19.7371 0.660357 48.4379
239 1 19.3535 1.40873 48.1281
237 1 21.0953 1.00251 48.0912
238 1 20.2027 1.23582 47.6331
73 1 17.5513 2.85083 48.1094
72 1 18.0396 2.11851 48.5186
74 1 17.1981 2.28839 47.3121
67 1 18.7643 59.9073 48.1326
70 1 18.0731 1.02874 48.6747
69 1 18.1047 0.0954038 49.1516
226 1 18.3943 0.556369 49.9981
227 1 19.2354 0.718982 49.4456
235 1 21.2005 1.27055 49.6288
236 1 21.3363 0.647129 49.0475
229 1 20.2209 0.388891 49.3512
224 1 18.624 1.56058 49.8531
146 1 13.7026 12.6034 49.3126
160 1 15.5358 12.4223 49.7178
151 1 13.811 14.0349 49.6528
149 1 13.0064 13.4796 49.1285
145 1 14.3577 13.2285 48.9894
143 1 15.3136 13.4983 49.518
150 1 12.9949 14.4831 49.4283
68 1 18.2963 59.2487 48.6795
228 1 19.408 59.9006 49.0675
230 1 20.2711 59.5392 49.6467
225 1 17.8638 1.39187 50.5012
222 1 19.4466 0.370168 50.8813
223 1 19.2037 1.39043 50.7854
233 1 20.4522 0.91903 50.6864
232 1 20.574 0.012493 50.4894
234 1 20.3294 1.63481 50.0514
147 1 13.2403 12.3169 50.179
158 1 15.2238 12.433 50.7427
159 1 15.3075 11.5489 50.3275
155 1 13.1211 13.5922 51.3757
152 1 14.0954 14.0641 50.527
156 1 13.7131 12.9614 50.9926
148 1 13.1896 13.355 50.0826
157 1 14.6781 13.0577 51.3073
141 1 15.2713 14.272 51.1646
142 1 15.5085 13.5265 50.5441
144 1 14.4509 13.0476 50.013
153 1 13.1703 14.4695 50.5511
231 1 19.6753 59.4308 50.5252
154 1 13.374 14.4907 51.6199
19 1 30.1665 24.7259 52.5488
20 1 31.1257 25.0436 52.3278
6 1 29.7282 26.5346 52.7094
1 1 31.5914 25.9964 52.3041
5 1 30.5034 27.2604 52.7077
221 1 19.9477 59.9005 51.6101
18 1 30.6489 24.1606 53.0956
13 1 29.5685 24.9452 53.9561
12 1 28.8051 25.3654 53.4531
17 1 30.7133 25.1468 53.3513
11 1 28.8765 26.3255 53.6597
10 1 29.596 27.1385 53.6757
7 1 29.985 26.1271 53.5765
3 1 31.0212 26.3595 53.8603
2 1 30.9396 26.201 52.8851
4 1 30.691 27.2889 53.7111
14 1 29.8275 24.3888 54.7143
15 1 30.5987 24.4976 55.1195
16 1 30.5439 25.0611 54.3122
8 1 29.5495 25.9449 54.4739
9 1 30.2879 26.7063 54.4882
106 1 5.83337 46.8583 57.0351
111 1 6.96915 47.3822 56.9163
108 1 5.947 47.8446 56.4182
109 1 6.72093 48.391 56.3621
110 1 7.56982 47.786 56.2101
101 1 5.49986 49.1548 56.9841
103 1 5.65424 48.4695 58.1265
120 1 4.5249 47.7103 58.1903
105 1 5.6222 47.1932 57.9446
107 1 5.33193 47.8044 57.2234
113 1 6.3986 48.1505 57.3852
114 1 6.57853 47.6925 58.0924
112 1 7.36487 48.1629 57.4349
102 1 6.10016 49.2265 57.7278
115 1 6.71433 48.6762 58.375
104 1 5.52297 47.7647 58.8238
118 1 5.02951 48.5604 59.5806
119 1 4.41015 48.3253 58.9298
116 1 6.45738 48.1148 59.1816
117 1 5.88954 48.9277 59.0215
ITEM: TIMESTEP
16000
ITEM: NUMBER OF ATOMS
500
ITEM: BOX BOUNDS pp pp pp
0.0000000000000000e+00 6.0000000000000000e+01
0.0000000000000000e+00 6.0000000000000000e+01
0.0000000000000000e+00 6.0000000000000000e+01
ITEM: ATOMS id type x y z
23 1 37.9648 11.9731 3.72878
38 1 37.5945 11.717 1.77243
40 1 37.4651 11.4904 2.82883
39 1 38.0262 12.1938 2.51011
36 1 39.2568 11.4372 2.49991
21 1 36.8405 11.2731 3.81
29 1 38.8349 10.7286 4.63556
22 1 37.0422 12.2386 3.74971
28 1 37.9297 10.8196 4.23081
35 1 39.6973 10.9855 3.25762
37 1 38.4398 11.3364 1.97792
34 1 39.1316 11.5819 3.84161
25 1 38.5919 10.477 2.64783
24 1 38.3762 11.2008 3.19029
31 1 39.7407 10.2271 4.16381
30 1 38.9634 10.4198 3.82162
27 1 37.5262 10.5519 3.34448
32 1 40.4002 10.843 4.05506
33 1 39.6842 11.4788 4.61702
26 1 37.5837 10.5719 2.39467
242 1 45.469 36.9601 13.3832
241 1 45.1836 36.4483 12.6521
246 1 45.1092 37.89 12.2941
247 1 45.8473 37.8368 12.9749
245 1 45.588 37.1325 11.7901
249 1 46.9934 37.847 12.7871
244 1 46.6659 37.156 11.969
243 1 46.269 36.7295 12.6802
251 1 48.3196 38.633 13.5705
248 1 46.3362 38.2238 12.1476
289 1 45.847 46.3554 16.2475
437 1 49.6591 37.9972 10.2665
425 1 49.6857 38.5529 12.1687
422 1 51.1361 37.451 12.6729
424 1 49.8222 37.7334 12.7581
426 1 49.2233 38.6648 12.9419
433 1 51.4817 38.6625 10.2758
439 1 50.9619 37.292 10.3195
428 1 50.5266 38.7135 13.0949
427 1 49.8957 39.3344 13.1961
254 1 48.8658 37.751 13.8021
253 1 49.4847 38.4826 14.0461
257 1 47.939 37.497 15.5524
256 1 48.5007 37.1658 14.9008
161 1 46.7706 36.0158 14.1479
250 1 47.9673 37.7721 13.1278
168 1 47.3192 38.1592 13.9216
252 1 48.6311 38.5038 14.6083
258 1 47.4312 37.6531 16.3995
288 1 46.0093 46.5783 15.3099
285 1 45.9766 45.0771 15.228
287 1 46.4611 45.9942 14.7024
290 1 44.9147 45.8041 16.245
284 1 45.3148 45.7721 15.2853
286 1 46.5803 45.7056 15.6406
292 1 43.494 44.7509 16.3845
293 1 44.5615 44.7216 16.3684
291 1 43.8141 45.6819 16.1517
436 1 50.0712 38.7043 9.85155
423 1 50.6126 38.1155 12.1211
421 1 50.6697 37.609 13.5011
430 1 51.8134 38.3167 12.6037
434 1 51.1112 38.4741 9.3818
431 1 51.9989 38.7833 11.7588
435 1 50.3452 37.8534 9.47305
440 1 51.8068 37.4102 10.3788
438 1 50.4524 37.7481 10.8553
429 1 51.1607 39.0769 12.4966
432 1 51.4916 38.2083 11.0317
255 1 49.4153 37.3186 14.4844
171 1 47.3716 36.3847 15.7608
178 1 47.9079 39.2115 15.2688
179 1 47.6977 38.5916 16.0007
260 1 47.9888 38.0398 17.4254
172 1 46.605 36.5605 15.2162
169 1 47.8855 37.5244 14.1811
259 1 48.4042 37.7412 16.5032
162 1 46.7231 37.0955 13.6412
163 1 46.6826 37.3223 14.5057
166 1 45.9331 37.6281 14.0702
170 1 47.5751 36.7874 14.7364
177 1 46.9169 39.1306 15.5255
167 1 46.3826 38.3841 13.852
281 1 46.1844 47.8096 15.2467
282 1 45.2678 47.3811 15.0413
283 1 44.993 46.6632 15.626
300 1 44.4537 44.1508 14.6463
294 1 44.5231 45.0057 15.487
298 1 42.8573 44.4098 15.4252
296 1 43.4502 43.6864 15.063
297 1 43.2986 43.7508 16.07
295 1 44.2331 43.9568 15.769
173 1 46.9446 37.5179 15.4927
175 1 46.4094 38.5249 14.9402
174 1 47.443 38.2645 14.9906
180 1 47.169 38.5995 16.7402
164 1 45.8409 37.3909 15.2033
165 1 45.7717 36.8215 14.542
176 1 47.0645 39.2189 14.5823
299 1 43.6266 44.7641 14.812
350 1 1.06056 27.533 25.3229
87 1 0.610453 29.7985 24.7199
83 1 0.760663 28.535 24.5326
82 1 1.67746 28.7928 24.3507
84 1 0.761394 29.2638 23.8477
85 1 1.5342 29.8387 23.7462
86 1 1.57281 30.1173 24.7303
349 1 0.940448 26.6891 25.362
348 1 1.88286 26.7623 25.095
347 1 2.05197 26.1918 26.0496
355 1 2.73444 28.3898 25.0278
341 1 2.79103 27.2586 25.0393
81 1 1.71961 27.8829 24.4659
352 1 1.28984 28.131 26.6339
351 1 0.383148 28.1803 25.9907
356 1 2.30727 29.2828 25.2074
357 1 2.68011 30.2308 25.5403
358 1 3.33328 29.6275 25.8807
360 1 2.74795 28.8279 26.1371
89 1 0.979982 29.9499 25.7138
91 1 1.24342 29.3138 26.7033
92 1 0.215076 29.0249 26.7778
93 1 0.665777 28.304 27.3818
88 1 0.295036 29.2577 25.3857
90 1 1.81054 29.827 26.0321
354 1 2.031 27.9045 25.5648
346 1 2.84514 26.3164 26.5925
345 1 2.63147 27.2319 26.4705
343 1 3.76094 28.4158 25.8172
342 1 3.67083 27.848 24.8243
353 1 1.60949 28.8196 25.8717
98 1 2.14335 27.6467 27.1383
359 1 2.76831 29.6804 26.6673
94 1 1.12431 29.182 27.9622
96 1 1.44479 27.8258 28.1561
95 1 2.05193 28.6744 27.5972
344 1 3.53907 27.4007 26.1105
97 1 2.34588 27.3308 28.1723
100 1 1.22279 27.085 26.4026
99 1 1.34099 27.1019 27.3328
402 1 20.9257 6.37098 30.6945
401 1 20.3892 7.18245 30.5228
418 1 20.4324 4.30917 29.8021
420 1 20.8242 3.363 30.448
419 1 20.0345 3.46345 29.7368
403 1 20.7586 6.45713 29.6547
405 1 21.4642 4.74589 30.0537
413 1 20.0855 4.75055 31.6543
414 1 20.2691 5.5613 31.2308
415 1 19.6424 5.30095 30.5153
417 1 20.5691 4.65116 30.7588
416 1 19.5906 4.23085 30.5892
468 1 21.4944 3.98931 31.8215
412 1 20.2321 4.69462 32.6682
404 1 21.3408 5.73336 29.827
407 1 22.6524 5.86205 31.2193
406 1 21.8061 5.49832 30.8441
42 1 58.7975 23.3147 31.0354
45 1 58.644 22.3975 32.1744
43 1 58.6481 23.9022 31.7946
51 1 56.9888 21.3865 32.9531
59 1 59.7912 22.3279 31.6915
60 1 59.5641 23.0644 32.3507
58 1 59.3182 21.5953 31.2453
57 1 58.3135 21.064 31.4396
56 1 58.2254 22.0137 31.3122
52 1 57.2354 21.1437 31.9729
196 1 4.16554 33.8019 33.6953
195 1 4.63403 34.4143 34.163
200 1 5.08496 33.1367 33.1847
199 1 3.9912 32.9179 33.1215
380 1 28.2872 0.906703 31.613
379 1 28.5425 1.37304 32.597
378 1 27.8682 1.98956 32.2691
376 1 26.9264 1.7023 31.857
377 1 26.9725 2.27998 32.7164
363 1 27.141 0.4712 34.5756
374 1 27.38 1.31683 33.4719
361 1 27.7919 1.63521 34.4173
472 1 22.4095 4.667 32.9437
473 1 21.6402 4.20959 33.1461
470 1 21.4542 5.25889 32.6314
469 1 21.5761 5.04733 31.7507
467 1 22.1158 4.26988 30.9732
411 1 20.5648 5.56414 32.162
475 1 20.9189 5.23357 33.712
408 1 22.0866 6.00308 32.0386
464 1 22.4956 4.37954 31.9284
466 1 22.5888 3.55382 31.3385
465 1 23.4588 4.0027 31.6453
478 1 23.0757 6.07355 33.9334
462 1 22.8635 4.43734 30.1918
463 1 23.0425 4.88281 31.1503
461 1 23.6275 3.89948 30.4277
410 1 20.3747 6.35926 32.8214
409 1 21.3338 6.4469 32.5616
41 1 59.7427 23.6448 31.419
44 1 58.1588 23.1645 31.7518
47 1 59.8153 21.4221 32.3482
46 1 59.2331 22.0438 32.8179
53 1 56.6859 22.0065 32.1999
50 1 57.9358 21.1327 32.9265
49 1 58.9248 20.9125 32.6998
55 1 57.6958 22.0691 32.0664
54 1 57.0429 22.7128 31.5503
194 1 5.66787 34.6414 34.3001
210 1 5.79142 30.3264 32.5147
193 1 5.29721 33.7219 34.2538
192 1 5.49171 33.0016 34.8055
198 1 4.09097 32.3866 33.9597
197 1 4.1756 33.2354 34.4858
212 1 5.83205 30.5412 33.7851
211 1 6.21714 30.8622 33.0646
184 1 5.06243 31.9167 34.6433
183 1 5.71174 31.9429 35.1857
201 1 6.99392 30.1689 32.4832
202 1 6.76594 29.9191 33.3995
372 1 28.8176 0.450223 33.2215
371 1 28.3272 0.120058 32.4482
375 1 27.4308 1.01973 32.559
373 1 27.7855 0.383954 33.3049
370 1 27.571 59.5902 32.2786
364 1 26.5221 1.21206 34.2089
362 1 28.1442 0.773348 34.4016
471 1 22.276 5.58401 33.1869
480 1 24.161 5.7697 33.4102
479 1 23.3186 5.34263 33.0614
474 1 20.8295 4.20223 33.8467
476 1 21.419 6.19605 33.6718
477 1 22.082 5.97268 34.3471
130 1 20.1389 18.8493 34.9541
129 1 20.6739 18.5697 35.6443
128 1 21.6456 18.6808 35.223
131 1 19.2134 19.2663 35.2968
126 1 22.0035 17.7746 36.9287
127 1 21.641 18.0927 35.9976
48 1 59.6101 20.4542 32.0369
209 1 6.24772 29.3964 32.4711
190 1 5.66184 33.5663 35.6827
188 1 4.54446 32.5391 35.451
191 1 4.77795 33.7462 35.1295
189 1 5.2963 32.7394 36.1299
214 1 4.23816 30.732 33.7956
213 1 5.09699 31.1809 33.7499
216 1 4.79288 29.6687 34.0438
207 1 5.75037 29.4574 33.515
208 1 5.30842 29.4427 32.6698
185 1 4.32926 31.4154 34.6255
186 1 5.02168 30.9965 35.1853
203 1 6.5515 30.0426 34.3885
205 1 6.31036 28.9358 34.6005
206 1 6.53965 28.9562 33.7201
182 1 6.09804 31.5197 34.3728
181 1 5.94562 30.8074 34.9939
204 1 5.66527 29.7277 34.52
369 1 26.7893 0.0285739 31.8974
368 1 25.8132 0.0937229 32.3826
365 1 26.4243 0.741957 33.4499
366 1 26.2055 1.12407 32.4726
367 1 25.4425 0.732851 33.085
314 1 52.5669 6.02527 35.621
302 1 53.0051 6.886 36.9702
315 1 53.2737 5.60217 36.4388
308 1 51.2626 6.92574 37.0072
301 1 52.3442 6.25966 36.6264
304 1 52.7071 6.08413 38.1712
303 1 53.1742 6.02059 37.39
318 1 52.5031 5.07479 37.5819
307 1 52.1256 6.70933 37.478
320 1 52.6146 4.02447 37.0447
319 1 53.313 4.77306 37.237
483 1 21.1072 18.0096 34.3304
484 1 20.7663 17.4803 35.179
486 1 19.8406 16.5225 35.4377
485 1 19.7675 17.3798 34.7648
123 1 20.7743 17.6962 36.3645
482 1 21.8181 18.1192 33.6262
122 1 19.9103 17.6183 35.9419
132 1 18.991 18.3782 35.6545
125 1 21.5192 16.8983 36.8587
219 1 5.56234 28.5212 33.3086
215 1 5.00291 30.271 33.3101
217 1 4.91679 28.8399 34.5983
187 1 4.87371 31.8132 35.7871
218 1 5.62676 28.1392 34.1943
441 1 27.5077 38.1852 38.5493
313 1 51.971 5.26232 35.6278
312 1 51.0697 5.23941 35.938
311 1 50.1287 5.0162 36.156
309 1 51.2235 5.91945 36.7205
310 1 50.5445 5.33579 36.9144
316 1 52.5091 4.98871 36.508
306 1 51.5698 5.98971 37.9384
317 1 51.7017 4.90112 37.0517
305 1 51.9586 6.5539 38.7088
487 1 20.545 16.273 34.641
481 1 21.664 18.3376 32.6065
491 1 20.7422 15.007 36.8713
489 1 20.7287 15.8365 35.6285
488 1 21.3868 16.0053 35.0549
133 1 18.9302 18.1029 36.4912
495 1 20.4556 17.1018 37.3106
498 1 20.4755 17.6726 38.2345
499 1 19.5624 17.978 38.2389
121 1 19.7852 18.6262 36.3205
124 1 20.7044 16.7724 36.2939
340 1 19.0754 15.9412 36.3749
339 1 19.1955 15.588 35.4796
134 1 18.9312 17.2974 36.1327
137 1 18.5391 16.9511 37.0716
135 1 19.6159 16.902 36.6204
136 1 19.2222 17.5106 37.259
500 1 19.2079 18.6569 37.4235
220 1 4.68513 28.2365 33.2449
452 1 24.9988 41.1735 34.768
451 1 25.3593 40.3253 35.1132
450 1 25.4185 40.3107 36.1024
457 1 26.7216 39.807 35.0759
456 1 27.0139 40.7241 34.7901
459 1 25.1147 39.2914 35.1082
448 1 26.1123 38.9665 36.8703
449 1 26.0787 39.5492 36.1888
443 1 27.6484 38.8847 37.384
458 1 26.0537 39.0484 35.2488
444 1 26.9403 39.5083 36.9167
442 1 28.2882 38.5251 38.0087
445 1 27.7608 39.3965 36.2792
446 1 26.9513 38.8928 35.8877
492 1 21.1506 15.8577 36.7817
493 1 21.8805 15.9501 37.3209
490 1 20.1991 15.5819 36.3473
494 1 21.0467 16.4692 37.7327
496 1 20.4302 18.1761 37.3124
497 1 21.3419 17.7571 37.6929
337 1 18.9946 14.769 36.5368
336 1 19.7144 14.8967 37.2579
338 1 18.7635 14.7932 35.5567
335 1 18.9742 15.5001 37.3002
333 1 20.3247 15.7037 38.0066
138 1 19.1493 16.6275 37.8717
140 1 19.3619 16.0093 38.6628
139 1 19.8414 16.8454 38.3513
454 1 25.7436 40.3963 34.087
460 1 25.0866 38.7363 34.2661
453 1 24.785 40.7281 33.9379
455 1 26.0829 41.1099 34.7168
447 1 26.4114 38.2284 36.2926
332 1 21.2805 15.3598 38.0061
327 1 20.5521 16.2751 39.0731
326 1 21.3805 16.4417 38.8572
328 1 20.1881 15.3948 38.9508
334 1 19.8314 16.1096 37.2819
331 1 20.8174 14.6172 38.2552
330 1 21.1426 14.4109 39.1607
329 1 20.3631 14.7341 39.5362
384 1 53.2361 25.1852 41.3212
385 1 53.1395 25.1509 40.1676
325 1 22.1615 15.9036 38.4798
324 1 22.1038 14.8863 38.6107
323 1 21.3474 15.3323 39.1551
322 1 21.3196 15.0997 40.1486
269 1 53.1538 26.3166 45.3119
270 1 52.241 26.5247 45.13
381 1 51.3242 23.0652 42.4026
268 1 53.6251 25.5875 45.0354
267 1 53.5427 25.9058 44.0728
266 1 52.8415 26.1916 43.4533
382 1 51.9823 23.9558 42.3133
383 1 52.5857 24.4641 41.6021
395 1 51.2709 25.4835 42.9538
393 1 50.1676 25.0075 43.3323
394 1 50.297 26.0426 43.1239
389 1 51.3424 25.9413 41.7265
386 1 52.381 25.598 40.6327
388 1 52.2099 25.8733 41.6314
396 1 51.932 25.9482 42.6407
387 1 52.0204 26.4963 40.9701
262 1 53.8984 25.7454 42.3284
400 1 50.4548 26.7292 40.6883
321 1 20.3888 15.0089 40.6112
271 1 52.2394 25.5744 44.6449
272 1 52.2621 24.5781 44.8028
391 1 51.1415 23.9883 41.6788
390 1 51.0459 24.9822 41.5792
392 1 50.7019 24.5245 42.5123
278 1 50.6435 26.8143 42.5059
277 1 51.2808 26.7026 43.2293
264 1 53.8957 26.6513 43.094
261 1 54.6384 24.956 42.2437
265 1 52.8891 26.8766 42.6801
397 1 51.9003 26.8222 42.0186
398 1 51.5617 27.7014 41.7456
263 1 54.6367 26.5033 42.3685
399 1 51.0017 26.9973 41.3318
273 1 52.6291 24.9604 43.8158
274 1 51.6594 24.8113 44.0682
279 1 50.3166 25.9242 42.1186
276 1 51.8921 26.0681 43.7146
280 1 49.4311 26.0795 42.2253
64 1 17.268 0.846886 48.3838
275 1 51.1557 25.7236 44.2502
63 1 18.1075 0.882351 47.8217
65 1 16.9031 0.626085 49.1805
79 1 18.571 2.9441 47.1436
80 1 18.1932 3.84524 47.0616
77 1 19.3516 2.93715 48.2269
76 1 18.4172 3.25667 48.3097
78 1 19.1318 3.63369 47.5196
62 1 18.2158 0.0952801 47.1416
61 1 18.9165 59.6245 46.5079
71 1 19.0798 1.68471 50.3143
75 1 18.8764 3.08963 49.1604
66 1 17.5001 59.8358 49.2292
240 1 20.4949 1.55259 48.8649
239 1 20.249 2.11831 48.1278
237 1 19.0695 1.24989 47.4769
238 1 19.652 1.26127 48.2313
73 1 18.4672 2.01329 49.0285
72 1 19.439 2.15273 49.4689
74 1 18.242 2.63317 49.7308
67 1 18.3973 0.0163843 48.8586
70 1 19.8505 1.17315 49.8181
69 1 19.0438 0.958042 49.3344
226 1 20.5803 59.8614 49.5003
227 1 20.4177 59.4156 48.6668
235 1 18.6845 1.08344 46.07
236 1 18.5055 1.74434 46.7808
229 1 20.6543 58.9332 47.1818
224 1 20.7229 0.321561 48.2661
146 1 16.3796 14.1503 51.2724
160 1 15.6101 11.5765 51.1582
151 1 17.5421 13.9988 50.3072
149 1 16.4937 13.6999 50.2012
145 1 16.0532 14.2663 52.2996
143 1 14.7815 13.6329 51.1695
150 1 17.2482 13.1814 50.7154
68 1 18.0213 0.77881 49.3983
228 1 19.9265 59.2437 47.8159
230 1 20.0353 59.0673 46.4198
225 1 20.0305 0.450462 49.0075
222 1 21.3092 59.9919 47.0985
223 1 21.3116 0.834556 47.7386
233 1 19.1285 0.718567 44.8226
232 1 19.6028 59.6832 45.095
234 1 18.7745 0.193931 45.599
147 1 16.3532 13.1256 51.3421
158 1 15.3353 12.6378 51.2254
159 1 16.1342 12.1834 51.6607
155 1 16.252 11.5827 50.4034
152 1 17.6293 13.5715 49.3632
156 1 15.3089 11.7486 50.0459
148 1 15.7039 13.4661 50.6597
157 1 15.1223 12.6744 50.2388
141 1 15.8851 14.6905 50.275
142 1 15.1279 14.6068 50.8526
144 1 15.3914 13.7142 51.8239
153 1 16.953 12.8387 49.6644
231 1 19.259 58.9994 45.6557
154 1 16.1971 12.5104 50.3435
19 1 25.0815 27.5116 57.2617
20 1 24.7605 26.6183 56.7607
6 1 26.5277 25.8553 55.0198
1 1 27.9713 26.0038 56.2348
5 1 26.959 25.1152 54.4102
221 1 21.0463 59.4598 46.238
18 1 25.3188 28.3934 56.9312
13 1 26.4409 27.5909 56.1561
12 1 26.2348 27.5994 55.1275
17 1 26.3433 28.5579 57.1714
11 1 27.2192 27.8624 55.1031
10 1 26.8215 27.8193 54.1399
7 1 26.7964 26.7329 55.4892
3 1 28.5089 25.752 54.8384
2 1 27.5543 25.8575 55.4123
4 1 27.9662 25.0357 54.6795
14 1 27.1517 28.1875 56.0776
15 1 27.579 27.6791 56.6953
16 1 26.8106 27.8029 57.5012
8 1 27.1802 26.643 54.4983
9 1 27.7798 27.4348 54.0103
106 1 4.75532 47.5842 56.2679
111 1 4.64734 47.5126 54.1054
108 1 3.68283 47.6978 56.0995
109 1 4.21715 47.5708 55.1901
110 1 4.45521 46.7123 54.6343
101 1 5.18563 49.9519 56.1865
103 1 5.4965 49.059 55.4619
120 1 6.41676 47.4238 55.9164
105 1 5.12929 48.4218 56.6756
107 1 4.09732 48.1165 56.8722
113 1 3.7416 48.512 55.1437
114 1 4.55922 48.4934 55.7347
112 1 4.372 48.4226 54.4675
102 1 5.86401 49.3333 56.4475
115 1 5.21986 47.8728 55.0941
104 1 5.80968 48.2245 55.9834
118 1 6.47121 48.7599 55.1397
119 1 6.90418 48.1851 55.6273
116 1 5.53145 48.6213 54.4997
117 1 6.2392 47.8496 54.8439
ITEM: TIMESTEP
17000
ITEM: NUMBER OF ATOMS
500
ITEM: BOX BOUNDS pp pp pp
0.0000000000000000e+00 6.0000000000000000e+01
0.0000000000000000e+00 6.0000000000000000e+01
0.0000000000000000e+00 6.0000000000000000e+01
ITEM: ATOMS id type x y z
37 1 38.4422 10.6806 3.12533
26 1 39.1114 12.6487 4.54007
36 1 37.6843 10.2148 3.41591
25 1 38.4227 11.8853 4.3515
38 1 38.8486 9.82314 3.13144
40 1 39.5716 10.0512 4.88459
39 1 38.799 10.0066 4.13192
21 1 39.5938 9.05109 3.40494
28 1 40.1674 10.9586 4.77177
24 1 38.5979 10.964 4.27887
27 1 39.6189 11.7819 4.56546
35 1 37.4254 10.9989 3.90993
31 1 38.6192 10.55 5.82016
30 1 39.0401 11.4353 6.01143
32 1 38.3149 11.3696 5.36116
22 1 40.0067 9.93203 3.91057
23 1 39.5351 10.8534 3.91462
34 1 37.6879 10.464 4.82273
29 1 39.3111 10.9847 5.19507
33 1 37.3558 11.329 5.20251
434 1 48.6122 42.771 7.3672
435 1 49.3393 43.276 6.96413
436 1 49.7209 42.5695 7.55844
437 1 49.0117 42.405 8.34607
439 1 50.2173 42.056 8.35817
438 1 49.3594 41.5916 8.02184
440 1 51.0908 42.395 8.76438
432 1 48.3164 44.2931 8.08305
433 1 48.1879 43.2374 8.0687
241 1 48.1613 34.1254 11.255
245 1 48.2936 35.6663 12.8954
244 1 47.5367 35.1077 12.5467
243 1 48.0254 35.0196 11.8344
246 1 48.9475 35.7237 12.0742
249 1 47.738 37.2742 10.6875
248 1 48.524 37.0029 10.9881
424 1 49.3836 42.0316 9.62287
422 1 50.0581 42.9557 8.85004
423 1 49.2233 43.1086 9.5099
430 1 49.5006 43.8742 8.82681
425 1 50.1335 41.8404 10.3044
429 1 50.4467 44.3168 8.58969
431 1 49.1009 43.6898 7.98413
242 1 47.3759 34.7052 11.2246
161 1 44.8766 35.4169 11.9943
162 1 45.3703 36.2106 12.1404
247 1 48.2726 36.143 11.2837
166 1 46.8392 37.0525 11.2095
167 1 46.4452 37.5167 11.9297
250 1 47.2124 38.0866 10.9663
168 1 45.7095 37.0485 12.674
169 1 46.3934 36.3219 12.4995
254 1 48.4511 36.6164 12.4006
253 1 48.9815 37.3621 12.2671
421 1 50.2522 42.9767 9.72926
251 1 48.18 38.4148 10.902
426 1 50.0585 42.6421 10.7375
427 1 50.1523 43.6326 10.5484
428 1 50.3951 44.1113 9.60974
172 1 47.7843 36.3061 13.9116
165 1 46.8749 36.1691 10.6665
170 1 47.3069 36.3881 12.0126
163 1 46.0898 36.274 11.4242
173 1 46.9397 36.4452 13.907
175 1 46.6399 35.5864 13.2909
164 1 46.7616 35.6829 11.5309
257 1 47.5365 38.3113 12.0821
256 1 47.4138 37.4499 12.4994
174 1 47.1154 35.5017 14.2551
252 1 48.7967 38.1591 11.6418
255 1 47.9878 37.3862 11.8472
177 1 45.8075 36.5316 13.6297
176 1 45.4904 35.6583 13.2304
178 1 45.9251 37.5153 13.8374
296 1 45.3318 46.6871 13.7884
300 1 46.4431 46.6382 14.3689
298 1 45.6109 47.3699 15.6072
299 1 46.0232 46.5623 15.3252
294 1 44.9446 45.3468 14.721
285 1 44.7999 45.7235 15.8427
286 1 44.0559 45.2892 15.4666
284 1 44.9166 45.4308 16.7707
283 1 44.4593 44.795 16.2024
288 1 43.4367 44.2365 15.4124
287 1 44.0469 44.6472 14.766
282 1 43.5094 44.6018 16.4065
281 1 43.5767 45.5787 16.436
171 1 47.4882 36.3843 12.9995
258 1 47.8216 38.2246 13.1381
259 1 48.2441 37.2455 13.1215
179 1 46.5554 37.4284 13.2217
180 1 46.4678 38.3639 13.3475
297 1 45.4274 47.3289 14.6368
295 1 45.3532 46.3198 14.6931
292 1 44.4825 46.9255 14.7107
291 1 43.9048 46.4241 15.4819
293 1 44.2624 46.0458 14.3753
290 1 43.1263 45.9795 15.4937
289 1 42.9705 45.089 15.1869
260 1 47.5449 37.3544 13.6954
84 1 59.4884 27.1143 25.3879
85 1 58.5268 27.2311 25.1877
349 1 58.6277 26.4034 26.4992
348 1 59.5279 26.2427 25.8469
350 1 58.7972 27.4342 26.3036
83 1 59.3342 27.9367 24.794
355 1 0.468205 27.6426 27.4164
341 1 1.53166 28.87 26.0507
81 1 59.7287 28.4402 26.3378
354 1 1.29755 28.0864 27.5121
342 1 0.643208 28.6526 25.6282
87 1 58.2651 28.49 26.5081
89 1 57.7686 27.604 26.8359
88 1 57.4163 28.2788 26.2356
82 1 59.5314 28.8343 25.4027
356 1 0.306617 28.7719 27.7971
86 1 58.5393 28.1677 25.532
357 1 0.00397001 29.2769 26.9301
100 1 1.99918 26.5583 26.2562
347 1 0.492823 25.9865 25.6439
346 1 0.605111 26.4075 24.759
352 1 0.832023 27.7508 26.455
351 1 59.7785 27.4438 26.4533
345 1 1.12201 27.3228 25.2504
343 1 0.448393 28.3189 24.783
344 1 0.410492 27.4439 24.5483
91 1 59.2898 27.4648 27.7122
92 1 59.506 26.7106 27.1541
360 1 0.26432 29.8196 25.5974
90 1 58.5203 27.8186 27.4473
353 1 0.847418 28.596 26.7514
359 1 0.035554 30.1995 26.5109
358 1 0.966342 29.693 26.399
99 1 1.81161 27.5352 26.2682
93 1 0.385463 26.4012 26.6654
96 1 1.66597 25.8408 27.8835
98 1 1.33342 27.0903 27.0531
97 1 0.811879 26.4545 27.6661
94 1 0.69584 25.5998 26.9417
95 1 1.19354 25.1182 27.7296
419 1 20.5756 4.24902 29.8309
418 1 20.2879 3.9923 30.6304
404 1 19.8548 5.52097 30.1883
403 1 19.5958 5.98839 30.9719
416 1 19.4304 4.47463 32.4294
420 1 20.6203 3.3298 29.9433
467 1 20.6503 2.52636 31.7724
466 1 20.0488 3.19435 32.271
461 1 19.1247 3.45408 32.6602
415 1 19.655 5.1273 31.7682
414 1 20.0885 6.0145 32.1037
417 1 19.7124 4.17433 31.4142
405 1 20.4187 4.98142 30.8474
406 1 20.5869 5.8688 31.2652
462 1 18.4851 2.71826 32.3013
463 1 18.6789 2.00065 31.9141
402 1 18.7695 5.4522 30.9052
407 1 21.6294 5.83073 31.3318
401 1 19.0842 4.60105 30.4224
57 1 1.49719 22.4667 32.7334
56 1 1.32498 23.173 32.0037
58 1 1.54877 22.2422 31.6847
42 1 59.8866 20.3169 32.6618
41 1 0.562025 20.4206 31.9488
369 1 25.188 2.99965 32.6193
368 1 25.6653 3.81049 32.9573
366 1 24.9167 2.92576 33.744
380 1 26.8674 3.07096 35.6555
379 1 26.403 2.78203 34.7734
371 1 26.299 1.39468 32.3325
375 1 26.6929 2.68797 32.9395
376 1 26.6195 3.5101 33.4785
377 1 27.5221 3.40456 33.6529
378 1 26.9716 3.54258 34.558
468 1 20.562 3.06174 31.0376
465 1 19.2257 3.16467 31.6379
413 1 19.4 5.7502 32.5954
412 1 20.1629 5.22115 32.7963
411 1 20.516 6.00378 33.3259
470 1 21.6956 4.21282 31.7373
469 1 20.7903 3.88013 31.6821
464 1 18.5002 2.60212 31.2795
410 1 21.4267 6.35872 33.2046
409 1 21.0214 5.97586 32.4332
408 1 20.932 5.06965 31.8283
481 1 18.0052 17.4657 36.8369
52 1 59.9642 23.996 33.3678
47 1 0.307496 23.0099 31.633
49 1 58.7898 23.4291 31.8638
48 1 59.3857 22.5798 31.957
53 1 0.894091 24.5359 33.4437
54 1 1.34545 23.6384 33.5311
55 1 0.761831 23.6762 32.7524
45 1 0.639846 21.4217 32.7354
59 1 0.864081 21.3488 31.5957
46 1 0.46978 22.2858 32.1678
44 1 1.01569 20.6589 33.2479
43 1 0.330174 20.072 33.4364
60 1 0.53193 22.0016 30.9687
208 1 6.19783 32.8058 34.5678
209 1 6.70213 32.8396 35.55
210 1 7.63757 32.7982 35.2616
201 1 6.54838 30.7564 33.7743
370 1 25.6339 2.15112 32.3556
367 1 24.7257 3.89578 33.3324
364 1 25.6207 2.28222 34.3523
365 1 25.8275 2.51778 33.4312
374 1 27.0336 2.55267 33.7986
373 1 26.4921 1.78085 33.6866
372 1 27.1394 1.65347 32.8684
474 1 20.2311 4.18673 32.9703
473 1 20.8712 3.88336 33.6676
475 1 21.0475 4.30845 32.615
472 1 20.9424 3.17959 32.8648
471 1 21.5335 3.24003 31.974
479 1 22.3157 5.30005 33.15
476 1 22.0813 4.04568 32.7994
478 1 23.1013 4.72104 33.589
480 1 22.022 5.28961 32.0973
482 1 18.5871 17.6782 36.0125
51 1 59.6521 23.0804 32.9004
50 1 59.1626 23.8818 32.6267
219 1 4.18077 30.2067 33.4925
218 1 3.41984 30.8115 33.3625
220 1 4.38369 30.9115 32.8275
216 1 4.45492 30.9079 34.7856
202 1 5.78431 30.3464 33.1031
207 1 5.88053 31.9454 34.1385
206 1 5.33247 31.432 33.5025
214 1 5.75273 31.0493 35.1121
213 1 6.24208 31.8108 35.1691
215 1 4.96635 31.684 35.1312
212 1 7.00911 31.4733 34.6946
211 1 7.19173 32.3703 34.5738
198 1 8.78136 31.831 35.7107
196 1 10.0405 31.3645 35.1389
199 1 8.33285 32.5901 36.2053
200 1 7.46648 32.2866 36.1936
193 1 9.5031 30.9136 36.9166
195 1 9.91358 31.9653 35.9867
460 1 29.4216 41.7973 35.6881
453 1 29.125 39.5289 36.1046
454 1 30.0897 39.343 35.783
363 1 25.4583 1.52778 33.6002
362 1 26.0186 1.13402 34.3549
361 1 26.8864 1.40971 34.8503
313 1 51.4814 8.14619 38.4707
477 1 22.2557 4.31445 33.7469
314 1 52.1331 7.75062 39.1098
339 1 19.593 15.1444 34.7295
338 1 19.7649 15.6001 35.5263
486 1 19.9523 17.4189 35.4937
487 1 20.3336 17.6681 36.3951
489 1 21.0865 17.0541 37.5597
488 1 20.3455 16.7898 37.0533
485 1 19.3934 16.8631 35.8691
132 1 17.5621 15.6261 36.7429
129 1 17.5727 16.0788 37.8097
483 1 19.2616 18.1938 36.4081
484 1 19.5041 17.2736 36.7672
131 1 17.5291 16.4606 36.7045
130 1 18.2734 16.6016 37.4147
128 1 18.2301 15.8214 38.668
204 1 5.08752 29.9091 34.4222
217 1 4.30348 31.2202 33.8341
205 1 5.44827 30.7169 34.1504
186 1 6.86828 31.432 35.8313
203 1 5.18909 29.6218 33.4754
181 1 9.1313 30.0349 35.9627
184 1 7.81363 30.7559 34.8896
188 1 8.40486 30.7594 35.9378
185 1 7.72232 31.4551 35.4115
183 1 8.62418 31.2835 34.7349
182 1 9.30124 30.6961 35.1552
197 1 9.33078 32.0896 34.8351
192 1 8.80193 31.5305 36.7281
190 1 8.0619 30.1066 36.8987
191 1 8.14672 31.0578 37.4019
194 1 9.52254 31.0082 36.0727
459 1 29.983 41.2616 35.1163
457 1 31.2885 40.5775 35.6104
458 1 30.9654 41.44 34.9564
452 1 28.504 40.1156 36.5507
451 1 28.9799 40.425 35.6044
456 1 30.306 40.4399 35.7308
455 1 30.1679 40.0193 36.5743
320 1 49.4723 6.61403 36.9127
312 1 51.7742 7.78215 37.5689
311 1 51.4972 7.22694 36.656
310 1 50.8013 7.76928 37.0533
316 1 51.8225 6.16572 38.5023
317 1 51.958 6.48681 37.5987
315 1 51.5164 7.14815 38.5046
308 1 50.2537 8.27524 38.8028
309 1 50.5632 7.66351 38.1015
301 1 51.0858 7.67318 39.5804
302 1 50.6733 6.80744 39.9539
337 1 20.2171 16.2992 35.9968
491 1 21.0453 15.9714 38.125
490 1 20.4504 16.8977 38.1453
137 1 19.2914 14.4401 36.1034
340 1 19.6006 14.2619 34.6519
135 1 18.4533 15.6163 34.906
124 1 19.3591 16.4971 37.796
492 1 20.2149 15.7181 37.5963
125 1 19.5539 17.4292 37.8933
122 1 19.4551 15.3167 36.5016
133 1 18.4923 15.9607 36.6012
134 1 17.9832 15.8827 35.7701
123 1 19.0269 15.5696 37.4793
126 1 18.613 17.5629 37.6444
127 1 18.3936 16.8306 38.4396
121 1 18.5251 14.8732 36.6879
189 1 7.6611 30.1045 35.9908
187 1 7.69409 31.3516 36.4978
447 1 30.363 39.4995 34.0893
448 1 30.6894 40.1085 34.8205
449 1 29.9593 40.4781 34.275
444 1 29.1776 39.7957 32.9533
446 1 29.4873 39.0438 34.2835
445 1 29.2427 39.7973 33.8947
450 1 29.6604 39.9679 35.111
318 1 50.918 6.69996 37.586
319 1 49.9476 6.96401 37.6839
304 1 50.6135 6.59134 38.8519
307 1 49.7747 7.3838 38.7374
306 1 49.4176 7.00727 39.5404
303 1 51.4092 6.38301 39.4566
336 1 20.5229 15.5183 36.3912
335 1 20.7404 15.2634 35.4702
333 1 21.1743 13.9926 35.3292
332 1 21.436 14.6306 36.1286
331 1 21.6893 15.503 36.1898
138 1 19.6195 13.482 35.9164
139 1 20.3172 13.8855 36.5986
334 1 20.2446 14.5683 35.733
495 1 20.0041 14.5715 37.2589
494 1 20.9444 14.3683 37.6846
493 1 21.022 15.2014 37.191
325 1 23.2044 13.4078 38.0105
499 1 17.6746 14.8818 37.6452
136 1 18.8159 14.9841 35.5093
498 1 18.3088 14.3323 37.6379
496 1 19.3561 14.5724 37.9132
497 1 18.9268 14.0364 37.0475
500 1 17.5437 14.5539 36.7332
441 1 28.3124 40.4974 33.8175
442 1 28.7642 40.9983 33.095
443 1 29.7921 40.5838 32.9865
305 1 49.6782 6.10926 39.1845
328 1 22.0008 14.1334 36.8365
330 1 22.4882 15.3678 36.8859
329 1 22.6549 14.561 36.2399
323 1 23.8401 13.078 37.1398
324 1 22.8128 13.1928 37.0902
140 1 19.8333 13.4668 37.4833
327 1 21.9595 13.6289 37.8087
326 1 22.7343 14.2287 37.5428
322 1 23.6418 14.0359 37.0196
321 1 23.6473 14.4641 37.9649
386 1 53.9665 24.267 44.1006
384 1 54.5593 22.5285 44.4869
385 1 54.5872 23.5034 44.4494
400 1 55.3097 24.8894 41.0359
399 1 55.0713 25.2644 41.969
387 1 53.9358 23.685 43.3766
381 1 52.6377 22.6343 44.7405
391 1 51.8847 22.8135 42.7574
382 1 53.4786 23.2239 44.8194
390 1 52.5903 22.4294 43.5355
392 1 52.7955 23.4265 42.8085
383 1 53.6643 22.6406 44.0115
261 1 54.7891 27.5023 45.7137
280 1 51.9451 25.2081 43.0512
389 1 53.355 22.2137 43.0149
278 1 51.5206 24.6647 43.9275
279 1 51.7302 25.7483 43.5909
388 1 53.9533 22.9238 42.8728
396 1 53.7362 24.8044 43.1285
397 1 54.6107 24.4558 42.821
262 1 55.4915 27.4848 45.0428
265 1 54.9835 27.1854 43.4621
263 1 54.955 26.7094 44.7814
398 1 54.3941 24.5115 41.6636
395 1 52.8292 24.54 43.375
393 1 52.0503 23.609 43.3723
275 1 53.0754 25.2903 44.9591
273 1 53.2848 26.2772 45.0512
274 1 54.0375 25.5855 45.0638
394 1 52.9835 23.6686 43.9312
277 1 51.9513 24.544 44.7486
266 1 54.3969 26.599 42.8249
276 1 52.4335 25.3615 44.2724
267 1 53.3871 26.5824 42.8785
264 1 55.2653 26.3737 43.9603
233 1 18.0449 2.38412 47.1015
234 1 18.8283 1.78521 47.4708
271 1 52.0384 26.9357 45.2379
272 1 52.2436 26.1086 44.9909
268 1 52.4471 26.5202 43.336
270 1 51.3891 26.8228 44.404
269 1 52.3553 26.8715 44.2532
232 1 17.3614 1.78147 47.5614
231 1 17.542 0.835232 47.1582
235 1 18.3998 1.36245 48.307
236 1 19.3803 1.29105 48.2746
80 1 20.4299 1.69299 48.6402
61 1 19.8024 58.8583 48.0425
230 1 17.0981 0.0606014 46.7544
222 1 19.5663 0.477504 46.0504
221 1 19.4167 59.6984 46.5512
64 1 20.0935 59.3675 47.1731
63 1 19.5821 58.4842 46.962
62 1 18.9711 58.9989 47.3356
237 1 20.3372 0.89778 47.9002
238 1 19.6329 0.134378 48
224 1 18.184 1.48617 46.5256
223 1 19.0989 1.3981 46.1888
239 1 19.3586 0.507255 47.1623
79 1 20.7257 2.33007 49.2388
76 1 21.0378 1.63001 47.7119
77 1 21.5004 1.16126 48.6436
78 1 21.5648 1.88442 49.4173
228 1 18.0122 0.558694 46.1039
229 1 17.8548 59.6987 46.3983
65 1 20.63 0.339889 47.0048
67 1 21.9528 0.680316 47.3933
68 1 21.8437 1.51788 47.012
70 1 20.9817 1.43029 46.4963
69 1 21.1364 2.36612 46.9401
225 1 17.5808 2.2552 46.0967
73 1 19.6992 2.33014 47.9449
74 1 20.5983 2.72818 47.8636
72 1 19.9519 1.99953 47.0854
240 1 18.3398 0.401644 47.5939
75 1 21.5131 2.25957 48.2868
153 1 16.8512 13.2712 51.5623
152 1 16.9937 13.9334 50.7661
66 1 21.0764 0.171434 47.856
226 1 17.7056 1.5754 45.6373
227 1 17.236 0.644982 45.373
71 1 20.0797 1.1626 46.7018
160 1 17.1392 12.8306 52.9097
158 1 18.5717 12.8549 51.8782
156 1 17.7866 13.5793 53.1342
157 1 18.6125 13.0043 52.9274
155 1 17.5157 14.1594 52.3822
154 1 17.6865 13.6637 51.5258
143 1 18.1716 11.8046 50.451
148 1 18.6519 13.7094 51.1208
146 1 17.8935 12.7217 50.8415
149 1 17.9896 14.3297 50.6686
147 1 18.8659 13.0581 50.5315
151 1 17.1032 13.0855 50.346
150 1 17.7521 13.6935 50.0211
142 1 18.4845 11.795 51.4038
141 1 19.2363 11.9277 50.7318
159 1 17.7278 12.6694 52.1821
144 1 18.8985 12.0671 49.6898
145 1 18.1309 12.6596 49.8275
10 1 24.7703 28.6092 58.7574
9 1 23.9638 28.9737 58.3533
111 1 3.62457 47.9679 53.2047
5 1 23.2894 27.1304 58.4257
4 1 22.7742 27.0294 57.5549
6 1 23.8902 27.9323 58.7734
7 1 24.0529 28.412 59.6533
3 1 22.0019 26.489 58.0797
2 1 22.2287 27.1857 58.6761
8 1 23.6273 29.4254 59.2442
12 1 24.4602 27.4506 57.9429
11 1 24.6557 28.4397 57.7628
110 1 3.55229 47.1142 53.6884
109 1 4.46106 47.4921 53.9809
113 1 4.50244 48.7062 54.7576
112 1 3.90388 48.4751 53.9948
115 1 4.93666 49.0892 53.633
119 1 2.93032 48.1666 52.3491
117 1 3.86071 49.4639 53.4562
103 1 4.3629 48.636 52.1742
116 1 4.38115 49.6855 54.2252
118 1 3.43391 49.0089 52.6562
20 1 22.7823 30.0728 56.7837
1 1 22.6162 26.3053 58.8612
18 1 22.9688 28.7876 56.5654
13 1 23.7322 27.8959 57.4368
14 1 23.0432 28.7267 57.6149
15 1 23.9075 29.0524 57.2208
108 1 5.26457 48.1091 54.0929
107 1 5.55368 47.3825 53.6035
106 1 4.66153 47.1994 53.0659
105 1 4.694 48.2265 53.0115
114 1 5.32876 49.1795 54.4804
120 1 3.42068 48.7288 51.6698
104 1 5.26499 48.8645 52.5552
101 1 3.23869 47.1878 51.9654
102 1 4.0191 47.7777 52.1069
19 1 22.6589 29.5594 55.9348
16 1 23.8735 29.2565 56.2382
17 1 23.7262 28.2336 56.3651
ITEM: TIMESTEP
18000
ITEM: NUMBER OF ATOMS
500
ITEM: BOX BOUNDS pp pp pp
0.0000000000000000e+00 6.0000000000000000e+01
0.0000000000000000e+00 6.0000000000000000e+01
0.0000000000000000e+00 6.0000000000000000e+01
ITEM: ATOMS id type x y z
38 1 39.6363 10.6006 6.25119
21 1 37.0145 10.7687 5.98673
22 1 37.7335 11.1691 5.52721
37 1 40.5572 10.7102 5.82537
36 1 40.0917 10.3449 4.93367
35 1 39.7212 9.46764 4.65933
39 1 39.6889 11.5184 6.12415
23 1 38.5596 11.013 5.00074
32 1 39.0862 9.44923 6.15838
34 1 40.3838 9.25922 5.43573
33 1 40.0977 9.67071 6.23185
40 1 40.3634 11.3199 6.7721
24 1 39.6026 11.1917 5.22644
29 1 38.5715 10.5209 6.01727
28 1 38.7974 10.03 5.16269
25 1 39.8049 11.217 4.12524
26 1 39.0936 10.5544 4.22737
27 1 38.2149 10.1048 4.24566
31 1 38.2593 9.79606 6.62645
30 1 37.8747 9.78367 5.68312
435 1 48.8223 46.4111 6.13536
434 1 47.9899 46.441 6.57435
436 1 48.2317 45.8237 5.54138
437 1 47.5651 46.557 5.48783
438 1 48.4092 46.7508 5.11911
439 1 47.8534 47.4227 4.56185
433 1 47.9076 47.2778 6.10227
431 1 48.7363 48.421 5.86628
432 1 47.7276 48.269 6.16319
429 1 48.2171 49.3545 6.74765
424 1 48.8448 47.6885 6.58985
440 1 46.7469 47.3504 4.52506
423 1 49.5177 47.2571 5.96295
430 1 48.1615 49.2549 5.71147
422 1 50.0148 47.9595 6.54595
421 1 50.0159 48.2658 5.47018
428 1 48.4702 48.487 7.12911
241 1 48.9922 34.9887 11.558
242 1 48.2835 35.3626 12.1878
166 1 48.2473 33.9756 10.5691
165 1 47.8944 34.1723 9.65744
163 1 46.8139 34.1709 9.23195
248 1 48.8356 35.9098 9.26014
247 1 49.6003 36.1774 9.54748
249 1 49.2139 35.2001 8.72552
250 1 48.3923 35.5413 8.10757
251 1 47.8505 36.0565 8.87665
425 1 48.2074 47.325 7.21313
426 1 48.9084 47.3362 7.91385
427 1 49.0021 48.3472 7.80588
161 1 45.8452 34.4856 8.58524
164 1 47.1043 33.9929 10.1884
244 1 48.7695 36.0679 10.5949
243 1 48.0689 35.8825 11.4347
162 1 46.1787 35.0426 9.29124
168 1 48.1399 35.1463 9.61985
169 1 47.4822 35.0159 9.10253
254 1 47.8163 36.7256 10.5721
170 1 47.1633 35.0594 10.006
246 1 49.5188 37.1725 9.5854
167 1 48.4561 35.0229 10.4281
257 1 46.2314 36.5079 9.81184
256 1 46.7444 35.8859 9.51171
255 1 47.4019 36.0271 10.1293
253 1 48.161 36.6933 9.8258
252 1 47.5143 36.7934 9.01543
176 1 45.7098 35.1729 11.5125
175 1 46.6743 35.4763 12.0593
174 1 47.0097 36.3315 12.183
173 1 46.1035 36.2738 11.726
177 1 46.5285 34.7188 11.2929
245 1 49.2429 36.8396 10.3295
172 1 46.8655 36.015 11.1484
171 1 47.3414 35.3305 10.9533
178 1 46.2741 35.4034 10.4707
179 1 45.3848 34.9446 10.1209
180 1 46.0392 34.2176 10.1381
258 1 46.6284 36.8473 10.4981
259 1 45.8045 36.9746 10.9289
260 1 46.6996 37.1847 11.5664
296 1 44.3867 44.7232 15.6459
288 1 44.9016 47.2383 15.8145
286 1 44.4442 46.4925 15.0622
287 1 45.2759 47.0917 15.0225
289 1 44.9936 48.3088 15.7045
294 1 44.4462 45.8468 16.1451
291 1 43.8397 47.2807 15.3771
293 1 43.6429 45.4749 15.8893
290 1 44.1819 48.175 15.1501
295 1 44.3798 45.0016 16.5809
292 1 43.3948 46.4382 15.5359
300 1 43.8219 45.5454 13.6541
299 1 43.6699 46.2558 14.375
298 1 43.2649 45.5018 14.6686
297 1 43.6995 44.622 14.9496
282 1 44.6832 47.1088 14.1009
281 1 44.1685 47.0312 13.1753
284 1 45.2661 45.9818 14.8618
283 1 44.772 46.1387 14.044
285 1 44.3179 45.6789 14.9247
347 1 58.7431 26.6083 26.795
346 1 58.8267 27.4817 26.4921
345 1 57.8635 27.6337 25.9632
343 1 58.8522 28.2399 25.7403
344 1 58.5186 27.5895 25.2387
85 1 56.7952 26.7927 26.0472
86 1 57.3573 25.991 26.3943
84 1 56.4419 27.5988 25.5953
83 1 57.0351 27.8322 26.5009
342 1 57.9928 28.7768 25.7529
360 1 55.9067 26.5087 28.2399
82 1 56.1665 27.6849 26.8333
94 1 0.812359 26.7719 26.545
93 1 0.694407 27.0337 27.608
98 1 0.225999 25.3556 26.3011
100 1 59.9093 24.1344 27.0944
349 1 57.7902 26.9607 26.7445
348 1 58.2742 26.4546 26.0058
352 1 59.4494 28.5112 27.1081
99 1 59.4509 24.8744 26.555
87 1 57.3937 25.0391 26.4256
89 1 58.1347 25.8619 27.0981
88 1 57.2512 25.3756 27.3396
350 1 57.4021 27.592 27.6058
81 1 56.3088 26.7343 26.9132
351 1 58.236 28.1756 27.2189
353 1 0.145309 28.0414 27.5208
358 1 56.9373 26.6898 27.7651
341 1 57.1476 28.5179 25.3891
357 1 57.8772 26.3652 27.9084
359 1 56.5607 27.2922 28.2571
95 1 0.121162 27.0923 25.9863
97 1 59.7074 26.0339 25.8199
96 1 59.2154 26.7667 25.7346
92 1 59.8976 26.8923 26.9502
355 1 58.4665 27.2848 27.6641
354 1 59.2997 27.5308 27.6075
90 1 58.9607 25.6095 27.4825
91 1 59.5883 26.0024 27.0424
356 1 57.9476 27.1794 28.4656
419 1 17.8824 2.68525 30.8583
420 1 18.251 2.52683 29.9716
464 1 17.5891 2.95491 33.3237
417 1 17.6651 4.1424 32.3046
418 1 17.6301 3.16923 31.6616
468 1 18.4633 2.42663 32.455
404 1 20.0253 4.89713 30.9633
402 1 18.5314 4.43867 31.8444
401 1 17.9926 5.22372 32.195
405 1 19.5381 4.04631 31.0229
403 1 19.6077 4.7525 31.8381
406 1 20.3996 3.82695 31.5307
407 1 21.1418 4.26941 32.2624
60 1 0.4468 23.7316 33.5722
371 1 25.2961 4.3654 33.2649
462 1 19.2386 4.09831 33.9338
463 1 18.6247 3.30267 33.6004
467 1 17.6014 2.3008 32.2911
370 1 24.2099 4.28914 33.1956
372 1 26.012 4.36543 34.0639
461 1 19.6109 4.43671 32.9363
465 1 16.6061 2.9451 33.0877
466 1 16.9404 2.05381 33.1196
469 1 18.4446 3.40311 32.5037
475 1 20.0422 3.35693 32.7065
470 1 19.2699 3.66625 32.0259
471 1 18.8342 3.30495 31.3642
476 1 20.8415 2.9314 32.1381
369 1 23.9121 5.19193 32.8321
416 1 18.1843 4.32757 33.0279
415 1 18.8058 5.01667 33.552
413 1 20.2443 5.95694 34.1388
412 1 20.3156 5.55025 33.1854
408 1 21.5309 4.01861 31.4932
480 1 21.1042 3.22452 30.1858
414 1 19.7753 5.13385 34.002
409 1 21.2217 4.64911 30.8549
41 1 1.19875 22.6553 31.8028
59 1 0.9089 22.9067 33.2116
42 1 0.84206 23.5894 31.3805
45 1 1.67701 23.783 32.8257
46 1 2.07267 23.0454 33.2468
57 1 1.93915 21.9776 32.9388
58 1 1.29188 22.0334 33.5744
48 1 3.64318 23.0446 32.9572
56 1 2.41511 22.3966 32.3031
47 1 2.79342 23.4486 32.5606
55 1 3.12927 21.8284 32.7372
49 1 4.18725 22.3013 32.4662
50 1 4.91859 22.1211 33.1844
220 1 9.18544 34.9064 35.5795
363 1 24.8344 3.47052 33.6147
375 1 25.5629 3.87749 35.4126
365 1 24.0965 4.98721 34.6205
374 1 26.1378 3.29763 34.8226
373 1 25.7787 3.29142 33.9474
474 1 19.3215 2.63744 32.9478
473 1 20.0788 2.11409 32.64
472 1 19.6941 2.78964 31.8291
368 1 24.8269 5.49956 32.8391
366 1 25.082 4.93643 34.387
367 1 25.0553 5.67266 33.8768
376 1 24.5509 4.32123 35.3946
377 1 25.326 4.9389 35.6161
479 1 20.3397 3.56727 30.3085
477 1 21.2905 2.93282 31.2934
478 1 20.4628 2.77693 30.9892
411 1 21.2996 5.36913 32.6825
410 1 21.5816 5.05649 31.7509
44 1 0.728865 23.601 32.4559
43 1 0.152525 23.0629 31.9604
54 1 2.91026 22.3329 33.6107
52 1 4.44911 22.2866 34.1578
51 1 3.91243 21.9476 33.3945
53 1 3.52223 22.5446 34.3046
203 1 6.6755 33.5468 36.2205
219 1 9.27 33.8747 36.0444
218 1 8.37762 34.1286 36.2329
217 1 8.26014 33.436 35.6564
205 1 7.11181 32.7335 35.1309
201 1 7.97782 33.8163 37.708
202 1 7.16929 33.6827 37.1071
206 1 8.01673 32.3411 35.5964
207 1 8.78757 32.4969 34.9761
444 1 32.247 42.7559 34.3037
446 1 33.0216 41.9544 34.3596
445 1 31.9733 41.8531 34.4422
447 1 33.9865 42.1598 34.0997
441 1 32.6634 43.9981 34.0491
449 1 34.1891 40.8753 33.9679
442 1 33.4789 43.5491 34.2736
443 1 32.9288 43.0369 33.7251
362 1 25.3738 3.26865 32.7497
361 1 24.3739 3.35245 32.599
364 1 24.3946 4.0316 34.2631
379 1 24.9879 3.62675 36.2052
380 1 25.0733 3.43992 37.2064
378 1 25.1293 4.57088 36.5948
340 1 21.0865 16.5816 36.8264
333 1 20.5619 14.9488 37.2439
135 1 19.1537 14.914 36.1621
339 1 20.2593 16.806 36.3935
338 1 19.334 16.671 36.5949
136 1 19.8601 14.7862 36.6096
335 1 19.8452 14.9833 38.3808
486 1 17.7618 14.3434 38.0024
204 1 7.12601 33.5663 35.2791
216 1 7.63937 33.1346 36.2583
214 1 8.84566 32.3677 37.1415
184 1 8.36607 29.7148 35.0266
183 1 8.84471 30.1414 34.4129
182 1 9.43431 29.3895 34.8905
196 1 9.44239 30.9386 35.5886
215 1 8.53736 33.1984 36.7576
208 1 9.13637 32.8019 35.8762
209 1 9.78829 32.1212 36.06
213 1 7.9168 32.354 36.9348
212 1 8.33478 31.406 37.0655
210 1 8.76817 31.8039 36.1925
211 1 9.30662 31.1356 36.7425
185 1 7.57438 29.3355 35.5489
197 1 10.2893 30.6805 36.2702
450 1 34.3353 40.0053 34.3421
451 1 33.702 40.3565 35.039
459 1 31.9399 38.8975 33.2884
457 1 33.239 38.8785 33.2041
448 1 33.6692 41.5925 33.4934
460 1 31.9253 39.9868 33.4187
458 1 32.4708 38.182 33.3871
320 1 50.182 9.64647 39.113
310 1 49.8304 9.83238 40.0941
311 1 50.651 9.22858 40.2255
138 1 20.3195 15.2573 35.4341
497 1 20.5563 12.9756 36.2026
139 1 21.2965 15.0186 35.5672
328 1 22.0086 13.6841 36.1902
324 1 20.1718 13.5924 34.8216
323 1 20.8317 14.2104 34.9783
322 1 20.2034 14.8691 34.478
132 1 18.0774 14.2862 36.502
121 1 19.866 13.5309 36.7912
500 1 19.3127 13.0461 34.9917
137 1 20.4106 15.514 36.4185
122 1 20.2832 12.8671 37.5612
336 1 19.4877 15.3301 37.5329
332 1 21.3372 15.515 36.8346
334 1 20.5756 15.3883 38.1453
331 1 21.949 15.6127 37.6859
330 1 21.5565 14.6793 37.4808
329 1 21.6946 14.2748 36.7451
131 1 18.2035 13.6093 35.6558
133 1 18.8883 14.4728 37.1063
134 1 19.0366 14.1141 36.1397
485 1 17.2816 15.2179 37.8695
488 1 17.6436 13.2307 38.2765
337 1 19.8798 16.156 37.2018
481 1 16.5908 15.6512 37.264
482 1 17.1525 16.3701 37.5856
483 1 17.6034 16.1564 36.6819
484 1 18.1219 15.324 37.2695
487 1 18.2441 13.5431 37.4551
188 1 9.09279 29.737 35.9031
190 1 8.85161 28.238 36.609
189 1 8.57371 28.9854 36.0131
187 1 8.58839 30.5062 36.1783
193 1 10.4224 28.7798 35.3726
181 1 9.85607 28.5858 34.5207
194 1 10.1606 29.5953 35.9822
186 1 7.75804 30.3295 35.8116
199 1 9.68775 30.0932 36.9388
200 1 8.82635 30.2806 37.3729
198 1 10.2045 30.7794 37.3083
195 1 9.98483 30.2179 35.1583
192 1 9.6106 28.572 35.8131
453 1 32.8999 40.6359 33.8867
454 1 33.2506 40.645 32.9749
452 1 32.9066 40.9799 34.8711
456 1 33.4286 39.2441 34.0845
455 1 33.5924 39.9335 33.4599
319 1 50.0766 8.87836 38.5138
318 1 49.9158 7.95124 38.952
316 1 50.6099 7.58922 39.6812
317 1 50.7383 8.4466 39.234
309 1 49.6971 8.89159 39.5176
313 1 49.7254 8.18366 41.2366
312 1 49.8016 9.08492 40.8014
315 1 50.2676 8.18851 40.2511
140 1 22.2121 14.7916 36.0017
327 1 21.2045 13.4981 35.7108
326 1 20.676 14.286 35.9806
325 1 19.9739 13.6957 35.7629
499 1 19.5282 12.7407 36.0027
498 1 20.1253 12.0354 36.2127
123 1 19.52 12.4266 37.2066
496 1 21.0659 13.1733 37.0382
495 1 21.71 12.5507 37.527
494 1 21.6851 13.6006 37.8014
493 1 20.6907 13.9292 37.9869
321 1 20.6489 15.7504 34.4323
129 1 18.9832 11.7686 36.115
130 1 18.5499 12.5443 35.7346
127 1 17.8687 12.0286 36.775
124 1 18.7617 12.9968 36.8061
489 1 18.2603 12.6132 37.7223
491 1 19.4841 13.4529 37.8894
490 1 18.6467 13.043 38.4816
492 1 19.8633 14.1306 37.5833
125 1 17.8365 13.2037 36.6177
126 1 17.4537 12.5369 35.9614
191 1 9.41244 29.0645 36.6825
306 1 49.0796 8.9849 38.5714
305 1 48.1906 8.62406 38.8469
302 1 49.3261 7.74204 40.3047
304 1 48.7759 8.00143 39.3422
303 1 48.4524 7.30809 40.0539
307 1 48.9033 9.57143 39.4075
308 1 48.9655 8.78381 40.1288
301 1 48.45 8.04188 40.8378
314 1 50.6066 8.45515 41.2023
128 1 18.0331 11.5194 35.972
400 1 57.0093 23.9085 43.8563
391 1 55.0532 22.5197 44.2505
392 1 54.6795 23.2417 44.8624
399 1 56.6365 24.7529 44.3647
397 1 56.1772 23.7067 44.7226
398 1 55.8799 24.3153 43.9239
266 1 54.5013 25.502 44.4943
390 1 55.8717 22.3364 44.9735
383 1 54.0772 22.9704 47.4343
389 1 54.8847 22.0731 45.2104
393 1 54.5596 23.8072 45.5924
386 1 54.9282 23.2148 46.5648
387 1 55.7103 22.8937 46.9178
388 1 55.4888 22.46 46.007
394 1 55.2733 24.322 45.8273
280 1 55.9024 23.7062 41.2249
278 1 55.6477 23.7313 43.0619
276 1 54.232 24.0745 44.4435
396 1 55.9709 24.5335 45.2158
395 1 55.0909 24.8634 44.9674
279 1 56.0043 23.5641 42.0933
268 1 54.0473 24.9551 43.3483
269 1 53.6662 24.0094 43.5179
267 1 54.8717 24.8306 43.8348
264 1 54.1751 26.4393 45.5292
265 1 53.6684 25.6174 45.0992
227 1 19.7911 2.76483 49.2178
226 1 20.1023 3.40335 48.708
381 1 54.5654 24.2089 46.6587
384 1 54.8726 22.2655 47.1441
382 1 53.8934 23.5049 46.6232
385 1 54.2231 22.4306 46.5439
277 1 54.9861 23.5858 43.8959
275 1 53.7181 24.0434 45.2142
274 1 53.5018 24.7509 44.6369
270 1 53.1724 24.4859 42.8152
271 1 52.7325 24.5469 43.8041
272 1 52.2952 25.244 44.3452
273 1 52.6734 24.5937 45.098
263 1 54.8209 25.6085 45.7447
262 1 55.3592 26.4864 45.8276
230 1 18.8763 2.23499 47.4739
228 1 19.0122 2.4135 49.0139
222 1 18.7736 2.79955 46.393
223 1 19.6265 2.77441 46.7008
65 1 19.3608 0.166258 45.4029
70 1 19.817 1.01304 46.7937
71 1 20.7498 1.51027 46.8386
233 1 19.5628 0.319515 47.6008
224 1 19.8596 2.0749 47.2618
225 1 20.1 2.70237 48.0403
72 1 21.5843 2.10021 46.6437
69 1 18.9177 1.12796 46.4031
68 1 18.2814 0.489247 46.0975
261 1 56.3209 26.5566 46.0737
63 1 19.6558 1.41544 45.7623
229 1 18.9581 2.89924 48.3545
221 1 18.5386 2.3531 45.4529
64 1 18.9081 1.0653 45.4071
231 1 18.241 1.57005 47.2569
235 1 20.7326 0.205994 46.4842
240 1 18.7217 58.595 47.5929
236 1 20.3913 59.3215 46.3269
238 1 19.7859 58.4551 47.4768
239 1 19.3028 59.3372 47.2101
237 1 20.3336 58.7075 46.9489
66 1 19.4401 59.8485 46.3708
67 1 18.6519 59.9236 46.735
232 1 18.8643 0.891942 47.464
234 1 20.3575 59.7939 47.3589
73 1 20.6852 2.39652 46.2136
76 1 20.4777 59.7558 45.352
74 1 20.809 1.45238 45.6532
75 1 20.918 0.557048 45.4689
61 1 19.5027 2.3143 44.7566
62 1 19.6818 1.3097 44.743
77 1 21.3515 59.6166 45.6923
80 1 22.2201 0.962074 47.1898
79 1 21.699 1.00642 46.3297
78 1 22.0896 0.382133 45.6585
145 1 18.2399 13.5261 51.3968
144 1 17.9922 13.7508 52.2695
143 1 18.7287 13.5738 52.9108
146 1 19.2574 13.2807 51.6955
142 1 18.1995 12.6863 52.7667
141 1 18.0093 12.616 51.8193
152 1 20.7522 13.4211 52.8522
151 1 19.8421 13.7082 52.4255
150 1 20.4307 13.1749 51.7031
148 1 18.9732 12.1701 51.9199
147 1 19.5392 12.7323 52.5312
149 1 19.9731 12.2586 51.5237
159 1 21.2019 11.9528 50.2416
158 1 20.4529 12.5374 49.9072
153 1 21.1318 12.7007 52.3204
155 1 21.6596 13.0886 51.4791
154 1 21.9514 13.22 52.3663
119 1 3.99253 48.246 52.1042
101 1 3.04328 47.7936 52.7641
102 1 2.32274 48.3185 52.3607
118 1 4.05891 48.9772 51.3365
120 1 3.60779 48.7192 52.9775
103 1 3.03278 48.9659 52.1145
104 1 2.70242 48.7126 51.2045
160 1 20.7649 11.5436 51.1144
156 1 21.0548 12.9441 50.781
157 1 20.111 12.9212 50.6648
110 1 3.57231 47.442 50.8545
111 1 4.38293 48.0468 50.7781
112 1 4.40461 48.881 50.3039
109 1 3.59271 47.6569 49.9653
108 1 2.85514 47.9074 49.3942
107 1 2.60765 47.6459 50.3205
106 1 2.68102 47.3037 51.2732
105 1 3.08577 48.0346 51.6563
117 1 3.28874 49.6247 51.0027
115 1 3.09051 48.7504 50.0864
116 1 3.62896 49.5886 50.1392
113 1 4.46846 49.3108 49.3791
114 1 3.73822 48.6521 49.3611
17 1 20.1383 28.4905 59.4327
19 1 20.3746 27.3436 58.174
18 1 20.6293 27.629 59.0197
16 1 19.462 28.5485 0.288594
20 1 19.7124 26.7467 58.7401
4 1 19.2437 31.0896 59.1201
3 1 18.4378 30.9682 59.7039
5 1 19.488 31.2799 0.0783654
13 1 21.1594 29.4267 0.145777
12 1 21.3059 29.0821 0.954726
11 1 20.5469 29.8648 1.069
9 1 20.6345 31.0039 0.600241
14 1 21.0382 28.4054 0.129438
15 1 20.3113 28.9045 0.596281
1 1 19.8571 29.6145 59.397
2 1 18.9074 30.1233 59.4761
6 1 18.972 30.4406 0.484099
7 1 19.8199 29.8728 0.391712
8 1 20.4045 30.4164 59.9068
10 1 21.2295 30.4006 0.865573
ITEM: TIMESTEP
19000
ITEM: NUMBER OF ATOMS
500
ITEM: BOX BOUNDS pp pp pp
0.0000000000000000e+00 6.0000000000000000e+01
0.0000000000000000e+00 6.0000000000000000e+01
0.0000000000000000e+00 6.0000000000000000e+01
ITEM: ATOMS id type x y z
16 1 16.1615 31.8154 1.80435
14 1 16.775 31.5152 3.66055
7 1 16.017 30.4778 1.39847
13 1 17.2447 30.7318 3.19611
12 1 17.9629 31.3862 3.15935
11 1 18.3096 30.5544 2.86612
15 1 16.6308 31.4088 2.79116
5 1 16.4213 29.4279 1.16693
6 1 16.4634 30.2767 0.688316
9 1 17.098 31.0779 1.6942
10 1 17.9376 31.1917 2.14285
27 1 38.746 10.9207 5.58999
25 1 39.6326 9.24076 5.14935
26 1 39.0731 9.93738 5.78024
30 1 40.3568 10.0972 7.25762
35 1 38.7738 9.5537 7.38451
34 1 39.4702 9.97302 8.03458
22 1 40.401 10.2201 6.11555
23 1 40.726 9.41552 6.37313
24 1 40.203 9.04503 5.83406
28 1 39.4465 11.1394 6.15499
36 1 39.4141 9.93818 6.90549
436 1 46.0786 51.0304 2.79825
437 1 46.0288 51.2495 3.84808
438 1 46.8567 50.6201 3.44442
440 1 47.7634 51.1545 3.88285
439 1 47.6944 50.7791 2.90267
421 1 47.7949 52.8802 2.39444
430 1 46.2458 53.2008 3.21217
31 1 40.2572 10.7396 8.04102
32 1 39.4568 11.0424 7.69439
33 1 38.7781 10.4835 8.14008
21 1 40.4193 10.197 5.14045
38 1 38.9042 8.93152 5.98031
29 1 40.2207 11.0288 6.89554
37 1 39.5423 9.1127 6.57863
40 1 38.2636 10.431 6.5076
39 1 38.1657 9.44308 6.43929
434 1 47.4727 51.6879 2.66355
435 1 46.5368 51.7073 2.42667
433 1 48.0276 52.1849 3.33102
432 1 47.1109 52.1345 3.70415
428 1 48.036 53.5133 3.6655
431 1 46.3322 52.3778 3.26499
424 1 47.8858 52.3987 4.43899
423 1 48.673 52.6859 3.91303
422 1 48.662 52.9287 2.87227
429 1 47.2332 53.0965 3.44021
250 1 49.1126 34.6979 7.69181
425 1 47.6637 53.1836 4.83127
426 1 46.6704 52.9522 4.48001
427 1 47.0421 53.7724 4.22471
163 1 48.0172 32.9203 9.81212
165 1 48.2157 34.0078 9.58445
161 1 47.2991 33.7944 9.9309
162 1 47.2103 32.7763 9.22911
168 1 48.2212 33.6622 8.59749
169 1 48.0527 34.1551 7.65225
249 1 49.1361 35.6572 7.3784
257 1 46.377 36.0575 8.54619
256 1 45.8204 35.7247 7.70617
251 1 48.9329 34.3033 6.84696
253 1 47.5071 34.6959 6.62982
252 1 48.3908 35.0852 6.908
248 1 49.6401 35.8043 8.12762
247 1 49.9842 36.4455 7.43075
246 1 48.9971 36.6338 7.89017
164 1 48.6922 33.4326 10.1426
180 1 48.6099 33.0803 7.24484
166 1 49.0689 34.4815 9.66288
179 1 47.8234 33.4917 6.67705
177 1 46.5292 33.3344 7.77311
178 1 47.5398 33.2843 7.5628
170 1 47.2077 34.2935 8.26687
167 1 49.1754 33.8059 9.01786
171 1 47.4808 35.1866 8.40323
172 1 46.6227 35.0902 8.02722
258 1 46.1075 35.2977 9.01652
259 1 45.5428 35.0156 8.41623
243 1 48.2597 34.6448 8.79672
254 1 47.3682 35.3435 7.26056
255 1 46.6305 35.9343 7.38276
244 1 48.5646 35.4953 8.35496
245 1 48.0613 36.1037 7.82548
176 1 46.7442 34.154 7.25864
175 1 46.2992 34.7488 6.77262
242 1 47.4321 34.5609 9.21305
241 1 46.7556 33.7397 9.08023
174 1 45.7319 34.4733 7.59968
173 1 46.1431 34.201 8.44276
260 1 44.9217 34.2442 8.30383
300 1 45.1492 46.6908 16.0696
281 1 43.5475 46.7929 16.3078
282 1 43.6548 45.874 16.5476
283 1 43.3452 45.6005 15.5582
298 1 43.9891 47.5464 15.4527
297 1 43.3611 47.7923 14.7745
296 1 44.2947 47.9817 14.4703
285 1 44.7082 46.241 14.7461
292 1 43.9821 47.0645 14.45
299 1 44.8392 47.2255 15.3487
286 1 44.2801 45.4489 15.0595
287 1 43.776 45.7418 14.3956
284 1 44.0742 46.3868 15.4859
291 1 43.1819 46.7566 14.8696
290 1 42.7165 47.1152 14.0488
289 1 43.4347 46.5833 13.5724
293 1 44.9636 47.056 14.1287
295 1 44.2901 47.9163 13.4658
294 1 44.4496 46.9944 13.1002
288 1 44.3091 46.1705 13.7482
84 1 55.3609 25.6568 26.3684
341 1 54.9597 28.2499 28.6307
344 1 55.7008 27.9656 27.8922
100 1 59.5118 24.4913 23.8647
98 1 -0.018906 24.9009 24.6956
87 1 57.3119 26.4869 27.0351
99 1 0.424357 24.5006 23.8998
94 1 58.3976 25.6453 24.6094
95 1 58.9921 24.8013 24.8527
85 1 55.9484 25.5719 27.2453
81 1 54.0499 24.8258 28.0781
86 1 56.3909 26.2058 26.5487
349 1 56.0341 26.565 27.9931
348 1 55.1881 26.3091 27.3647
89 1 56.7745 25.1933 26.8684
347 1 55.5722 26.8515 26.7382
97 1 59.9277 25.1502 25.807
96 1 59.438 24.2973 25.7047
92 1 58.4099 25.1567 25.706
91 1 57.881 25.7996 26.1789
83 1 54.9088 25.0764 27.0283
82 1 54.1727 25.5731 27.531
345 1 56.1832 27.7587 27.1325
346 1 55.6663 27.5342 26.2974
343 1 54.8825 27.4912 27.6749
352 1 55.3947 27.8123 29.3932
342 1 54.9124 27.0375 28.6042
88 1 57.0297 25.7633 27.619
90 1 57.042 25.4189 25.8365
93 1 57.8495 24.9555 24.9103
360 1 55.0257 25.4794 28.1126
358 1 56.089 25.5504 28.7162
357 1 56.2019 25.6921 29.637
353 1 55.2197 26.9896 29.7102
359 1 55.2912 26.1199 28.8348
350 1 56.7441 27.2068 28.0596
351 1 56.1258 27.5501 28.8217
355 1 56.4798 27.3048 29.7466
356 1 56.2142 26.5619 29.4059
354 1 55.9204 26.8415 30.4623
420 1 17.2081 4.43685 33.8972
419 1 16.8749 3.71205 33.2317
478 1 18.5546 1.33582 30.9002
405 1 18.3289 3.75437 30.7544
471 1 16.5413 2.46433 33.2047
480 1 19.6336 59.9406 30.888
479 1 19.2603 0.688028 31.1833
477 1 17.9211 1.55783 30.2303
404 1 19.0446 4.22419 31.3117
409 1 20.2419 3.09159 32.1511
42 1 5.62492 22.6041 33.5622
468 1 17.5671 2.15676 33.4432
467 1 18.2927 2.18726 34.0497
472 1 16.3062 1.77865 32.6249
473 1 17.124 2.48043 32.2322
417 1 17.2347 3.87552 32.2541
418 1 17.7537 3.25724 32.7744
469 1 16.906 2.00311 34.2196
470 1 16.5386 2.86483 34.1668
406 1 18.2127 3.40153 31.6568
407 1 19.1477 3.24011 31.6225
475 1 18.243 2.41905 31.6647
476 1 17.5309 1.93518 31.0681
408 1 20.1728 3.47396 31.3528
362 1 24.1359 6.61931 34.5398
361 1 24.7154 7.28746 34.8011
402 1 18.4519 5.13566 31.5098
401 1 17.5357 5.05008 31.1113
403 1 18.6166 4.9002 30.5759
411 1 19.6857 3.40572 33.2686
410 1 20.6925 3.29632 32.977
369 1 24.5681 5.79635 35.1331
368 1 24.1552 6.48506 35.6552
41 1 5.22724 23.1695 32.7621
56 1 5.3693 23.8948 33.5207
55 1 4.49353 23.5701 33.7063
49 1 3.23709 21.4979 32.5995
44 1 4.69555 21.8385 34.0962
43 1 5.81032 22.004 34.2543
45 1 4.73228 22.8311 34.5283
47 1 4.52095 22.0699 33.1113
466 1 18.0263 1.25397 33.6441
474 1 18.0126 1.92968 32.3664
465 1 18.837 1.71952 33.2635
464 1 19.1231 1.97828 32.3947
462 1 18.9699 3.97507 32.786
463 1 18.8174 2.9142 32.5697
363 1 23.7216 6.31227 33.6511
364 1 22.9669 6.95436 33.9219
373 1 24.2515 5.16358 34.5282
416 1 17.7408 4.26596 32.9606
461 1 18.5456 3.55127 33.5105
415 1 18.3311 4.78277 33.5156
414 1 18.7186 5.39377 33.0484
412 1 20.0154 4.12095 32.4922
370 1 25.5597 5.87926 35.1407
371 1 25.4469 4.71492 35.1961
367 1 23.2599 6.77966 35.8815
372 1 25.1 4.72288 34.2097
413 1 19.4747 4.89874 33.0639
58 1 5.03842 24.8561 33.4219
57 1 5.91418 24.7067 33.8676
54 1 3.53903 23.7004 33.8017
51 1 3.08441 22.4258 33.411
50 1 3.11756 21.4266 33.659
52 1 2.36484 22.8775 33.1327
60 1 3.72217 24.4716 33.0138
59 1 4.45351 24.7722 32.5401
46 1 4.03229 22.5846 33.7695
48 1 3.77232 22.2871 32.5016
458 1 37.1432 43.473 32.4522
459 1 37.3864 42.5799 32.8346
460 1 37.6496 42.2158 33.6607
457 1 36.1514 43.7196 32.1911
456 1 36.4211 42.8518 31.823
455 1 36.5812 42.0271 32.3065
449 1 36.3119 40.7402 32.2997
453 1 35.8408 41.4629 33.0511
454 1 36.0802 42.4791 33.0605
447 1 35.6525 40.5888 33.7961
448 1 35.4647 40.4093 32.7293
441 1 37.5083 40.1535 34.2032
442 1 36.668 40.4011 33.6559
443 1 37.3747 40.9589 33.3156
375 1 22.7729 5.39685 35.0263
374 1 23.4928 5.81718 34.5273
365 1 22.4051 6.23418 34.2538
366 1 22.9695 6.77243 35.0218
376 1 22.2504 6.13222 35.6415
377 1 22.6292 6.02364 36.6122
131 1 18.1045 11.8789 34.428
500 1 18.8109 15.2556 34.9162
324 1 17.9035 13.4415 37.8176
323 1 17.1783 14.0075 38.1817
327 1 18.4148 14.982 38.0102
138 1 18.4363 12.7926 38.4593
139 1 18.8829 13.786 38.4804
322 1 17.3408 14.7079 37.5233
321 1 16.393 14.3666 37.6143
53 1 3.13797 23.5439 32.9046
184 1 10.5942 31.9129 35.7459
185 1 10.1529 31.3282 36.4305
182 1 9.41925 30.845 35.3467
181 1 9.40657 30.637 34.3256
193 1 9.99705 29.8892 35.0686
183 1 10.313 31.1157 35.4082
196 1 10.0145 30.3282 36.0723
195 1 10.8433 29.883 35.7478
205 1 11.9164 33.1392 38.6326
206 1 11.0717 33.6938 38.5762
207 1 11.0255 32.9416 37.8747
204 1 12.4857 32.713 38.074
217 1 12.8407 31.5213 37.6791
220 1 11.1747 31.6471 37.3721
450 1 36.3578 41.2428 31.5903
451 1 35.6817 41.9779 31.4778
452 1 35.3739 41.7011 32.3872
444 1 37.4972 41.2853 34.2433
445 1 36.9609 41.9802 34.6602
446 1 36.2726 41.2692 34.2967
379 1 23.3934 5.77933 35.7993
378 1 23.2686 5.20307 36.5836
130 1 19.0326 12.1966 34.6236
127 1 20.0915 11.0279 33.9265
126 1 20.9794 10.9873 33.9212
128 1 20.0515 12.0109 33.9679
499 1 19.7593 14.6792 35.1655
129 1 19.6467 11.4845 34.7727
498 1 19.4353 14.5444 36.1213
132 1 17.5492 12.6451 34.5246
125 1 21.2283 10.9634 34.8313
121 1 19.2631 13.4497 36.5557
134 1 18.8519 13.6578 35.6221
325 1 18.637 13.8459 37.4365
124 1 20.8687 11.982 34.7734
497 1 19.9581 13.7992 35.7506
496 1 20.5187 12.9187 35.7244
328 1 19.251 15.3324 37.4263
135 1 18.3229 14.0215 36.3193
136 1 18.1429 13.0661 36.5907
133 1 18.3152 12.6226 35.21
137 1 18.1755 12.601 37.4418
332 1 20.2936 13.4164 37.1078
326 1 18.2749 14.8092 37.0552
329 1 20.1609 15.3006 37.7397
140 1 19.2872 13.6332 39.2438
483 1 18.773 12.0103 36.3798
338 1 20.41 14.5892 38.6955
340 1 19.7893 14.3434 37.7435
339 1 19.5134 14.599 38.6052
190 1 8.43973 30.4749 35.6478
188 1 8.48671 31.515 35.3819
189 1 8.06599 30.7847 34.7851
192 1 9.14905 29.6045 35.6135
191 1 8.84817 29.9784 36.4935
194 1 10.1098 29.2709 35.8001
212 1 10.7558 30.6949 37.8975
186 1 9.66293 32.1041 36.4694
211 1 9.71319 31.1109 37.9583
187 1 9.35382 31.8895 35.5987
199 1 9.11126 31.0815 36.3964
197 1 10.3309 29.9329 36.9127
213 1 10.7552 31.5633 38.3486
214 1 11.3099 31.6174 39.2816
208 1 10.2443 32.5643 38.3292
209 1 9.52112 32.7916 37.858
210 1 9.99409 32.0015 37.4796
203 1 12.6625 32.1323 38.7977
218 1 12.0757 31.2836 37.1411
202 1 13.5607 32.6938 38.6992
216 1 12.2067 31.1573 38.4798
215 1 11.6686 32.0375 38.5312
219 1 11.4079 30.9736 36.6716
380 1 23.927 5.02077 35.5696
319 1 48.5049 11.3877 41.8328
489 1 19.1688 10.7045 35.4563
123 1 19.9579 12.4002 35.2192
495 1 20.8127 11.9579 35.8888
488 1 19.8664 10.4575 36.0856
487 1 19.3495 10.3521 36.9855
491 1 19.7048 11.6193 35.8719
490 1 18.867 11.6109 35.4443
492 1 19.9774 12.3103 36.5071
122 1 19.2466 12.777 35.7656
493 1 20.1795 12.2499 37.472
494 1 20.8339 11.5706 36.7875
481 1 17.9269 11.5663 36.0149
486 1 19.5418 11.313 37.0772
485 1 18.9643 11.281 37.7949
484 1 18.1602 11.6439 37.2101
335 1 19.4512 12.3689 38.55
336 1 20.3321 12.8269 38.7301
333 1 19.4512 13.2654 37.7799
334 1 19.2261 12.3759 37.5728
331 1 20.2376 14.3126 36.8417
330 1 20.8564 14.4405 37.5809
482 1 18.7809 11.0331 36.3521
337 1 20.384 13.6596 38.2913
200 1 8.87385 31.412 37.2816
198 1 9.59975 30.5706 37.0276
201 1 13.3991 32.6012 39.8084
318 1 49.1255 10.9586 42.2189
304 1 47.5453 9.94782 40.0378
316 1 49.0806 9.40044 41.9277
317 1 49.6419 10.0483 42.4043
305 1 48.4976 9.6341 40.133
309 1 48.8934 10.3012 41.4187
306 1 49.3706 9.7598 40.4941
307 1 49.5452 10.5855 40.5395
320 1 49.2248 12.0742 41.4831
303 1 46.7964 10.1198 40.5889
301 1 47.0224 9.99989 41.8667
313 1 47.316 9.17315 41.0416
302 1 47.6052 10.2997 41.1015
315 1 48.6902 9.17433 41.1257
314 1 48.1122 8.71913 40.536
310 1 48.1656 10.3523 42.0443
312 1 47.6976 8.5036 41.6192
308 1 48.472 10.787 40.649
311 1 48.0438 9.40374 42.1172
280 1 58.4013 22.9665 44.0913
279 1 57.4615 22.7476 44.1941
270 1 55.992 24.153 44.5466
391 1 56.6066 23.3414 47.0729
269 1 55.8178 23.5187 45.187
278 1 56.9123 21.8674 43.9785
277 1 56.184 21.4941 44.3263
400 1 57.8176 24.0585 44.9477
271 1 56.5808 23.4205 44.4958
268 1 55.1897 24.157 45.7065
267 1 54.6391 24.3406 44.8023
398 1 58.5936 22.8802 46.2832
65 1 19.1133 2.08949 46.6044
64 1 19.1518 2.97147 46.1216
62 1 20.0243 1.54836 46.594
75 1 19.3376 1.46399 44.5901
78 1 19.0764 2.29315 45.3083
221 1 20.9556 2.76165 47.2494
61 1 19.7157 1.05827 45.6758
74 1 20.0371 1.80172 44.9227
389 1 57.1624 23.7409 48.0047
390 1 56.5895 24.2685 47.3357
276 1 56.4883 21.4501 45.3307
275 1 57.1186 22.0552 45.0576
392 1 55.7263 22.9645 47.2742
393 1 55.7442 22.4467 46.3459
397 1 58.5099 22.3551 45.4572
272 1 55.9284 22.5427 44.5116
273 1 56.3011 22.6071 45.4216
265 1 54.4357 23.4237 45.8349
274 1 57.0372 22.1332 45.837
266 1 54.0841 24.3335 45.6964
395 1 56.779 23.6471 45.8932
399 1 58.0795 23.7745 45.8394
396 1 57.5223 22.9264 45.4765
264 1 54.6234 22.7773 46.6497
76 1 18.4255 1.62118 44.4366
77 1 18.0164 2.31399 45.2224
68 1 19.65 0.29592 46.5503
70 1 20.6886 1.431 45.8855
69 1 20.4894 0.556514 46.2722
63 1 19.8587 2.32217 45.941
235 1 20.7585 58.7916 46.3749
79 1 18.8862 1.48412 45.7306
222 1 20.7915 2.77477 46.2094
223 1 21.769 2.57926 46.2403
71 1 21.165 1.44648 45.0757
73 1 20.1239 1.83246 43.9456
72 1 20.9503 1.88338 44.1357
385 1 55.1631 23.555 48.0176
388 1 57.2633 24.6485 48.0837
382 1 54.9899 24.7523 46.7653
386 1 55.9572 23.977 48.1541
387 1 56.2923 24.9238 48.2128
381 1 53.9088 24.2836 46.8761
394 1 55.9965 23.4893 46.3039
263 1 54.4858 22.159 45.958
262 1 55.1307 22.6456 45.5647
261 1 55.3613 21.6973 45.3747
66 1 18.9177 1.19503 46.8557
67 1 18.6102 0.452091 46.2622
236 1 20.1159 59.2413 45.8062
237 1 19.7682 59.0877 44.8675
233 1 21.9231 59.8614 46.2596
232 1 21.5357 0.859787 46.3556
80 1 18.1128 1.66995 46.2627
231 1 22.0974 0.762132 47.191
230 1 22.2987 59.8789 47.4827
224 1 21.3951 1.83747 46.6615
225 1 21.5703 1.49528 47.7987
229 1 22.0223 0.196616 48.3189
384 1 55.1315 24.5159 47.8084
383 1 54.9473 25.4245 47.6138
238 1 19.2323 59.7367 44.2916
240 1 18.3725 59.7208 44.7825
239 1 19.2259 0.345959 45.0169
234 1 20.9785 59.648 46.3797
227 1 20.4051 0.676746 48.2393
228 1 21.1673 0.14855 47.8828
226 1 20.7623 1.31799 47.5944
158 1 20.555 12.8143 51.1173
108 1 1.80216 48.6194 49.8038
109 1 0.9571 48.7809 49.3973
114 1 1.82687 49.4337 48.9899
113 1 1.54449 49.4348 48.0608
159 1 19.9797 11.9374 51.4038
160 1 20.4953 11.0676 51.3861
145 1 23.9903 13.4501 53.3007
156 1 21.67 12.8741 51.1221
157 1 21.1106 13.6842 51.1739
107 1 2.48068 47.9971 49.9197
106 1 3.52468 48.0918 49.9471
110 1 1.42332 47.9789 49.0288
111 1 1.35987 48.1086 48.0506
104 1 2.86259 49.0354 49.6369
118 1 2.99619 47.9133 47.5809
117 1 2.14887 48.2064 47.209
115 1 2.31561 48.5866 48.6274
116 1 2.51829 48.9872 47.7807
112 1 0.772948 48.9377 48.3339
142 1 22.5152 12.3451 53.7133
141 1 23.4447 12.1642 53.532
148 1 21.3985 12.9042 53.0478
147 1 21.9967 13.5618 53.307
149 1 21.0662 12.8994 52.1142
153 1 21.4056 11.6846 52.1517
144 1 23.4195 13.2044 52.4513
146 1 23.016 13.5219 53.6518
151 1 22.206 13.5109 52.1644
150 1 21.3683 13.8265 52.4978
155 1 21.3397 12.2689 50.3975
154 1 21.1715 11.9429 51.3183
102 1 4.05593 48.26 48.848
119 1 3.78375 48.1721 46.9614
101 1 3.07212 47.7578 48.6976
105 1 3.78087 49.0246 49.8879
103 1 3.36116 48.9983 48.8458
143 1 22.7893 12.6471 52.7458
152 1 22.0738 12.4442 52.0193
120 1 4.0864 48.3997 47.8294
19 1 15.2266 31.1667 1.81384
20 1 14.7689 31.5204 2.76692
17 1 15.5493 31.8562 1.10459
18 1 14.6995 31.4119 1.06054
1 1 17.5488 29.518 2.742
3 1 17.4467 29.721 1.24893
4 1 17.1229 29.054 1.87951
2 1 17.5007 30.1883 2.12734
8 1 16.4784 30.3857 2.19388
ITEM: TIMESTEP
20000
ITEM: NUMBER OF ATOMS
500
ITEM: BOX BOUNDS pp pp pp
0.0000000000000000e+00 6.0000000000000000e+01
0.0000000000000000e+00 6.0000000000000000e+01
0.0000000000000000e+00 6.0000000000000000e+01
ITEM: ATOMS id type x y z
5 1 12.2289 31.3958 5.65434
3 1 13.4277 31.9605 5.67245
18 1 13.316 32.7447 1.76802
7 1 12.2775 32.3448 5.03449
6 1 11.4573 32.1138 5.58323
17 1 12.9463 32.1313 2.47856
4 1 12.4435 32.2121 6.15808
1 1 13.6299 33.1569 5.43891
19 1 13.8753 32.9844 2.65628
15 1 13.9736 31.9731 4.1315
9 1 13.1704 31.2142 3.83375
8 1 12.3592 31.607 4.48046
10 1 13.6415 31.1502 4.77222
2 1 13.3623 32.5139 4.82391
20 1 13.9379 31.9741 2.29452
16 1 13.4185 32.2292 3.30393
436 1 45.691 55.5089 1.70853
435 1 45.2085 56.0682 0.970207
434 1 45.9018 56.604 0.439663
421 1 45.6552 55.7082 59.6974
13 1 14.798 31.4391 3.55553
12 1 13.8611 31.3167 3.11657
11 1 14.1018 30.7954 3.92278
14 1 14.8786 31.712 4.46938
437 1 46.045 55.2668 0.856924
438 1 46.7517 55.7617 0.3558
440 1 47.5953 56.9681 1.09449
439 1 46.8658 56.8404 0.179079
432 1 46.6038 56.1289 1.69403
431 1 45.9074 56.5429 2.0069
433 1 46.6081 56.7874 1.1298
423 1 45.5296 57.1992 59.6586
430 1 44.9381 56.839 1.88672
427 1 46.6956 58.4823 1.45432
428 1 45.7524 58.3687 1.23389
429 1 45.5821 57.5103 1.47046
422 1 46.1501 56.4975 59.3606
25 1 40.4014 9.85326 6.9487
27 1 39.3062 9.73797 6.94511
21 1 38.9826 10.7198 6.95065
424 1 45.9543 57.7972 0.198174
426 1 46.8031 57.6574 1.79003
425 1 46.7362 57.7311 0.730141
39 1 41.9362 9.71363 7.78186
26 1 39.8756 9.02863 7.18338
36 1 41.0958 9.91172 8.43639
38 1 41.3679 9.04996 7.27303
37 1 40.7929 9.09902 7.93683
23 1 39.9402 9.91346 7.93447
24 1 40.6574 10.6122 7.62267
40 1 41.7261 10.2375 7.13143
28 1 38.571 10.0001 6.2118
22 1 39.3447 10.5773 7.93691
29 1 37.8404 9.31992 6.5072
179 1 48.8183 33.788 6.4832
175 1 47.0525 32.0874 5.02608
253 1 48.5806 33.926 4.8849
252 1 49.5778 34.0489 4.5813
251 1 48.9113 34.6111 4.28095
35 1 40.2917 9.73073 9.04031
34 1 39.9644 8.93464 8.48885
32 1 38.7132 8.56988 8.32599
33 1 39.1182 9.18503 9.08539
30 1 38.2457 9.86172 7.3974
31 1 38.9644 9.46299 7.98085
260 1 45.2932 34.2406 5.80734
177 1 48.8029 32.9798 5.76506
176 1 48.0177 32.6599 5.06427
173 1 47.4842 31.3577 6.52566
169 1 47.7271 32.7017 7.17595
178 1 49.414 33.6885 5.62773
170 1 47.1003 32.3031 6.41913
180 1 47.9917 34.3931 6.48459
259 1 45.5279 33.844 6.65926
256 1 47.014 33.1458 5.3723
172 1 48.3586 31.87 6.66307
174 1 47.6547 31.6404 5.6818
171 1 47.9716 32.6542 6.16269
254 1 47.7002 33.5087 4.46772
250 1 49.4264 35.0713 4.96287
249 1 49.0373 34.6346 5.80137
244 1 46.9947 34.3453 6.63154
257 1 46.0299 33.2719 5.48337
255 1 47.8761 33.579 5.4773
245 1 46.6561 34.1506 5.78336
248 1 48.0398 34.7202 5.30429
247 1 47.2424 34.9513 5.5829
246 1 47.0673 34.1228 4.93335
162 1 47.7509 35.5835 6.96791
241 1 47.096 31.9772 7.55214
163 1 48.3056 35.2496 7.84073
165 1 48.7807 34.3387 8.13717
161 1 46.8179 35.7848 6.44236
168 1 48.6973 32.7939 6.86415
167 1 49.7092 33.1629 6.87715
258 1 45.8039 32.7627 6.3157
243 1 47.0347 33.3691 6.3991
242 1 46.6884 32.8638 7.28479
166 1 49.2599 33.5681 7.70959
164 1 47.8982 34.3908 7.61122
290 1 43.768 47.3714 16.1092
289 1 44.4462 46.8953 16.7132
293 1 44.026 46.9768 15.1407
294 1 44.0533 46.2103 15.5267
288 1 44.7865 47.0824 15.796
295 1 43.0819 46.5164 15.5767
283 1 44.3284 47.5725 12.9116
286 1 44.5812 47.4626 14.2997
292 1 44.0732 47.9189 15.1234
287 1 45.0521 47.7409 15.1346
284 1 43.3359 47.8073 13.091
291 1 44.0633 48.1837 16.1676
285 1 43.8581 47.0384 13.7502
298 1 42.4498 47.8361 14.5742
297 1 43.0367 46.9884 14.5815
296 1 43.5394 46.1749 14.622
299 1 42.374 47.3042 13.7736
281 1 43.7771 47.3763 11.9753
282 1 43.8288 46.6613 12.6682
300 1 42.8393 46.6333 13.1355
99 1 56.2438 25.4793 24.4462
100 1 57.0157 25.5163 23.5938
94 1 55.9032 27.0946 25.4958
92 1 56.6226 26.6833 26.3075
93 1 56.1723 27.6497 26.3938
98 1 56.575 25.103 25.3765
95 1 55.6359 26.4742 26.1927
96 1 55.3282 25.5169 26.1752
84 1 54.1414 23.3454 28.1771
83 1 53.7457 23.5848 27.2171
89 1 55.4142 27.1682 27.1131
90 1 56.2809 26.8838 27.4208
97 1 56.0056 24.5931 26.0837
347 1 52.7267 24.9135 27.5074
86 1 54.8685 25.0191 27.2643
87 1 55.9643 25.214 27.6131
91 1 56.844 26.0715 27.1566
346 1 52.5361 25.4334 28.3724
345 1 53.4875 25.9534 28.1862
81 1 54.9453 22.8835 27.4167
82 1 54.2598 22.9688 26.7252
360 1 54.143 25.4294 29.5441
85 1 54.5625 24.2866 27.7535
348 1 53.754 25.1274 27.6943
349 1 54.4745 25.478 28.216
88 1 55.4172 26.028 27.2229
344 1 53.3614 26.0677 27.2599
343 1 54.2467 26.0012 27.3181
350 1 55.4308 25.5393 28.4498
358 1 54.4879 24.5963 28.9066
357 1 53.825 23.9901 28.9649
342 1 54.7917 26.5644 27.9645
353 1 54.9164 25.7785 30.5389
359 1 53.6046 25.0641 28.8817
356 1 53.5459 24.3923 29.8192
341 1 55.5089 27.03 28.4114
352 1 55.1119 25.1586 29.7114
351 1 55.1873 25.964 29.3557
355 1 54.1168 23.8333 30.2713
478 1 16.1038 1.14571 32.4101
479 1 16.2594 0.358193 33.0064
477 1 15.7396 2.03604 32.4315
476 1 14.9093 1.7839 32.213
405 1 17.0873 3.38628 32.4678
404 1 16.9774 4.02634 31.7682
408 1 16.99 1.39991 31.6391
401 1 17.4674 3.14414 30.6841
403 1 18.0014 4.05706 31.4109
354 1 54.413 24.8113 30.4256
480 1 17.0512 59.9972 33.2373
472 1 16.354 2.49254 33.25
473 1 15.6343 3.21741 33.2361
475 1 15.1213 2.82529 32.1407
474 1 16.0318 3.09487 32.2844
464 1 17.0055 2.30791 32.3773
417 1 17.588 4.43256 33.825
418 1 16.855 3.90932 34.2251
406 1 16.737 3.05001 31.5154
407 1 16.4213 2.091 31.3283
462 1 18.543 1.75903 33.029
463 1 17.6557 2.51616 33.0091
409 1 17.7902 1.91038 31.2158
412 1 18.41 2.81067 30.9509
402 1 17.2716 4.17683 30.7608
49 1 5.55686 25.776 34.0729
48 1 5.15472 24.9954 33.9136
41 1 6.38407 23.5045 33.0933
59 1 6.28967 21.6648 33.7641
448 1 40.0634 42.2392 31.5247
449 1 40.8927 42.4966 31.8738
450 1 40.6316 43.2059 32.5498
451 1 39.7685 43.1589 32.0448
452 1 39.7584 43.2528 33.0722
456 1 40.3791 42.1224 33.9408
455 1 40.5435 41.3109 33.3561
459 1 39.1069 41.8969 32.7742
457 1 39.5756 41.4838 34.2005
458 1 39.4049 42.3227 33.7349
466 1 17.256 0.932619 32.7945
471 1 16.4166 1.60428 33.3142
469 1 17.6566 0.652694 34.3939
468 1 18.5885 0.957346 33.8146
467 1 17.7472 1.33625 33.4478
465 1 17.757 1.60905 32.3632
419 1 17.7121 3.42473 34.3967
470 1 16.8264 0.987108 33.7497
416 1 17.9398 3.63044 33.2599
461 1 19.6136 1.73795 33.0377
411 1 17.8242 3.06403 31.7394
410 1 18.3662 2.23852 31.8865
420 1 18.5767 3.26948 35.0427
415 1 18.7972 3.01988 33.1976
414 1 19.4358 2.90219 32.4532
413 1 19.2542 2.96357 31.5013
372 1 23.9997 7.44896 35.7774
365 1 22.793 9.08944 35.8887
363 1 23.7879 9.92564 36.8998
364 1 22.748 9.73359 36.7739
127 1 18.061 12.9477 34.0202
126 1 18.1822 13.6025 34.8377
128 1 18.9283 12.7266 33.4376
51 1 6.07828 24.6426 33.4747
50 1 5.92025 25.53 33.2693
46 1 5.52539 23.9238 34.3216
42 1 5.71961 22.9728 33.5191
44 1 4.59145 23.1208 33.7097
47 1 5.09857 24.1509 33.4527
43 1 5.0326 22.112 33.5903
52 1 6.56507 24.1016 34.0507
54 1 7.58419 22.85 33.6909
53 1 7.62774 23.8078 33.8167
56 1 7.35529 22.6568 34.9448
55 1 7.6782 21.9756 34.1973
60 1 6.83934 21.1293 33.1935
58 1 6.65335 22.4837 34.0843
57 1 6.53539 23.1687 34.7962
447 1 39.1799 42.3573 31.694
442 1 39.8516 41.6996 30.491
441 1 40.5206 42.3418 30.6361
443 1 39.1341 42.252 30.5885
444 1 39.6113 42.984 30.115
453 1 40.1313 42.2914 32.8237
454 1 41.0839 42.1258 32.8536
460 1 39.6938 41.1474 32.5194
375 1 21.8511 7.50847 34.6708
373 1 23.3346 8.0004 35.467
380 1 20.2957 6.20513 34.7928
371 1 23.4367 6.70198 35.3235
376 1 20.9771 7.18397 35.014
362 1 24.1755 9.12262 36.5216
368 1 22.0705 7.17953 36.3782
374 1 22.5128 7.3797 35.3888
366 1 22.0352 8.4558 35.7849
369 1 22.0844 6.20166 36.7567
370 1 22.9975 6.17233 36.0994
361 1 23.494 8.60693 36.8111
489 1 18.5798 12.5829 35.1309
125 1 18.4632 13.7258 35.7615
131 1 18.8959 11.7519 33.1084
132 1 17.8898 11.8652 33.3866
133 1 18.4288 11.4056 34.0706
130 1 19.5793 11.9833 33.9187
129 1 19.4827 12.8298 34.2399
123 1 17.6752 12.49 36.1997
490 1 19.0293 11.7708 35.1005
124 1 17.8234 13.5259 36.2992
134 1 18.7017 10.6626 34.6594
500 1 18.111 11.0621 35.4621
499 1 17.4972 11.6519 35.6984
45 1 5.28306 22.8643 34.442
193 1 10.7118 31.8815 37.4029
192 1 10.7995 32.7493 37.7555
190 1 11.0096 33.709 38.0214
189 1 11.9175 33.9855 38.1775
182 1 12.5736 32.7868 37.8475
181 1 13.2637 33.3161 37.6001
183 1 13.4594 32.2368 38.0192
188 1 12.2468 33.9743 39.324
187 1 12.8275 33.5225 38.674
446 1 38.9745 43.2112 30.9768
445 1 38.5451 43.1947 30.1887
378 1 22.3395 6.41761 34.7244
377 1 21.6694 6.61751 35.5015
367 1 22.6955 8.07111 36.2992
379 1 21.3454 6.32855 34.5597
488 1 19.3138 12.5897 35.6978
487 1 20.1983 12.9284 35.978
486 1 20.9663 12.2999 36.1618
482 1 20.0471 12.0257 34.9981
481 1 20.4068 12.9541 34.7675
483 1 20.2302 11.0526 34.6664
491 1 19.6937 11.5936 36.0097
492 1 19.826 12.3009 36.8483
122 1 17.3287 12.63 35.2362
495 1 18.6738 12.8651 36.4389
494 1 19.4668 13.4589 36.554
135 1 18.929 10.4851 35.5755
136 1 18.0587 10.4496 36.1999
121 1 17.5643 12.0304 34.3929
497 1 18.3734 11.941 36.9832
496 1 18.2642 12.9456 37.3526
332 1 19.101 11.5667 37.5353
326 1 17.7881 11.4483 38.7424
498 1 17.4601 11.6355 36.5733
331 1 18.5244 12.1449 38.113
191 1 11.4879 33.2579 37.267
195 1 11.0287 31.9313 38.4405
194 1 10.8014 31.106 37.9343
197 1 12.4059 31.7175 38.3402
199 1 11.7526 32.8848 38.5578
198 1 11.9914 32.0932 39.109
185 1 13.7598 32.4111 39.0913
196 1 11.7317 32.1303 37.7299
219 1 12.6993 31.528 36.8745
218 1 12.3556 30.9968 36.1123
186 1 12.8301 32.6246 39.0496
184 1 14.0603 33.0092 38.4689
485 1 20.8897 11.2643 36.2211
138 1 19.2987 10.4534 37.4279
137 1 18.6927 10.8765 36.7228
484 1 20.9104 11.5198 35.314
335 1 20.5938 10.6665 38.3056
334 1 20.4627 10.4975 37.3956
493 1 20.1799 13.176 37.1697
324 1 17.573 10.575 37.1856
323 1 17.2648 10.9574 37.9941
139 1 18.4551 9.8688 37.2954
325 1 18.2554 11.1269 37.8709
333 1 19.8903 11.2593 37.732
337 1 19.8957 9.9661 39.1466
321 1 18.0305 10.5656 39.0758
327 1 18.6206 11.6634 39.1788
322 1 17.9237 10.2459 38.1385
328 1 19.484 12.0072 39.6179
340 1 18.7427 9.95715 38.6137
329 1 19.4813 12.0914 38.7212
330 1 19.2488 12.695 37.9102
211 1 11.6151 30.8882 38.8189
200 1 10.8708 32.9914 38.9118
212 1 10.9078 30.1112 38.5555
216 1 11.5808 31.2298 37.1002
209 1 13.2808 30.5175 39.3178
220 1 12.9831 30.7021 37.3837
213 1 11.6008 29.6473 37.9114
208 1 13.6808 31.0997 38.6615
210 1 12.5432 30.4062 38.6449
204 1 12.637 28.6698 37.5451
217 1 11.6321 30.5326 36.2432
215 1 11.8138 30.5043 37.5197
207 1 13.4996 30.2352 38.1755
336 1 20.0758 9.80713 38.2191
140 1 18.0754 9.42757 36.4715
339 1 19.2125 10.9328 38.4707
338 1 19.2747 10.6098 39.4088
214 1 11.0346 30.1283 37.2171
203 1 11.7268 28.6195 37.7095
202 1 11.954 29.2132 36.9083
201 1 12.6713 29.9192 36.7837
206 1 12.6129 29.521 38.0687
205 1 13.471 29.189 37.6793
304 1 47.6585 12.5855 42.2248
305 1 48.4645 12.1417 42.4186
313 1 46.2692 10.1715 41.7665
314 1 47.0838 10.6629 42.1316
306 1 48.1977 11.9684 43.353
315 1 47.8915 11.0829 42.6592
303 1 47.4943 11.6675 41.7844
302 1 46.7994 11.8573 41.0883
308 1 47.1477 12.4399 43.7895
309 1 46.5861 11.6192 43.8547
307 1 47.98 12.8766 43.3424
312 1 45.8689 10.8249 42.407
301 1 47.7047 12.4893 41.0769
311 1 46.3851 11.4946 42.133
316 1 47.2475 11.7036 43.0171
319 1 47.4208 10.1361 43.054
310 1 46.2216 11.8267 43.0449
318 1 46.6857 10.7337 43.2275
317 1 47.5267 11.0622 43.7496
320 1 46.5699 9.60497 43.055
73 1 20.9017 1.54977 45.3505
72 1 20.929 2.37205 44.6948
278 1 59.1774 21.3444 45.9998
279 1 58.5493 20.8834 45.5443
280 1 58.7339 20.6849 44.5987
61 1 21.1675 2.72646 47.0269
239 1 18.4202 1.25163 46.0959
76 1 20.0452 0.56942 46.6299
77 1 19.2227 0.694458 47.0605
75 1 19.7594 1.55577 46.9536
78 1 18.9066 0.201836 47.9732
74 1 20.4937 1.70623 46.2581
71 1 20.9689 1.28829 44.3355
262 1 57.5628 20.4188 46.9721
261 1 57.8932 19.5453 47.2242
277 1 58.9348 21.9653 46.6709
276 1 59.4479 21.3224 47.0504
275 1 59.6098 22.1101 47.5081
272 1 57.962 21.5183 47.0744
273 1 57.978 21.5455 48.0243
397 1 57.5458 23.442 48.6894
268 1 57.2123 21.1479 46.1655
270 1 57.9276 21.698 45.0861
269 1 57.1514 22.0007 45.6304
271 1 58.1411 21.6547 46.112
400 1 59.1503 23.405 49.1313
396 1 57.3945 22.8388 47.951
266 1 55.8357 20.9171 46.218
267 1 56.5456 21.7259 46.4916
240 1 18.6098 0.239572 45.8659
237 1 19.5542 1.24928 45.7806
238 1 19.1682 2.02297 46.0174
68 1 20.9387 0.0470254 46.2188
66 1 21.2946 1.25571 46.8304
67 1 21.7261 0.289341 46.6831
70 1 21.1912 0.69073 44.9572
69 1 21.1954 0.809264 45.908
232 1 18.7138 0.327965 44.6579
80 1 20.5579 59.4523 47.6812
65 1 22.0504 1.91534 46.8737
63 1 21.8629 2.99265 46.0971
79 1 19.7677 59.8907 47.4894
62 1 22.0089 3.03265 47.0997
222 1 21.9405 2.71945 44.9914
224 1 21.8097 1.91224 44.3583
223 1 22.6666 2.17095 44.4155
64 1 21.6549 2.04071 46.0528
264 1 56.5159 20.2287 46.772
263 1 56.7857 21.0555 47.2107
393 1 57.0912 22.4204 46.8887
274 1 58.7725 22.1413 48.1376
381 1 55.5251 24.5594 46.8521
265 1 55.6697 20.6694 47.1867
391 1 58.2763 22.8475 47.1676
395 1 56.4861 23.1424 47.6359
394 1 56.3429 22.16 47.5414
399 1 58.7336 24.1087 49.7398
398 1 57.9994 24.1476 49.257
382 1 56.0158 23.7144 46.9523
119 1 59.9584 48.6381 46.6712
235 1 19.858 0.206744 44.6173
236 1 19.7814 1.2033 44.8145
234 1 20.068 0.844355 43.7852
233 1 19.1116 1.03487 43.8678
227 1 20.9088 0.183954 43.7056
228 1 20.8343 59.6196 44.4359
226 1 20.9114 1.21925 43.276
231 1 18.4054 59.8031 43.9408
229 1 20.0583 58.9994 44.8782
221 1 21.7777 3.28991 44.1699
225 1 21.2806 2.04452 43.6
385 1 56.8299 25.4288 46.3131
390 1 58.3051 23.6772 47.887
392 1 57.4471 23.3356 46.7029
386 1 57.0969 25.0401 47.2061
389 1 57.586 24.2167 47.7057
384 1 57.497 24.6861 46.2533
383 1 56.5893 24.2621 46.4086
387 1 56.1506 24.9811 47.6188
388 1 56.6208 24.2408 47.9816
111 1 1.95728 49.26 47.7871
117 1 0.494704 47.8517 47.5528
118 1 0.752412 47.905 46.569
120 1 0.204121 48.9202 47.5727
112 1 0.985237 49.6071 47.4465
113 1 1.74156 49.7116 46.845
116 1 1.2394 48.6125 47.255
230 1 19.3542 59.4095 44.2288
110 1 2.37383 48.6876 47.0527
107 1 2.66952 47.9997 46.2985
106 1 3.09532 47.7141 45.4575
102 1 1.5194 47.9116 45.929
101 1 1.77525 47.6469 46.9193
109 1 2.9158 49.1354 46.4516
108 1 2.17485 48.7429 45.8723
114 1 1.64309 49.628 45.7943
104 1 2.45107 48.6035 44.6471
115 1 1.16564 48.9592 46.3373
105 1 3.11063 48.7828 45.2617
103 1 1.48764 48.4888 45.156
160 1 23.7928 14.2052 53.0084
159 1 24.4273 14.8313 53.484
158 1 24.3906 13.957 53.9451
155 1 22.882 12.4424 53.6413
154 1 22.8573 11.9373 52.7963
157 1 24.0411 13.3541 54.6521
156 1 23.2982 12.8959 54.5107
153 1 22.0037 12.3402 52.4466
143 1 23.6243 11.9152 51.0079
152 1 22.7831 12.6497 51.9093
149 1 24.1736 12.609 53.7279
150 1 23.479 13.349 53.6327
151 1 23.3838 12.9773 52.6279
144 1 23.5944 11.9632 52.0783
142 1 24.111 11.2545 50.823
141 1 24.3225 10.4241 51.3631
148 1 24.3146 12.3305 52.7503
147 1 24.4339 11.4739 52.4535
145 1 24.028 12.7915 51.7566
146 1 24.6537 12.091 51.63
ITEM: TIMESTEP
21000
ITEM: NUMBER OF ATOMS
500
ITEM: BOX BOUNDS pp pp pp
0.0000000000000000e+00 6.0000000000000000e+01
0.0000000000000000e+00 6.0000000000000000e+01
0.0000000000000000e+00 6.0000000000000000e+01
ITEM: ATOMS id type x y z
437 1 46.1071 0.133091 58.5422
435 1 45.5118 0.782834 59.1191
434 1 44.7913 0.328667 58.5705
438 1 45.5896 0.625323 57.973
439 1 45.4514 1.34081 57.3831
433 1 44.5639 0.506365 59.6656
440 1 44.6147 0.711172 57.5453
428 1 45.0536 2.6313 58.145
424 1 44.1941 1.58435 57.2843
425 1 43.9807 1.65061 58.2819
18 1 11.0633 32.2963 6.10959
17 1 10.5915 32.9024 6.70198
20 1 9.94767 31.7628 6.08651
19 1 10.5993 31.7445 6.74148
436 1 45.5201 59.7896 59.2108
430 1 45.8822 2.51589 59.2673
432 1 45.2967 0.980072 0.24349
431 1 45.1936 1.83097 59.5211
429 1 45.1174 3.00151 59.164
427 1 45.0345 1.59614 58.3528
426 1 44.3351 2.14048 58.9101
9 1 9.91377 33.3554 5.78944
12 1 9.48421 34.1306 7.74388
11 1 10.3686 34.1855 7.19895
15 1 10.2372 32.3428 7.57713
16 1 11.1917 32.4345 7.34588
13 1 9.41192 33.3221 7.01942
251 1 47.634 33.7925 2.62028
5 1 8.99216 34.1283 5.6853
10 1 10.0329 34.2386 6.16164
7 1 8.57753 33.1334 6.03767
6 1 8.43723 34.0034 6.53781
8 1 9.19539 32.7261 5.3288
3 1 10.5526 34.1659 5.21039
2 1 10.687 33.0206 5.00368
14 1 9.48145 32.3915 6.90351
175 1 48.444 30.8654 4.56733
176 1 49.0675 31.2702 3.74126
174 1 48.9522 31.5043 5.09757
1 1 11.5807 33.3564 5.29539
256 1 48.0156 31.3449 3.34986
257 1 47.6044 30.704 4.0397
246 1 46.2158 32.8276 3.51184
254 1 48.6998 32.1906 3.16392
255 1 48.9427 31.2752 2.80173
253 1 48.0427 32.6338 2.68522
252 1 48.6503 33.3756 2.93077
178 1 49.0473 32.9589 4.27585
248 1 48.0254 33.049 3.73994
247 1 47.1623 33.1914 3.32868
250 1 47.1598 34.3975 3.3646
29 1 41.1531 9.88938 8.26432
27 1 40.1808 10.5507 8.29321
28 1 40.5518 10.052 8.93709
25 1 40.121 9.32296 8.11965
21 1 40.9223 8.9408 7.48533
40 1 38.2028 10.3678 8.4326
173 1 48.6747 30.8292 5.92274
4 1 9.65197 33.9222 4.8468
170 1 47.4883 32.1541 5.1504
258 1 48.211 29.833 4.30121
172 1 48.1793 31.7038 5.78046
171 1 47.7085 32.6298 5.90329
168 1 46.8389 32.76 4.4526
260 1 48.4246 30.3827 2.56241
259 1 48.3712 29.9551 3.23884
245 1 46.499 32.3952 2.73631
243 1 47.5214 31.8077 4.11567
179 1 49.0748 32.6109 5.13979
177 1 48.5756 31.9533 4.21379
167 1 47.3935 33.5803 4.4343
244 1 47.2717 32.0808 3.29296
180 1 48.0564 32.928 4.90737
162 1 48.4561 35.747 3.89176
249 1 48.0063 34.0357 3.67975
161 1 48.5337 36.8165 3.98137
32 1 41.3976 7.92327 8.73422
30 1 41.6807 9.0265 8.2918
26 1 39.7564 9.98033 7.48741
23 1 39.4007 8.41343 8.27915
34 1 41.1235 9.15638 9.99112
31 1 41.9717 8.68076 9.09986
36 1 39.5496 9.93364 9.69598
38 1 38.5653 9.41433 9.00965
37 1 38.9371 9.12106 9.96872
39 1 39.1926 10.2404 8.48113
22 1 40.3812 8.31898 8.06589
24 1 39.9354 8.86375 8.90554
241 1 46.5431 31.3472 3.12366
169 1 46.8054 32.9254 5.35342
242 1 46.5683 31.7739 4.01645
166 1 47.4547 34.3395 5.11673
163 1 48.9288 34.8722 3.91471
164 1 48.752 34.96 4.98107
165 1 48.2841 34.1113 5.25411
33 1 40.8655 8.61349 9.08437
35 1 40.2205 9.24386 9.88514
282 1 43.4027 48.9991 15.67
281 1 43.9688 48.9766 16.4893
300 1 44.614 48.5033 13.9693
285 1 43.8414 46.9047 14.9863
299 1 43.9645 48.8022 14.7934
284 1 43.2313 47.5002 15.4925
283 1 44.0361 48.1648 15.7074
293 1 44.6015 47.029 13.8395
294 1 44.5108 47.7894 13.1877
295 1 43.6905 48.134 13.5872
297 1 43.062 47.7517 14.363
296 1 43.9986 47.8402 14.5073
298 1 43.0877 48.6375 14.2584
292 1 43.639 47.056 13.7912
286 1 42.9411 46.6245 14.6997
287 1 42.3493 47.0791 14.0482
289 1 42.6242 46.2266 13.5713
288 1 42.1403 46.9021 13.1319
290 1 42.9946 46.3985 12.639
291 1 43.488 47.316 12.9458
100 1 52.3661 23.6253 27.7809
99 1 51.8293 23.8179 27.1667
98 1 52.7021 23.4311 26.8418
94 1 52.4282 26.3459 26.3064
82 1 54.6955 23.2551 27.3599
96 1 52.61 25.315 27.0311
97 1 52.7991 24.3517 26.74
95 1 52.9428 26.3173 27.122
92 1 52.5159 27.1896 27.8974
89 1 54.0749 26.2422 28.2621
93 1 51.9645 26.7135 27.1767
84 1 55.0655 23.9948 27.9502
83 1 54.9608 24.2502 27.0655
81 1 55.5209 23.3352 26.9323
347 1 52.5058 25.508 28.2118
346 1 51.7406 24.8119 28.092
348 1 52.7825 24.6033 27.7624
86 1 54.5498 25.1658 27.4946
85 1 54.1808 24.3224 27.7298
349 1 53.465 24.6645 28.6962
350 1 54.0945 25.3833 29.0261
87 1 53.7568 25.373 27.1275
345 1 52.2391 24.24 28.6996
344 1 52.6418 24.8639 29.3118
343 1 52.0926 25.677 29.2427
88 1 53.4147 25.435 27.887
342 1 51.2054 25.4897 28.7073
341 1 50.6689 26.3618 28.5912
90 1 53.3265 26.2762 28.877
91 1 52.5067 26.5282 28.7187
357 1 53.0266 22.9798 28.178
360 1 52.0578 23.6649 29.8257
359 1 52.7295 23.2273 29.35
356 1 53.1013 21.9563 28.42
358 1 53.5319 22.7172 28.9231
352 1 53.6192 24.044 29.5302
351 1 54.4748 24.5226 28.9967
407 1 15.3231 1.16809 32.4357
409 1 16.2104 0.553198 31.7375
412 1 17.5297 1.3933 31.5703
401 1 16.4645 1.719 30.8193
403 1 16.1564 3.07244 31.2189
402 1 15.6678 2.20554 31.3403
355 1 54.0971 22.179 28.0522
354 1 54.0933 23.2225 28.2444
353 1 54.3743 23.257 29.1668
442 1 43.8934 43.8547 31.6959
443 1 44.1164 43.5303 32.6033
441 1 44.2091 44.0195 30.7478
445 1 43.0491 42.8964 33.4241
444 1 43.3912 43.8722 33.2579
446 1 43.4444 42.2257 32.8152
478 1 15.1439 2.03299 33.758
408 1 15.3713 0.968756 31.4567
466 1 15.7127 0.090845 32.5941
476 1 15.0135 3.09172 33.8101
475 1 15.6142 3.75572 34.0981
477 1 15.8926 2.51798 33.6899
464 1 17.1269 0.456062 32.5282
465 1 16.6539 59.7031 32.4065
410 1 16.5244 1.27956 32.0786
405 1 15.6885 2.32585 32.4239
404 1 16.0045 3.36628 32.1807
474 1 14.7104 3.76777 34.7857
406 1 14.9026 1.96519 32.0967
411 1 16.9059 2.06386 31.7264
414 1 18.3519 2.05385 31.6718
413 1 18.4089 1.19013 32.1552
460 1 42.2252 43.4182 31.4237
459 1 42.2061 43.852 30.4707
447 1 42.9187 43.0018 32.2978
448 1 43.5804 42.6634 31.7135
449 1 44.1414 42.824 30.8926
453 1 43.448 42.2162 30.4026
451 1 43.5523 41.1573 30.8419
450 1 44.0609 41.8773 31.2013
479 1 15.067 1.35726 34.497
470 1 16.9316 1.73393 34.1304
467 1 16.1139 0.807507 32.9647
468 1 15.2242 0.817173 33.4199
472 1 15.5548 2.09931 35.2242
471 1 16.4711 1.9855 34.9735
462 1 17.7841 59.8797 31.5343
463 1 17.1868 0.470156 31.4969
461 1 17.537 59.5324 30.6514
473 1 15.3394 3.03136 34.8902
418 1 16.6267 2.89753 32.9055
416 1 17.3569 1.72316 32.6303
415 1 18.0044 2.42826 32.5172
417 1 16.4832 1.89309 33.0579
133 1 18.2165 10.2176 34.0226
132 1 17.4601 10.9193 34.1133
128 1 16.4542 12.8308 36.2638
131 1 18.0197 11.5667 34.4893
130 1 17.6083 11.3162 35.4383
129 1 17.0229 12.0195 35.8077
127 1 15.9818 13.2671 37.1042
60 1 6.33874 25.5786 34.6638
43 1 9.59182 25.0225 33.7609
59 1 6.26618 24.6426 35.0538
58 1 6.26708 23.73 34.5676
54 1 7.20115 22.126 35.0746
55 1 7.86453 22.6985 35.5617
44 1 10.4067 24.9093 34.3391
47 1 8.35512 23.5494 34.6435
41 1 8.08989 24.5227 34.3705
42 1 8.84024 24.3239 33.8628
52 1 7.27554 22.6399 33.9422
53 1 8.03696 22.4006 34.5067
48 1 8.97072 23.0654 33.9592
51 1 7.97159 22.5225 33.2088
50 1 8.525 23.2733 32.7612
49 1 8.04292 23.4771 33.5956
455 1 43.0885 43.5298 29.8458
457 1 42.2502 43.4812 28.8644
458 1 42.3642 44.265 29.5438
456 1 42.2138 43.082 29.8031
454 1 43.0924 43.0883 30.7355
452 1 42.9292 41.9916 31.0696
480 1 14.4621 2.15645 34.7991
469 1 16.036 1.10959 33.9536
419 1 17.278 2.49027 33.4652
420 1 17.9587 2.17157 34.0978
380 1 23.2717 11.65 35.3917
379 1 22.6857 11.1381 34.8493
378 1 22.7307 10.6226 35.646
377 1 23.5775 10.2876 35.0983
371 1 21.5491 7.99735 35.7314
376 1 23.7743 9.93493 35.9572
375 1 23.631 8.85121 36.0222
374 1 23.0143 8.41751 36.6877
373 1 22.62 7.94208 35.8999
500 1 17.0923 10.3936 34.9707
134 1 18.3492 10.4966 35.0192
135 1 18.4605 10.798 35.9763
483 1 18.4563 12.9664 38.0284
499 1 17.4237 10.205 35.8203
122 1 16.3497 10.8945 36.3895
121 1 15.6259 11.4634 36.0832
489 1 17.3097 11.3611 36.5764
490 1 17.9638 11.9519 36.4554
488 1 16.6395 11.9942 36.9127
482 1 18.701 12.4637 37.2026
484 1 17.8378 13.2726 38.7634
126 1 15.3198 12.7171 36.7565
481 1 17.938 11.7942 37.5776
56 1 7.22488 23.3531 35.2884
46 1 9.12276 24.1357 34.8488
45 1 9.84586 24.0706 34.3322
57 1 7.30206 23.7695 34.4076
369 1 22.2121 8.42183 35.0818
370 1 21.7337 7.67428 34.9004
368 1 22.7343 9.06242 35.6013
366 1 21.4725 9.13981 35.5964
367 1 22.0949 9.05857 36.2997
372 1 21.9327 7.9259 36.6217
140 1 20.3859 10.2509 34.4865
365 1 20.98 8.83433 36.4594
364 1 21.4256 9.60885 36.9377
363 1 21.4444 8.75071 37.3502
362 1 21.7816 8.02325 37.756
361 1 22.5894 8.39002 37.8005
136 1 18.9143 9.8908 35.7203
137 1 18.8538 9.10509 35.0435
485 1 17.2757 12.5051 38.6475
123 1 16.8051 10.665 37.3277
497 1 17.7031 9.54747 37.1386
498 1 18.1654 9.85095 36.4567
491 1 18.3223 11.149 36.9303
492 1 18.3456 10.3829 37.5179
486 1 17.4972 12.7881 37.6723
125 1 15.506 12.0477 37.5402
124 1 16.0338 11.192 37.4649
495 1 17.7854 9.49712 38.436
494 1 17.1148 10.2653 38.2188
487 1 16.5302 12.2437 37.8366
202 1 12.0986 33.3468 37.839
201 1 12.9857 33.2761 38.2674
218 1 14.67 32.0879 37.9488
216 1 14.4728 31.9376 39.0691
217 1 14.0723 32.563 38.5395
219 1 14.9796 31.0938 37.7481
139 1 20.4442 10.1056 35.3584
336 1 19.9447 9.63468 36.2162
324 1 18.6362 9.01537 36.0959
323 1 17.6144 8.90647 36.0395
325 1 19.4858 8.87423 35.8135
322 1 18.1508 8.33207 35.3803
138 1 19.5935 9.63104 34.9417
333 1 19.3154 10.7362 37.956
339 1 20.3872 8.97098 35.4184
335 1 20.3375 9.78017 37.0683
334 1 20.3412 10.6455 37.6832
331 1 18.9797 10.3644 36.7206
332 1 19.4675 11.0853 37.0926
330 1 19.4633 9.89934 37.5226
496 1 17.2016 8.91788 37.9048
493 1 17.7342 10.8503 38.1074
213 1 12.3316 33.2054 39.24
204 1 11.3645 31.6262 38.3526
203 1 11.4298 32.604 37.9085
206 1 11.3279 32.0211 36.7046
205 1 11.3394 31.3842 37.3379
194 1 15.2766 32.04 40.9412
212 1 12.4198 32.2989 39.6533
214 1 13.2537 32.7756 39.3518
215 1 14.2021 32.7153 39.595
220 1 14.0333 30.8586 37.5948
207 1 12.1293 32.0821 37.2585
193 1 15.5922 31.9396 39.976
192 1 15.5604 31.6993 38.9329
195 1 14.3398 31.8369 40.5919
182 1 13.8137 31.0845 38.687
197 1 13.6766 31.4869 39.7522
196 1 14.5618 31.2595 39.8687
183 1 14.0742 30.0215 38.6006
190 1 16.8174 31.1124 39.1015
189 1 15.8775 30.7684 39.4995
191 1 16.0422 30.9561 38.4294
199 1 13.9274 30.4774 40.4762
181 1 14.8585 30.8398 38.8565
184 1 14.9663 29.9321 38.3262
337 1 19.9305 8.9071 36.7334
340 1 20.9592 9.34383 34.6361
321 1 17.7294 9.25518 35.1492
338 1 20.2181 8.11958 35.8971
326 1 19.2264 7.98113 35.9503
327 1 19.7891 7.25501 36.3522
328 1 19.4968 8.02586 37.1165
329 1 19.3695 8.85752 37.7569
211 1 12.9402 31.7486 39.0203
210 1 12.491 32.3846 38.3623
209 1 13.1847 32.2537 37.6506
208 1 12.5729 31.4924 37.7748
198 1 13.317 30.592 39.5366
186 1 14.4287 30.1415 39.5664
185 1 15.0311 29.5306 39.208
200 1 14.717 30.1965 41.1763
188 1 15.4803 30.8743 40.4985
187 1 15.3018 30.0067 40.105
302 1 46.2255 13.4755 44.4201
301 1 46.9028 13.9068 43.9438
313 1 46.0673 13.0704 43.0571
314 1 46.8041 12.812 43.7024
312 1 46.7201 13.7711 42.8206
315 1 46.4563 12.143 44.3336
311 1 45.964 14.2187 43.1566
304 1 46.0773 13.4106 45.508
305 1 46.5648 12.5366 45.2839
303 1 46.8026 13.9361 45.0474
233 1 19.7375 2.96333 45.9448
234 1 18.9619 2.75999 45.429
227 1 19.3252 2.40254 44.5406
226 1 18.843 1.43837 44.5216
225 1 19.073 0.719722 44.993
221 1 20.5275 2.87418 44.9009
320 1 46.1311 11.9537 43.4392
318 1 45.1644 11.3808 43.2741
319 1 45.654 12.1016 42.6288
317 1 45.0033 12.3931 43.6566
309 1 45.2334 13.7184 44.7575
310 1 45.3593 13.5675 43.7637
306 1 45.7654 11.9368 45.0706
308 1 45.1279 12.8025 45.0209
316 1 45.8064 12.6691 44.1274
307 1 44.9168 11.8276 44.522
231 1 19.1175 4.19894 44.9432
230 1 19.3257 3.44237 44.609
232 1 19.4254 3.91159 45.757
235 1 18.7485 3.31899 46.1834
236 1 19.0243 3.40488 47.0333
71 1 21.2601 0.896122 43.8243
70 1 21.8145 0.265213 44.38
73 1 21.0585 59.7877 45.1457
72 1 20.7847 0.375945 44.4847
222 1 20.1732 1.82318 44.8286
224 1 19.6668 0.865278 45.9393
223 1 19.3143 1.66333 45.5867
279 1 59.361 21.8556 48.92
280 1 58.9157 21.126 49.6907
270 1 59.8004 20.418 48.3749
269 1 59.9608 20.7939 49.162
103 1 59.758 49.2442 45.039
106 1 0.100672 47.9672 43.4754
104 1 59.4943 48.3417 44.8509
105 1 59.556 47.5524 44.2835
228 1 19.0687 2.63469 43.5832
229 1 18.502 3.22274 44.2429
239 1 17.6071 2.37499 48.2228
77 1 23.345 59.8313 45.0678
240 1 17.796 2.20332 47.2245
237 1 18.8619 2.46628 47.2246
76 1 22.8358 59.8408 44.1898
68 1 22.5657 59.1934 43.2454
66 1 23.949 59.8322 44.2606
69 1 21.7956 59.8249 43.5026
67 1 23.497 59.0477 43.8196
75 1 22.082 59.2382 44.2774
238 1 18.626 2.12627 48.2044
61 1 21.6754 0.719327 42.8429
74 1 21.4585 58.9127 44.7765
65 1 23.631 0.565206 43.8663
64 1 23.5585 0.798963 42.744
63 1 22.7049 0.224289 43.0026
62 1 21.9219 59.856 42.3556
266 1 0.873948 19.3842 48.8447
264 1 59.171 18.9792 48.5649
262 1 58.6637 20.0247 47.8612
268 1 59.9064 19.9718 49.8206
278 1 0.0948133 21.4995 48.4026
276 1 58.7629 22.2257 47.513
267 1 0.873727 19.6496 49.8423
393 1 57.9002 20.4838 49.0161
272 1 59.1511 21.2599 47.7165
271 1 59.7985 20.4328 47.4465
277 1 59.7292 22.0485 47.7031
382 1 59.2617 24.231 47.394
383 1 59.7181 23.8029 46.6298
392 1 57.2745 20.9577 48.3637
381 1 0.0435364 23.6728 47.6768
385 1 59.0592 23.1318 47.919
384 1 59.2304 22.9441 46.9003
118 1 1.75571 47.7016 44.543
107 1 59.8473 48.7378 43.9455
102 1 0.602501 48.8066 45.4379
101 1 0.642629 48.0115 44.8552
115 1 0.715613 49.1756 44.4783
113 1 2.25669 49.832 44.6143
110 1 0.605367 48.8787 43.0397
108 1 0.078708 49.7451 43.6572
114 1 1.38392 49.7574 44.8378
109 1 59.6769 49.2388 42.8362
119 1 1.64881 48.696 44.9881
78 1 23.3719 59.3961 45.8899
261 1 58.2321 20.8506 47.5071
265 1 59.9256 19.5592 48.976
263 1 59.1986 19.3868 47.605
394 1 58.1281 21.4708 49.1353
273 1 58.9235 21.2497 46.7099
396 1 56.8516 22.3035 48.8629
391 1 58.016 21.6615 48.0994
275 1 58.1189 21.7727 46.9354
274 1 58.2523 21.1111 46.1692
395 1 57.1927 21.5353 49.3258
388 1 58.2379 24.3066 46.8567
390 1 57.6404 22.5524 47.6231
389 1 57.8011 23.378 47.0059
386 1 58.9406 24.2615 48.3798
387 1 58.2283 23.8711 47.7708
117 1 1.52697 47.6659 43.5215
120 1 2.33388 48.6278 44.295
112 1 1.75279 49.5266 43.8814
116 1 1.19655 48.479 44.0479
111 1 1.60591 48.9294 43.1175
79 1 23.4515 58.7235 45.2741
80 1 23.928 58.0865 44.7917
397 1 57.7264 22.9048 48.8496
398 1 58.6413 22.5655 48.7301
400 1 58.802 23.0441 49.8751
399 1 59.5116 22.9218 49.1652
142 1 24.6611 12.6597 54.6891
141 1 24.0999 13.2145 54.0981
143 1 25.498 13.0885 54.675
154 1 27.0965 11.4676 53.2681
153 1 26.5528 12.2944 53.3868
152 1 27.0283 12.955 53.8861
144 1 25.7961 12.2392 54.1745
145 1 25.049 12.5205 53.7669
148 1 25.065 13.1005 51.9453
147 1 25.4725 13.872 52.5478
146 1 24.9807 13.4971 53.3966
151 1 26.0603 13.2469 53.7362
155 1 26.2239 11.1889 53.0099
149 1 24.7468 12.5128 52.7698
160 1 26.1539 12.8194 51.92
150 1 25.6714 12.6202 52.9694
158 1 25.8655 10.9568 51.8135
159 1 25.9999 11.8654 52.2623
157 1 25.2405 11.0502 52.4444
156 1 25.3971 11.6228 53.2375
421 1 43.9617 2.30499 55.5678
422 1 44.8338 2.30343 56.1062
423 1 44.8151 1.4027 56.5746
ITEM: TIMESTEP
22000
ITEM: NUMBER OF ATOMS
500
ITEM: BOX BOUNDS pp pp pp
0.0000000000000000e+00 6.0000000000000000e+01
0.0000000000000000e+00 6.0000000000000000e+01
0.0000000000000000e+00 6.0000000000000000e+01
ITEM: ATOMS id type x y z
432 1 44.4748 6.26557 55.2311
260 1 47.1774 30.2734 1.99956
255 1 49.4473 31.4917 0.670932
245 1 47.6064 29.9163 1.04836
253 1 49.8322 31.6857 1.96713
251 1 49.1881 32.352 1.29514
259 1 47.9127 30.7319 2.4843
241 1 48.6253 28.9597 0.561243
256 1 49.5988 30.8289 1.41695
257 1 49.139 30.038 1.6388
176 1 48.8602 32.5356 2.60741
246 1 47.7187 30.2576 0.131155
242 1 48.2517 28.8034 1.41521
243 1 48.0973 29.7456 1.89563
244 1 48.3019 30.5588 1.44036
254 1 50.2556 31.6155 1.06589
177 1 48.0785 33.0657 2.31544
248 1 46.9471 31.4794 0.820761
247 1 46.7641 30.6445 0.388226
249 1 47.8683 31.3581 0.763115
252 1 48.7511 31.4286 1.46965
178 1 48.8286 33.783 2.07755
250 1 48.2535 32.333 0.995513
163 1 46.8388 33.382 3.07465
162 1 47.3017 33.8875 2.42548
161 1 46.8263 33.1289 2.0237
258 1 48.9191 30.8653 2.42628
175 1 49.4141 31.9112 3.24898
8 1 6.45174 35.0373 7.39727
168 1 46.9713 31.611 2.06303
170 1 47.4306 32.2207 2.83026
174 1 49.0379 31.1084 3.82056
179 1 48.682 33.3117 1.23557
5 1 7.01074 33.5445 7.67956
4 1 6.87455 32.5357 7.77861
3 1 6.65902 32.8169 8.67435
2 1 6.4396 33.6604 8.91013
1 1 5.86144 33.4826 8.11175
169 1 47.9635 31.9406 1.9794
167 1 46.9237 31.3271 3.0502
180 1 48.1037 33.4737 0.564694
165 1 47.2059 32.257 3.83973
166 1 46.291 31.9698 3.30004
164 1 47.6684 33.1027 3.50687
173 1 48.4756 31.9177 4.13876
20 1 6.50059 34.6629 10.1459
14 1 7.40222 35.1728 7.82296
18 1 5.93152 35.4661 10.003
19 1 5.56763 34.761 9.72169
172 1 47.7893 31.139 3.95478
171 1 47.9355 31.6822 3.21618
6 1 6.38656 33.9583 7.12607
9 1 6.4536 34.4414 8.10282
13 1 7.69283 34.8211 7.06724
7 1 5.58876 34.4854 7.6076
17 1 6.46429 35.1282 9.15237
10 1 7.15806 34.3629 8.76564
23 1 41.712 8.7387 9.32966
22 1 42.1168 9.59006 9.37981
26 1 40.7704 9.19037 8.22888
29 1 39.7535 8.50814 9.80221
25 1 41.207 9.92888 8.81923
21 1 42.5421 9.17636 10.2051
30 1 38.746 8.20423 9.68227
40 1 40.2349 8.10423 8.94173
39 1 40.4855 7.36655 9.56379
27 1 39.9636 9.74352 8.74321
15 1 6.99178 35.8301 8.50694
16 1 6.13368 35.876 8.77986
12 1 8.24189 33.9224 7.41166
11 1 7.80943 33.9246 8.27797
32 1 39.2754 8.60756 10.7227
38 1 40.9553 8.13432 9.98911
36 1 41.4458 9.26778 10.2284
37 1 40.9153 8.70819 10.8476
24 1 40.8055 9.21242 9.38469
34 1 40.8336 9.86037 11.1338
33 1 39.8682 9.4302 11.1493
35 1 41.0748 10.1538 10.1464
31 1 38.6672 7.84947 10.6082
28 1 39.6339 8.8944 8.76666
290 1 42.7054 47.5666 14.8169
287 1 43.5245 49.1073 14.8767
289 1 43.3727 47.8454 15.4825
288 1 44.0779 48.5763 15.4005
292 1 43.6624 48.6757 13.6792
293 1 44.4263 48.2752 14.336
295 1 44.3787 47.084 14.3417
291 1 43.4368 48.1178 14.4968
300 1 43.1626 46.3669 13.2579
294 1 45.1069 47.6318 14.6173
298 1 42.8351 48.108 13.2404
285 1 43.0888 49.5103 13.3859
286 1 43.8112 49.6554 14.089
284 1 42.2931 49.1295 13.8669
283 1 41.6746 48.5164 13.3373
297 1 43.1497 47.3761 13.7181
296 1 44.057 47.6353 13.5071
282 1 42.0783 47.923 13.9568
299 1 42.678 47.2391 12.8162
281 1 41.6096 47.083 13.517
98 1 50.2047 22.5543 27.3281
83 1 52.6011 24.0485 26.3272
81 1 52.7344 24.3827 25.1369
96 1 50.2946 24.3479 27.7938
97 1 50.5511 23.5186 27.4622
94 1 49.8193 24.1829 28.8339
95 1 50.6862 24.885 28.7691
356 1 52.7403 23.1909 29.6421
355 1 53.4583 23.8582 29.6286
100 1 49.1375 22.5471 27.2245
99 1 49.6301 21.7706 27.1302
357 1 51.8137 22.7622 29.8531
354 1 52.9888 23.8289 28.5829
82 1 53.4331 24.4956 25.836
84 1 52.3396 24.6687 27.1286
347 1 51.5122 23.6903 30.05
346 1 51.4966 23.5929 29.1436
348 1 51.862 23.6524 31.072
85 1 51.5513 24.4272 26.5168
87 1 51.1658 24.0773 28.3147
88 1 52.0894 24.5597 28.3432
86 1 51.3169 24.492 27.511
93 1 49.8594 24.7864 29.5061
89 1 51.7663 24.6508 29.3543
92 1 50.7472 24.7884 29.8598
358 1 51.646 22.2249 29.1561
345 1 50.7074 23.2097 28.7569
360 1 52.1208 23.7056 27.7695
359 1 51.7504 22.9038 28.4001
352 1 53.7459 25.0984 28.9235
353 1 53.2002 24.655 28.297
342 1 49.9538 22.4202 29.1245
344 1 49.7465 23.4124 28.2044
343 1 49.55 22.3969 28.1887
349 1 52.4987 24.0431 30.2895
350 1 52.4178 24.9181 30.0379
351 1 52.8515 24.8009 29.1619
341 1 50.694 22.2289 29.7882
91 1 50.5457 25.6629 29.9939
90 1 51.4097 25.5138 29.4161
457 1 47.3415 43.9033 32.2246
458 1 47.1626 44.497 31.4568
456 1 47.3541 43.0629 31.9398
455 1 46.9583 42.9288 30.9498
402 1 14.5339 1.6057 31.0718
401 1 14.5387 0.524647 31.0097
403 1 15.1626 2.4454 31.525
451 1 46.2814 45.297 29.9249
449 1 46.4007 43.947 29.9117
453 1 47.5696 44.1777 29.921
450 1 45.9177 44.5814 29.3148
452 1 47.092 44.8021 30.2931
459 1 46.4313 43.8009 31.3876
441 1 47.0416 43.7522 29.0024
454 1 47.2191 43.8418 30.6548
461 1 13.8854 59.6868 31.8183
407 1 13.1855 2.35454 32.2746
408 1 13.2453 1.88202 31.495
466 1 15.0197 59.8386 32.7224
409 1 13.3799 1.1137 31.0492
410 1 14.0037 1.2145 31.8847
412 1 15.4223 0.313457 31.9379
464 1 15.5127 58.4185 32.7121
413 1 16.2305 59.9566 32.4817
463 1 14.5691 58.0594 32.5123
405 1 14.7115 2.09082 32.9596
406 1 13.9229 2.01061 32.8014
411 1 15.1088 1.10724 31.7558
414 1 16.6564 0.164688 33.3822
416 1 15.1201 1.02459 32.8167
415 1 15.6696 0.392761 33.4166
404 1 15.6072 2.03315 32.313
50 1 10.8038 25.1216 34.7581
446 1 45.5487 43.3395 29.2723
448 1 45.6962 43.4604 30.3868
460 1 45.9473 44.4512 30.7844
442 1 46.9893 43.1213 29.8462
443 1 46.309 42.5871 30.1279
447 1 45.093 44.034 29.7464
465 1 15.5722 59.2567 33.314
462 1 14.5967 58.9765 32.0732
468 1 14.0971 0.587245 32.919
467 1 14.0772 59.6177 33.0124
469 1 14.505 0.715665 33.8277
478 1 15.6071 1.96849 35.2547
477 1 16.3652 2.47122 34.9513
470 1 14.9637 0.551057 34.6953
417 1 16.1225 1.05376 32.7205
419 1 16.7507 1.07894 33.678
420 1 17.7419 1.20262 33.8961
476 1 15.6126 2.56603 34.3033
475 1 15.8438 2.4969 33.3393
418 1 15.8263 1.49791 33.4126
133 1 17.4695 9.95284 35.835
132 1 16.8725 10.5131 36.3421
52 1 10.052 24.8294 33.9504
51 1 9.78958 25.1788 34.8237
49 1 11.3663 24.9819 33.8823
48 1 11.1347 24.0314 34.5417
43 1 9.38134 21.6272 35.1667
42 1 9.38613 20.7365 34.9659
445 1 46.3256 42.8869 29.0508
444 1 46.0886 41.9764 29.3451
479 1 16.6147 1.74715 35.5653
472 1 16.3526 1.67465 34.3588
480 1 17.3478 2.13912 35.101
471 1 15.8203 1.13251 34.7594
474 1 16.2163 3.29356 33.6236
473 1 16.7407 2.41937 33.9307
322 1 18.6415 8.35291 34.7046
369 1 22.2606 11.433 38.1453
370 1 21.3395 11.2002 37.8903
321 1 18.0143 9.21303 35.0527
137 1 19.8415 10.2626 34.3316
138 1 19.4778 10.7444 35.1076
339 1 20.6263 10.7086 33.6949
340 1 19.5658 10.9887 33.5771
368 1 22.6044 10.7635 37.4459
366 1 21.1384 9.4792 37.2417
500 1 16.9536 8.80868 35.3239
130 1 15.5625 10.5261 37.826
134 1 17.908 10.6882 35.795
140 1 20.0049 10.0798 36.8687
139 1 19.8996 10.4814 35.9326
379 1 23.1557 9.4466 35.9169
378 1 23.0161 10.1158 36.7416
377 1 22.8052 10.5631 35.9094
131 1 16.0211 10.3299 37.1137
380 1 23.3366 8.99752 36.7956
54 1 9.8757 23.8075 34.8999
55 1 9.61412 24.1714 35.9727
53 1 9.26589 24.3386 34.3437
58 1 9.95551 26.4849 35.011
47 1 10.6902 23.1147 34.37
56 1 10.1277 25.0657 35.8642
57 1 9.92035 26.0705 35.9325
46 1 9.86391 23.3486 33.8587
45 1 9.46046 22.6471 34.4042
60 1 9.57487 25.8945 33.8544
59 1 10.494 25.953 34.2667
41 1 9.26547 20.0862 35.7476
44 1 9.17085 22.6321 35.3846
326 1 20.7559 8.60012 33.6918
327 1 20.9602 8.73882 34.727
328 1 19.9113 8.46313 34.7705
338 1 20.9397 10.0083 34.3626
371 1 21.2563 11.5778 36.9786
373 1 20.8979 10.168 36.2751
372 1 20.7978 11.1677 36.2894
374 1 21.8383 10.0728 36.0579
497 1 16.9945 8.64325 36.4835
498 1 16.6802 9.5501 36.67
323 1 18.3459 8.74411 33.8965
136 1 18.9259 9.71223 34.5258
336 1 19.5583 9.18891 35.3813
324 1 19.3801 8.95163 33.7858
325 1 20.2173 9.24009 34.1279
337 1 20.4829 9.64863 35.1468
365 1 21.8186 9.24942 36.781
364 1 22.3925 8.58347 36.1478
335 1 19.2963 9.48181 36.3877
367 1 21.7011 10.1559 37.7165
376 1 21.8242 11.1027 35.7239
375 1 21.8481 10.7768 36.7328
122 1 15.5397 9.4343 36.5435
135 1 18.2454 10.3397 34.8626
499 1 16.4003 9.54223 35.7735
489 1 16.5303 10.3246 38.7873
491 1 16.7294 10.9264 37.7859
331 1 18.7465 9.72265 35.644
332 1 18.9303 10.3505 36.1208
121 1 14.6974 8.79144 36.1054
126 1 13.653 8.84225 37.8148
128 1 14.578 9.17808 39.0121
129 1 15.1456 10.0289 38.5869
488 1 16.7049 9.38542 38.8528
490 1 16.5853 9.95269 37.972
127 1 14.4368 9.43245 38.0907
206 1 16.4224 34.14 40.4299
362 1 20.475 9.25337 36.0991
361 1 20.357 8.51699 35.7136
495 1 17.6796 8.95209 37.2848
496 1 17.8908 8.93361 36.3989
330 1 18.7739 8.63917 35.8167
329 1 19.5013 8.02022 35.4717
363 1 21.4392 9.13583 35.8674
123 1 15.8796 9.36677 37.4432
124 1 15.3143 8.6374 37.7182
494 1 17.452 9.92292 37.5578
492 1 17.0709 11.4917 37.4171
493 1 17.6255 10.8523 37.0403
333 1 18.1931 10.0095 36.7209
334 1 18.7218 9.25645 37.0857
125 1 14.5236 8.70287 37.1977
487 1 15.8502 8.96523 38.6613
481 1 16.4319 8.60649 37.5303
486 1 15.3774 9.19692 39.5456
482 1 16.6384 7.80763 38.0102
483 1 17.054 8.17886 38.8354
184 1 14.0439 31.4192 39.1075
205 1 16.6452 33.8564 41.439
220 1 15.2949 33.2603 39.7849
219 1 15.7799 33.0508 38.9466
191 1 15.4703 30.3189 39.0802
204 1 17.5089 33.1766 41.3414
203 1 17.1387 33.3728 40.6125
207 1 15.7224 34.2644 41.1367
210 1 15.5821 32.0206 40.9608
208 1 15.5346 33.3152 41.058
217 1 16.7972 31.6966 38.3984
209 1 15.3267 32.5545 41.5864
218 1 16.2452 32.1426 38.874
202 1 16.4764 32.8201 40.9783
201 1 16.2191 32.9358 40.1003
485 1 16.2753 8.81771 39.6288
484 1 16.0771 7.99623 39.0895
185 1 14.4371 30.625 38.7467
182 1 15.6823 31.0927 38.3921
183 1 14.9525 31.7065 38.6705
198 1 15.1451 31.1494 39.7644
196 1 14.9095 30.5808 40.9183
181 1 14.9515 31.1122 37.7196
186 1 13.65 30.0195 38.7093
190 1 15.0173 30.0277 39.981
189 1 15.0815 29.0353 39.8276
212 1 15.5163 32.2159 39.8576
214 1 16.9594 32.1141 40.1929
215 1 17.2528 31.7909 39.3853
197 1 14.7366 31.4332 40.6124
211 1 14.883 32.4619 40.4771
216 1 16.5668 31.0054 39.1191
193 1 16.758 30.5494 40.4001
192 1 16.2484 30.0987 39.7177
213 1 16.1389 31.5333 40.0407
199 1 14.21 30.7295 39.9019
200 1 13.22 30.5932 39.5977
188 1 14.8602 28.7561 38.8044
187 1 14.0917 29.2069 39.0133
194 1 16.0168 29.9977 40.7787
195 1 15.8557 30.9178 40.8615
61 1 21.273 0.141002 41.2746
64 1 22.6627 59.1218 40.388
319 1 45.6987 14.2144 44.6375
312 1 45.8737 15.1079 46.037
109 1 59.4804 49.9808 43.0999
62 1 22.1214 0.141361 40.6216
71 1 21.2671 59.447 42.2597
63 1 22.8198 59.8733 39.8667
65 1 22.7907 58.1398 40.2896
228 1 19.2019 3.37354 46.4225
229 1 19.3104 2.55381 47.0253
318 1 45.7663 13.3775 45.0207
317 1 45.1473 13.3153 44.2422
314 1 45.0192 14.671 45.3066
320 1 46.01 15.092 44.4364
316 1 44.5231 14.151 44.3822
310 1 44.5382 14.4071 46.2915
301 1 45.6003 14.1075 45.9428
313 1 45.3287 15.5772 45.396
311 1 44.9121 15.2288 46.4328
106 1 1.23072 48.0292 42.9053
116 1 0.0891355 49.1676 42.1594
117 1 59.3947 48.8774 42.8136
110 1 58.7763 49.67 42.3376
108 1 0.293065 49.5159 43.2566
112 1 58.3182 48.7672 40.8172
111 1 58.7052 48.9267 41.6348
107 1 0.357477 48.5009 43.2443
76 1 23.4078 59.5021 41.8056
68 1 21.0861 59.0016 41.4059
69 1 21.6589 58.5621 42.2641
75 1 22.6803 0.0991765 41.5753
66 1 21.9478 58.4832 40.767
67 1 21.5025 59.2337 40.5025
225 1 20.8675 2.31346 46.5886
72 1 21.4312 59.6081 43.0902
70 1 22.1544 59.2429 41.8337
234 1 19.6012 3.35113 48.3356
227 1 20.1303 3.35795 46.8918
226 1 19.8822 2.55003 46.2248
223 1 20.2948 0.909314 46.0282
222 1 19.4545 1.26507 46.1988
231 1 19.6531 2.10614 47.9801
230 1 18.9825 1.75779 47.2295
221 1 19.7362 1.01637 47.0656
308 1 44.3501 15.3994 44.841
307 1 43.5446 14.7066 44.7872
315 1 44.651 13.761 45.4317
305 1 43.6195 13.9303 46.6483
306 1 43.5324 14.1482 45.6733
309 1 44.0506 15.2471 45.8331
302 1 45.0969 13.2904 46.2079
304 1 43.1697 13.1373 46.0545
303 1 44.1235 13.1324 45.9803
101 1 0.539645 48.0145 41.2366
118 1 59.6055 47.9623 42.5268
104 1 1.0346 48.7245 42.2236
105 1 0.666344 47.7903 42.2579
102 1 1.37092 48.6081 41.1601
115 1 59.9718 49.992 41.6891
114 1 0.224396 49.1801 41.0671
113 1 59.2445 49.243 40.8452
119 1 59.6286 48.3836 41.5775
120 1 59.5557 48.1594 40.6188
103 1 1.06261 49.5079 41.6327
80 1 25.2521 0.171605 41.1888
73 1 22.433 59.5615 42.7711
74 1 21.9891 0.271025 42.3931
77 1 23.7459 59.3867 40.8732
79 1 24.2804 0.312761 40.9484
224 1 20.9625 1.34886 46.633
233 1 19.5022 3.11565 49.1852
232 1 20.2074 2.61772 48.7308
235 1 20.4769 3.17706 47.8994
236 1 20.5773 4.24226 48.0688
274 1 1.55127 20.5087 49.0003
273 1 0.694798 20.1593 49.149
275 1 1.85938 21.2353 48.4975
389 1 0.329572 21.6331 47.8994
383 1 0.112368 22.4119 48.446
384 1 59.5347 22.128 47.7236
388 1 1.26108 21.8439 47.7993
78 1 23.2857 0.0585644 40.7296
239 1 19.134 4.72256 46.4881
240 1 18.4288 5.0547 47.3353
237 1 19.8337 4.33636 47.4507
238 1 18.7892 4.08433 47.2618
263 1 0.2605 18.9749 50.8727
392 1 59.6895 19.1792 48.8652
261 1 0.55802 18.9034 49.8255
270 1 1.52463 20.5458 50.4387
262 1 59.6692 19.1847 50.1094
272 1 0.216996 20.0998 50.0311
271 1 0.802921 20.1669 50.7986
278 1 0.816094 22.682 50.0526
391 1 0.105483 19.7749 48.1988
390 1 0.346547 20.6853 47.7147
276 1 1.05915 21.5057 49.0606
277 1 1.4183 21.947 49.8903
381 1 0.672209 23.3687 48.7034
387 1 1.37141 23.0146 47.9561
382 1 59.7882 23.1906 49.1249
385 1 59.7424 23.1129 47.7045
386 1 0.573053 22.6123 47.5259
266 1 2.00957 19.557 51.9191
267 1 1.32233 20.2843 52.0428
264 1 0.603315 19.5555 51.6613
268 1 1.71751 20.8171 51.3912
265 1 1.51135 19.2123 51.3002
393 1 58.9095 19.8079 49.2184
280 1 59.9572 20.9472 49.3099
269 1 0.9843 21.2951 50.7785
396 1 58.523 20.5722 48.1139
394 1 57.9294 20.0523 48.8715
395 1 57.8891 20.1371 47.7129
279 1 0.375289 21.6712 49.958
398 1 58.1921 21.8097 47.8015
397 1 58.7924 21.0296 47.5136
400 1 58.6363 20.9725 49.1231
399 1 58.8433 21.7226 48.549
157 1 25.7454 12.7551 54.6042
158 1 26.6267 12.5085 54.3332
149 1 27.6417 11.9475 54.0206
160 1 26.1748 13.43 53.4725
159 1 26.7155 13.5045 54.3208
148 1 27.9819 12.4865 54.7246
147 1 28.7472 13.0442 54.3035
155 1 25.9097 12.3201 53.6013
145 1 28.3721 11.4731 53.5669
150 1 27.4354 12.9587 53.9183
156 1 25.5591 11.7207 54.4026
154 1 26.5652 11.5993 53.5431
153 1 27.1574 10.8545 53.3414
144 1 28.7245 11.7506 52.6262
141 1 29.833 12.1347 52.4623
146 1 28.8948 12.083 54.2433
152 1 27.5263 11.628 52.7282
151 1 27.1745 12.3918 53.1863
421 1 41.8989 7.79621 55.9452
142 1 29.1906 12.7781 53.0709
143 1 28.3341 12.4562 53.1736
423 1 42.6375 7.27609 55.2439
422 1 42.8008 7.62733 56.1641
438 1 43.883 4.50445 54.728
439 1 44.1856 5.52031 54.45
440 1 45.0099 5.70135 53.9774
437 1 44.5932 4.70366 55.4904
424 1 42.78 6.19293 55.4991
425 1 43.3102 5.36172 55.3192
428 1 43.0379 5.27498 56.5308
427 1 43.5066 4.56103 56.0078
435 1 45.1042 5.49254 56.262
434 1 45.1037 6.44153 56.5873
433 1 44.7051 6.99837 55.8021
431 1 43.6613 6.66709 55.0592
426 1 44.0289 5.42144 56.0433
430 1 43.7009 6.44503 56.0861
429 1 43.2535 6.26147 56.8367
436 1 45.297 4.54095 56.2475
ITEM: TIMESTEP
23000
ITEM: NUMBER OF ATOMS
500
ITEM: BOX BOUNDS pp pp pp
0.0000000000000000e+00 6.0000000000000000e+01
0.0000000000000000e+00 6.0000000000000000e+01
0.0000000000000000e+00 6.0000000000000000e+01
ITEM: ATOMS id type x y z
245 1 50.0027 29.1068 0.0933331
242 1 48.2796 28.6865 0.899437
241 1 47.8996 28.8102 1.90985
247 1 49.0935 29.701 59.4875
246 1 49.9914 29.2946 59.1802
249 1 47.8908 30.7236 58.696
248 1 48.6469 30.3049 59.107
250 1 48.7029 31.3193 58.4304
255 1 50.6463 30.3599 59.6614
251 1 49.3131 30.5229 58.1495
254 1 50.6129 31.1039 59.1996
180 1 46.8738 32.4096 58.9066
179 1 47.2282 32.4821 59.9043
243 1 49.2383 28.4047 0.777262
260 1 48.1903 29.7485 0.0999719
259 1 49.0383 29.3569 0.58568
244 1 49.2168 28.4422 59.6583
256 1 49.8299 30.1252 0.307576
257 1 49.8634 30.0175 1.31218
252 1 49.6959 30.5248 59.0225
258 1 49.02 29.3292 1.49729
168 1 47.0676 30.0345 0.348155
170 1 47.8044 30.548 59.7003
169 1 46.915 30.3332 59.4351
253 1 49.7795 31.1376 59.8643
176 1 48.9039 31.9289 59.2727
161 1 46.339 31.134 59.053
177 1 48.142 31.7501 59.3449
162 1 45.464 31.4243 59.3753
178 1 47.1885 31.4441 59.806
167 1 46.4701 30.5015 0.853775
172 1 48.8936 30.4446 0.981503
174 1 48.1039 31.5848 0.372506
166 1 47.0049 31.1935 1.14339
165 1 46.9377 32.0549 0.978676
173 1 48.0154 30.5349 0.801334
171 1 48.8011 30.8335 59.9908
175 1 48.9385 32.0162 0.237673
163 1 46.2845 31.955 59.661
164 1 46.0383 32.2078 0.528312
6 1 1.93093 35.2184 11.5538
13 1 4.29113 35.143 9.51148
26 1 41.7627 9.77929 9.44997
4 1 2.97564 36.2481 10.1681
5 1 2.66454 35.5703 10.7547
1 1 3.00188 34.6656 9.72323
12 1 3.5774 35.3346 10.2692
11 1 4.60641 35.3582 10.6537
7 1 2.42716 35.6377 12.1379
8 1 3.24105 35.4877 11.5948
9 1 3.24064 34.5033 11.4387
14 1 5.1765 35.4783 9.08718
15 1 4.35646 36.0941 8.91644
29 1 40.9537 8.40901 10.5447
30 1 41.1532 8.99522 11.2954
40 1 39.194 7.79814 12.6443
39 1 39.3575 8.65581 12.1976
28 1 41.7029 7.9684 10.0609
25 1 40.9573 9.20509 9.61566
27 1 41.8708 8.80109 9.46777
24 1 40.4011 8.57111 9.16093
23 1 39.8833 8.8347 9.93025
22 1 39.5055 8.20648 10.5005
3 1 3.15668 35.7063 9.26213
2 1 2.85655 34.9623 8.76825
19 1 2.18338 36.4801 10.9415
17 1 3.96659 36.2073 10.7213
10 1 4.13342 34.7939 11.3786
16 1 4.00563 36.3743 9.66597
32 1 42.5729 8.88489 10.4369
31 1 41.8018 9.55218 10.5971
38 1 40.3045 9.1452 12.5492
33 1 42.8188 8.02199 10.8529
37 1 40.3376 8.24417 12.2252
34 1 41.9802 8.18369 11.3306
21 1 40.1604 8.62717 11.1722
36 1 40.2005 7.46649 11.6325
35 1 41.0719 7.84279 11.4325
20 1 1.41039 36.8095 11.563
18 1 3.21145 36.4482 11.1719
299 1 42.2813 47.8924 15.14
281 1 42.4019 48.2612 16.3085
300 1 42.7761 47.2823 15.7639
298 1 43.111 47.5185 14.6068
283 1 43.1493 48.419 15.0341
282 1 42.4953 48.9211 15.5736
297 1 43.6867 48.14 13.9116
296 1 43.2507 47.5404 13.469
284 1 42.4675 48.6556 14.3817
292 1 42.8417 49.3461 13.5186
285 1 42.0545 48.2195 13.7469
286 1 42.0764 48.7029 12.7863
295 1 44.0836 47.5105 12.9495
290 1 44.1789 49.4414 12.4555
289 1 43.3172 49.8246 12.289
288 1 42.9075 48.8836 12.1741
291 1 43.7466 49.3377 13.3867
293 1 43.0607 48.4666 13.1851
294 1 43.9215 48.4487 12.6615
287 1 42.2011 49.5083 12.3981
81 1 48.115 23.2032 26.6182
83 1 48.0744 22.0707 28.0418
84 1 47.9442 23.1816 27.8283
85 1 47.995 24.1493 28.1153
82 1 48.3397 22.2999 27.1114
100 1 49.0359 23.0342 27.1774
99 1 49.5265 22.1635 27.075
343 1 50.9597 22.1561 28.642
98 1 49.1011 22.3639 27.9284
344 1 50.6427 21.6372 29.4646
97 1 49.818 23.0274 28.221
87 1 49.5299 24.0017 28.8443
360 1 48.5759 24.3613 27.3963
359 1 49.2392 25.0831 27.633
96 1 48.9618 23.3701 28.1687
86 1 48.8629 24.5379 28.3797
88 1 49.9277 24.8032 29.2391
353 1 52.1202 23.3042 29.9135
342 1 51.0261 22.6074 29.5557
341 1 50.0437 22.8016 29.2101
357 1 49.6784 23.8919 27.6363
358 1 50.0033 24.6309 28.1978
94 1 48.6954 21.7751 29.2595
345 1 49.6922 21.7895 29.3539
356 1 50.6133 23.6735 27.9585
346 1 49.949 22.1739 30.2659
355 1 50.6097 23.6441 28.7701
354 1 51.2336 23.6154 29.5916
93 1 48.6635 21.992 30.2908
95 1 48.6599 22.7195 28.8813
92 1 49.1284 22.9336 29.9276
91 1 49.1158 24.0381 29.7449
90 1 50.1171 23.8018 29.8148
89 1 50.6468 24.5727 30.0136
352 1 51.9049 22.3279 30.0064
351 1 51.0022 21.9259 30.3672
444 1 49.9448 45.0087 30.9677
446 1 49.2341 45.4639 29.5559
447 1 49.7389 45.5651 28.6941
449 1 51.1014 44.3372 29.2063
441 1 50.333 44.7013 29.907
442 1 51.1267 45.3282 30.0867
445 1 49.2094 45.0557 30.4667
453 1 49.4556 42.9462 28.3799
451 1 50.0751 44.4677 28.9337
450 1 50.6963 44.2699 28.2859
409 1 13.1695 59.224 32.2485
401 1 13.562 2.26559 32.1094
402 1 14.4654 1.71253 31.975
347 1 49.6862 22.6227 31.0446
348 1 50.3677 23.3836 31.31
349 1 50.7572 22.4506 31.5573
350 1 51.3089 22.758 30.8776
443 1 50.6494 45.6402 30.9441
448 1 50.7027 45.2858 28.9252
455 1 49.7563 43.9936 27.996
459 1 49.3334 43.952 30.7743
454 1 49.449 43.3359 27.3292
452 1 50.136 43.4289 28.8794
460 1 49.837 43.4866 30.24
410 1 12.6727 58.4908 32.7921
412 1 12.8911 57.3485 33.7785
411 1 12.628 57.4822 33.0108
416 1 14.4031 0.272235 33.4073
417 1 14.8514 59.8561 32.574
407 1 13.5626 1.16609 32.5693
408 1 13.3547 0.216652 32.2297
406 1 13.7369 1.67401 33.3733
403 1 14.475 2.33204 32.8431
404 1 14.7677 1.93893 33.7531
457 1 49.0269 43.5157 29.3029
456 1 48.9767 44.1802 28.496
458 1 49.4083 44.2583 29.8353
464 1 11.8971 59.7108 34.1187
463 1 12.5607 0.459784 33.8881
461 1 12.289 0.666305 32.8555
466 1 12.6312 59.2609 33.6774
462 1 12.9286 1.04046 33.3986
413 1 12.7387 58.3363 34.2179
468 1 13.8489 0.0266777 34.3388
415 1 14.3283 59.2094 33.6029
469 1 14.6267 0.662681 34.394
414 1 13.5595 58.634 33.8337
419 1 15.5843 0.259098 31.4595
420 1 16.0917 59.8157 32.1115
405 1 14.5179 1.28769 32.9853
475 1 15.7953 2.1229 32.9474
418 1 14.8363 0.716052 31.9653
473 1 15.7634 1.15509 32.5194
474 1 15.5207 2.00236 32.1282
323 1 18.3458 10.0119 34.7413
324 1 17.7423 10.6353 35.1708
326 1 18.7541 10.906 34.6878
325 1 17.8449 11.3882 34.5764
340 1 20.0661 11.259 36.1126
339 1 19.1181 11.5688 35.5613
46 1 10.5092 24.2345 34.7213
52 1 11.8753 23.9021 34.2268
49 1 11.4558 22.9868 34.7154
60 1 13.203 23.2574 35.6229
59 1 13.8811 23.8301 35.2096
467 1 13.3102 59.952 33.4205
465 1 12.7401 59.402 34.6626
470 1 15.4825 0.167053 34.082
471 1 16.2404 0.416196 33.5559
478 1 16.43 1.30368 34.3529
476 1 16.4121 1.55922 33.2411
477 1 15.6753 1.40595 33.8275
479 1 16.1818 0.688672 34.9632
472 1 15.4379 0.442601 33.1241
480 1 15.2516 1.02882 35.3358
322 1 17.6594 10.4158 34.1459
328 1 19.4101 9.50757 34.7595
329 1 18.6022 9.03869 35.1324
361 1 19.5164 9.08402 35.662
500 1 17.0227 8.45341 35.5571
321 1 17.123 9.98794 34.6071
136 1 16.214 10.9042 34.9168
336 1 18.7362 10.4469 35.8362
331 1 17.527 9.18758 36.3717
327 1 19.4268 10.4785 34.6421
337 1 17.9973 11.2188 35.9169
135 1 16.9892 10.8773 35.8261
137 1 16.9533 11.6084 35.1404
138 1 17.5248 12.1274 35.7081
338 1 18.6892 11.5286 36.4685
42 1 10.289 26.022 35.9835
43 1 10.2292 26.6308 35.1848
45 1 10.8213 25.0497 34.3678
44 1 10.8435 25.9535 34.4939
54 1 12.7635 24.232 35.2385
48 1 11.4897 23.8464 35.2275
47 1 10.8632 24.6606 35.4959
51 1 12.8244 23.4258 34.5414
53 1 12.1043 24.6903 34.7898
50 1 12.3622 22.82 35.1145
58 1 13.4367 24.1266 36.058
122 1 16.3518 7.07318 36.1843
121 1 15.8828 8.05431 36.0848
497 1 18.9892 8.27783 36.49
498 1 18.1694 8.16338 36.0312
499 1 17.2689 7.66953 35.8085
133 1 16.2166 8.99139 36.046
496 1 18.589 7.37468 36.6628
335 1 17.9136 10.2278 36.3764
330 1 17.7893 9.37866 35.4306
334 1 18.5711 9.43175 36.4344
362 1 19.8204 9.95779 35.7336
363 1 20.593 10.1588 35.2078
365 1 20.7438 9.95568 36.2776
364 1 20.8843 9.33903 35.4746
379 1 20.2835 11.1298 38.1262
380 1 20.2039 11.8394 37.2933
132 1 16.6619 8.68159 36.9179
131 1 17.5197 8.21931 36.848
134 1 16.9781 9.89229 36.037
493 1 17.5594 7.66932 38.0662
333 1 18.2432 8.91962 37.1602
140 1 18.8394 12.6198 36.1977
139 1 17.9198 12.3368 36.4712
332 1 17.4517 9.28918 37.4015
373 1 19.3973 10.0948 36.6511
372 1 19.38 9.18429 37.1027
377 1 20.6296 9.26492 38.5606
374 1 19.4306 10.8508 37.183
376 1 20.1848 9.65951 37.7536
375 1 19.5787 10.2932 38.1301
378 1 20.5688 10.2579 38.5871
371 1 19.9897 8.42374 36.9315
41 1 11.0655 25.7963 35.4825
55 1 12.1789 24.329 36.1066
56 1 12.203 23.2803 36.0754
57 1 12.9169 23.4363 36.7081
482 1 18.1637 6.56373 37.0684
126 1 15.3765 7.34233 36.7705
127 1 15.0515 7.22592 37.6006
124 1 15.4905 7.03976 35.4484
125 1 15.0057 6.68215 36.1114
490 1 16.6483 7.62498 38.9536
123 1 16.2708 7.66337 35.2189
481 1 18.3576 6.69488 38.008
495 1 18.5661 7.69354 37.6782
494 1 18.191 8.54351 38.2088
366 1 20.4454 10.5278 37.2107
130 1 16.8796 7.6944 37.3026
491 1 17.3102 8.36869 38.9855
370 1 20.4885 8.69323 37.6837
369 1 21.36 9.08559 37.7523
368 1 21.3598 10.0079 37.1115
367 1 21.2773 10.8422 36.7738
492 1 17.0913 8.57719 38.0606
182 1 16.7372 33.1868 39.5302
181 1 16.2583 33.2135 40.3803
217 1 18.0582 32.1363 42.015
483 1 17.4112 6.33329 37.6417
484 1 16.5787 5.99726 37.0102
128 1 15.6863 7.26008 38.2999
129 1 15.9414 7.81524 37.5919
486 1 15.2741 6.07409 37.6126
488 1 16.1538 6.82944 37.4401
487 1 15.9625 6.37784 38.1904
485 1 15.6143 6.03544 36.8161
489 1 16.7951 7.0427 38.2102
187 1 14.3144 33.3509 39.1241
189 1 14.7463 33.0966 40.8536
188 1 14.0178 33.174 40.053
186 1 15.0853 33.0706 39.7777
199 1 16.0901 31.9883 41.6814
200 1 15.1307 32.4294 41.636
191 1 15.1984 32.0546 39.79
185 1 15.6349 32.5331 40.5784
198 1 16.9231 31.3993 41.3611
190 1 14.5944 32.116 40.5835
216 1 18.6191 32.5488 41.1875
192 1 15.0838 31.0241 40.0916
184 1 16.5178 32.1139 40.7446
183 1 17.059 32.2402 39.7965
212 1 17.5153 32.3057 41.0003
218 1 18.2078 31.1725 41.9175
213 1 17.6756 33.2541 41.304
215 1 18.552 32.2055 40.2222
220 1 18.4592 30.6667 42.9371
219 1 17.6574 31.2369 42.654
63 1 21.2085 59.4386 37.4043
61 1 21.9678 0.850962 38.649
62 1 21.1879 0.412524 37.8943
79 1 22.9531 59.4105 37.0394
78 1 21.9674 59.7078 36.7382
80 1 23.5892 59.2312 37.8114
196 1 17.4785 30.3034 40.161
197 1 16.8662 30.6096 40.9041
193 1 15.7674 31.451 40.7392
194 1 16.4122 31.4218 40.0719
195 1 17.3614 31.2742 39.9876
210 1 18.1884 30.3391 41.0952
211 1 17.9389 31.4088 40.8559
202 1 19.488 30.8474 40.1776
214 1 17.9027 32.9183 40.3028
208 1 19.5593 29.6179 41.7852
206 1 19.2079 30.6792 41.8748
205 1 20.125 30.5725 41.7745
207 1 19.3775 30.2543 42.5978
201 1 18.4505 30.8636 40.1168
204 1 20.3424 30.6508 40.812
203 1 19.8475 29.9046 40.2743
101 1 57.7985 49.7111 40.2987
120 1 58.3556 47.4512 40.2632
102 1 58.0341 48.9755 40.9853
114 1 58.8005 50.11 39.8737
112 1 58.7767 48.849 40.2299
113 1 58.9587 49.6497 40.8054
65 1 21.6656 58.9771 38.1955
66 1 22.5238 58.738 38.2917
68 1 21.752 58.6167 39.9099
64 1 22.0111 58.7139 37.23
67 1 22.5955 58.5968 39.2134
77 1 21.9946 0.534801 37.0912
75 1 22.4415 59.823 38.7979
74 1 23.4671 59.5888 38.874
209 1 19.1294 30.0411 41.025
105 1 58.7132 48.4595 38.8843
118 1 59.6395 48.1464 39.1122
119 1 59.2204 47.9697 40.0102
116 1 59.6323 49.1696 39.5204
104 1 58.0263 48.9892 39.4456
103 1 57.7017 48.4487 40.2847
117 1 0.431343 48.833 39.1614
110 1 0.191427 49.3029 40.4083
111 1 59.5713 48.6292 40.7288
115 1 58.9331 49.4716 39.05
69 1 22.4648 59.1896 40.2232
71 1 22.8083 58.1375 40.5825
70 1 22.0914 58.6463 40.9307
73 1 23.5327 58.6749 39.096
76 1 22.2164 0.0291321 37.8124
317 1 44.6848 16.1069 46.2645
106 1 59.3111 48.1497 38.0731
107 1 59.4687 49.1621 38.2443
108 1 0.125357 49.8575 38.8298
109 1 0.658759 49.7776 39.6973
72 1 23.3399 58.6166 40.0412
306 1 43.2398 16.1667 45.4202
319 1 45.4928 15.3617 47.0785
316 1 44.0993 16.8806 46.4232
315 1 43.5956 15.9615 46.5041
318 1 45.1122 16.2322 47.1976
307 1 43.0807 16.9235 45.9532
314 1 43.9909 15.9712 47.3684
313 1 43.7249 16.2003 48.265
308 1 42.4607 16.4828 46.5478
320 1 44.5222 15.0618 47.1658
222 1 20.6463 2.00494 49.168
221 1 20.6657 1.08101 49.1629
223 1 21.2707 1.8746 48.5781
224 1 21.6368 2.21923 47.7873
229 1 20.0291 3.33141 47.7512
226 1 21.2672 3.43037 48.0884
225 1 21.0088 2.71811 47.4333
228 1 20.2614 2.42085 48.0776
227 1 20.5845 3.0989 48.7164
239 1 21.0657 4.08371 49.0767
305 1 42.8098 15.3797 45.9033
304 1 41.9637 14.9268 45.6972
303 1 41.7779 15.4514 46.4603
301 1 43.398 14.8628 46.865
302 1 42.4027 14.7859 47.0396
309 1 42.8124 15.9056 47.3273
310 1 42.8759 15.6491 48.259
311 1 43.6155 14.9546 48.0337
312 1 44.4036 15.4619 48.2074
231 1 19.485 4.13602 48.5269
230 1 20.3656 4.27616 48.2539
234 1 19.2951 3.40444 49.7553
238 1 21.4923 3.30752 49.5352
235 1 19.2661 4.49595 49.7616
236 1 20.023 4.03112 49.4336
240 1 22.0357 4.46065 48.8523
237 1 20.5025 3.15673 49.8963
391 1 3.44127 19.0336 49.2737
390 1 2.8339 19.9611 48.9575
275 1 1.01365 18.915 50.1691
396 1 2.25006 18.6928 49.932
395 1 2.89234 17.8846 50.106
397 1 1.55522 18.0763 49.7662
389 1 1.98482 20.0478 48.6378
383 1 1.59701 22.633 49.868
388 1 1.68127 20.8134 48.8549
386 1 2.46837 21.8004 49.3891
398 1 0.687541 18.2698 49.1933
384 1 2.09529 23.2291 49.1227
399 1 1.48847 17.8868 48.6626
387 1 2.67513 21.0336 48.7626
385 1 2.70734 22.7415 49.7705
232 1 19.5413 3.15583 48.8091
233 1 19.1519 2.39103 49.344
261 1 59.9466 19.9211 53.067
392 1 3.94622 18.7365 50.1062
393 1 3.85555 17.9035 49.4844
273 1 1.79171 19.8707 49.7113
274 1 1.16514 19.2915 49.2252
394 1 2.96113 17.4175 49.1926
280 1 58.9282 19.7969 52.3731
400 1 1.50525 18.8802 48.3384
276 1 0.677891 19.8812 50.4263
277 1 0.504613 20.807 50.3034
279 1 59.0481 20.1967 51.5188
381 1 1.34387 22.2636 51.1207
382 1 1.64294 21.8841 50.4816
263 1 0.682705 20.7286 51.9279
265 1 1.10999 21.9161 52.0258
262 1 0.654295 20.6884 53.0151
272 1 2.28215 20.4657 50.1934
271 1 2.6859 19.5906 50.6094
269 1 1.41279 20.5152 50.8037
270 1 2.02031 19.8486 51.3323
278 1 59.863 20.3789 51.1056
152 1 29.3417 13.3943 54.2652
144 1 27.9876 12.49 53.319
141 1 28.6056 11.2604 53.2141
264 1 0.207211 21.5624 51.736
266 1 1.49495 21.307 52.7148
267 1 1.7021 20.8724 51.9798
268 1 2.25998 20.8914 51.2427
440 1 42.2465 9.45961 53.608
153 1 29.6937 12.9796 55.1797
155 1 29.5986 11.3508 55.8381
154 1 29.3203 11.9838 54.9341
149 1 29.8596 12.1656 53.3027
145 1 27.7486 12.4786 54.3404
151 1 29.2389 13.2415 53.3121
143 1 28.8724 12.2573 52.9053
146 1 28.5197 12.6656 54.9313
142 1 29.4038 11.4361 52.591
160 1 30.3886 12.0702 55.2602
150 1 30.2282 13.0519 53.6446
147 1 28.8178 12.4107 54.0304
438 1 42.2817 9.61975 52.2183
439 1 42.8354 9.34743 52.8485
425 1 42.5074 10.4063 52.755
437 1 43.0541 9.5986 51.5631
424 1 41.3558 10.3863 52.4347
431 1 42.6156 11.5698 53.4348
432 1 43.5503 11.869 53.4014
423 1 41.3921 10.1828 53.3625
156 1 29.8834 11.0167 54.9991
157 1 30.9277 11.0853 54.9023
158 1 30.5653 11.5133 54.1588
148 1 29.4142 11.5998 53.906
159 1 30.0151 12.3696 54.3756
428 1 43.5385 9.69905 53.6367
427 1 43.8479 9.82315 52.789
426 1 43.4422 10.8516 53.0099
435 1 42.3919 11.3928 52.1219
436 1 43.2406 10.629 51.8787
430 1 43.0525 10.8574 54.0036
429 1 42.8577 9.97508 54.3273
434 1 43.1478 11.8799 52.4207
433 1 42.8404 12.5101 53.1401
421 1 41.7311 10.1011 54.2662
422 1 41.8829 10.923 53.7261
ITEM: TIMESTEP
24000
ITEM: NUMBER OF ATOMS
500
ITEM: BOX BOUNDS pp pp pp
0.0000000000000000e+00 6.0000000000000000e+01
0.0000000000000000e+00 6.0000000000000000e+01
0.0000000000000000e+00 6.0000000000000000e+01
ITEM: ATOMS id type x y z
243 1 49.0692 27.8048 59.1883
242 1 49.3805 28.7009 59.6234
260 1 49.0417 28.5302 58.2248
259 1 48.3055 29.151 58.4262
245 1 50.1373 28.7336 58.4652
168 1 46.7014 29.2141 58.9494
167 1 46.3688 28.3869 58.3592
166 1 45.5739 28.9678 58.7097
173 1 46.9252 30.2211 58.9187
256 1 49.0329 30.9434 58.5001
257 1 49.1837 30.2842 59.2564
172 1 47.6798 30.9174 59.0804
171 1 48.1057 30.1712 58.7402
165 1 46.1408 29.6758 58.1707
164 1 46.6715 29.8334 57.242
174 1 47.2788 30.28 57.922
175 1 48.2476 30.7683 57.6591
241 1 50.5325 28.7959 59.4634
258 1 49.0158 29.7479 58.5417
24 1 42.4801 7.65727 10.6554
23 1 42.1031 6.8282 10.25
25 1 42.4909 8.68575 10.4807
26 1 42.7255 8.38567 11.4243
27 1 41.8481 8.75974 11.3209
2 1 58.7487 35.9968 12.7231
1 1 57.958 35.6321 12.3622
3 1 59.0317 36.0954 11.7391
13 1 0.177354 36.8437 13.9518
14 1 0.842837 37.3221 13.3027
16 1 1.11051 37.0442 12.0423
15 1 0.997807 37.8093 12.6053
22 1 41.7174 6.44346 11.0719
29 1 40.6882 8.69803 10.9152
28 1 41.0038 8.43245 11.7632
33 1 39.0353 8.22633 13.3085
34 1 39.6702 8.90124 13.0931
30 1 39.8568 8.31052 11.4902
21 1 41.6012 7.32998 11.0143
32 1 38.8333 8.49699 12.4387
31 1 39.5034 9.00258 12.0486
5 1 59.7429 37.0029 11.8134
12 1 59.5053 36.5982 13.1777
10 1 59.4198 37.6457 13.5036
11 1 58.9352 37.1898 12.7965
19 1 0.725951 35.3427 11.4998
4 1 59.9464 35.984 12.0301
17 1 0.479116 36.5677 12.7092
18 1 0.804393 35.6893 12.4113
40 1 42.4746 8.81935 12.404
37 1 41.922 8.15497 13.0354
36 1 40.9646 8.31885 12.934
35 1 40.0224 8.19106 12.5727
39 1 43.2652 8.40794 12.7299
38 1 42.6836 7.7564 13.3115
6 1 59.865 37.7582 12.4625
7 1 0.463866 38.4358 12.0784
8 1 0.365362 39.1228 12.7587
9 1 0.115265 38.3607 13.1861
20 1 0.785573 34.4121 11.8554
294 1 42.6409 47.7844 12.9589
286 1 42.848 49.994 13.7353
287 1 42.4215 50.101 14.5716
290 1 42.8501 48.3907 14.8525
289 1 43.1772 49.3194 14.557
288 1 42.2482 49.3031 14.269
285 1 41.8303 50.0181 13.6022
297 1 43.6026 48.4566 13.0112
296 1 43.5613 48.3433 14.0455
295 1 42.826 47.6234 13.7858
293 1 41.9983 48.5362 13.4127
292 1 41.9196 48.1536 14.2898
291 1 41.9042 48.4525 15.3101
299 1 43.8246 49.2952 13.6015
298 1 42.9273 48.8444 13.5277
283 1 42.6096 48.8125 12.4554
282 1 42.8617 49.471 11.8002
284 1 42.4082 49.7264 12.7767
281 1 42.9439 48.7341 11.3601
300 1 43.5476 49.7499 12.8782
82 1 45.7594 21.1151 30.1984
99 1 48.7634 23.2677 26.861
81 1 46.6381 20.898 29.7184
83 1 46.2501 21.1587 31.0447
98 1 48.5119 22.4397 26.3594
84 1 46.5722 21.8976 30.4834
85 1 45.8861 22.1744 30.9748
100 1 48.5834 22.7873 27.8204
97 1 48.6276 21.7887 27.1391
96 1 48.1034 21.9483 27.9895
357 1 47.6212 23.1365 29.4045
356 1 47.0922 23.0022 30.1562
360 1 47.7927 24.0492 27.5023
359 1 48.0798 23.9744 28.5029
86 1 46.0093 22.8942 30.1553
358 1 47.3576 23.4474 28.5654
453 1 54.2146 46.5718 28.007
455 1 52.8059 47.4893 28.0638
454 1 53.4266 47.0546 27.5048
456 1 52.395 46.6396 27.7431
450 1 53.8735 45.3815 28.9843
94 1 48.1268 21.1998 28.8555
345 1 49.3877 21.1131 28.9434
95 1 47.5172 21.1315 28.1809
343 1 48.2607 22.4433 28.9087
344 1 48.9988 21.9208 29.4398
342 1 49.1544 22.0344 28.382
341 1 49.6501 22.4241 27.5395
87 1 46.3011 23.2965 31.1783
92 1 47.5788 21.2758 30.0493
91 1 47.8309 22.1952 29.8684
355 1 46.7736 23.7862 29.9899
354 1 47.4457 24.1224 29.5873
90 1 48.0574 22.4687 30.8125
353 1 48.0225 23.7686 30.2065
88 1 47.2724 23.6099 31.2574
457 1 52.8065 46.4691 28.5611
458 1 53.0012 45.5565 28.3106
452 1 53.8063 46.5631 28.9362
446 1 53.869 42.1651 29.0222
447 1 53.9097 43.1323 28.7726
449 1 53.9008 44.4195 28.9514
441 1 53.0169 44.1716 27.9184
451 1 53.2187 45.9343 29.4122
448 1 53.7224 43.6204 29.5957
346 1 50.339 21.0607 28.8428
93 1 48.4167 20.8836 29.6375
347 1 50.1976 21.6914 29.5804
351 1 49.3866 23.1112 30.6676
350 1 49.7058 22.5074 29.9462
352 1 48.7506 23.1377 29.8966
348 1 49.7026 21.2036 30.272
89 1 47.1571 22.647 31.2018
459 1 53.136 46.0171 27.4122
460 1 53.6409 46.459 26.6325
444 1 52.6545 43.3587 29.0022
445 1 52.7912 42.4658 29.1436
442 1 52.0557 43.9955 28.1784
443 1 52.553 44.3612 28.9408
407 1 11.3648 59.9676 32.4905
408 1 11.7176 59.1859 32.8803
419 1 12.0171 59.2894 31.8811
418 1 12.8924 58.8201 31.876
473 1 14.5881 58.7493 33.0383
401 1 14.3279 1.74034 33.4721
402 1 13.6333 1.16042 33.3239
403 1 13.7211 0.568389 33.9048
474 1 14.2408 59.3517 32.2564
349 1 49.8606 22.1542 30.6781
410 1 12.3275 58.1725 32.8588
409 1 12.6545 59.0797 32.9235
417 1 13.3174 58.2027 32.4792
420 1 11.5224 59.6755 31.0422
463 1 12.3831 1.19883 35.1359
461 1 12.7267 1.37863 34.1146
462 1 11.9747 0.642518 34.4192
416 1 13.5522 58.6516 33.3516
405 1 12.5541 0.502846 32.8791
470 1 13.9301 59.4782 33.7821
477 1 14.6893 0.297113 32.8784
472 1 15.1409 58.6207 33.7558
471 1 14.8303 59.6991 33.9256
406 1 11.8858 0.232034 33.4218
404 1 12.9694 0.0308982 33.6077
475 1 13.4935 0.015416 32.7341
476 1 14.0585 0.563462 32.1697
322 1 15.6876 9.86257 35.6635
52 1 12.4985 24.8537 35.9527
411 1 11.3653 58.212 32.7424
413 1 12.0382 58.5597 33.7404
412 1 11.5137 57.6311 33.6587
464 1 13.3484 1.46716 34.8318
466 1 13.1265 0.149636 35.6634
414 1 12.2216 59.4187 34.1898
467 1 13.5733 59.36 35.0718
415 1 13.0805 58.9112 34.2207
468 1 14.4696 59.1413 34.9066
469 1 14.0478 58.6332 34.3004
480 1 15.4553 0.746928 34.5348
478 1 15.0349 0.867664 33.6195
479 1 15.6713 0.220235 33.7568
124 1 16.6856 5.19543 34.8238
500 1 17.6164 9.91755 34.7569
123 1 17.5414 5.69932 34.6979
321 1 16.1661 9.52914 36.5423
330 1 17.1262 10.0286 35.9513
328 1 17.0196 11.1212 36.3561
329 1 17.9762 10.4832 36.3349
361 1 18.0071 11.4584 36.6701
364 1 19.322 10.6092 37.1325
136 1 16.7125 9.68794 37.3548
323 1 15.0213 9.34913 36.1496
324 1 14.6989 10.2249 36.6054
325 1 15.365 10.881 37.1238
326 1 16.3087 10.6728 37.0379
327 1 16.0212 11.1625 36.3068
363 1 19.0194 10.7297 36.1338
137 1 15.9908 9.96046 37.8701
138 1 15.116 9.80319 38.3892
339 1 16.8739 11.3717 38.6995
50 1 13.7477 24.5025 36.3566
46 1 14.1099 26.5047 34.7272
49 1 14.241 24.1316 35.5063
54 1 11.9122 23.8761 35.5888
48 1 14.6765 25.0553 35.4102
51 1 13.4342 25.0732 35.5441
60 1 12.9475 21.7433 35.6625
59 1 12.8737 22.0263 36.5026
45 1 14.4975 26.6713 35.5963
47 1 14.7671 25.8007 34.6678
53 1 12.7705 23.9397 36.1362
43 1 16.2373 26.9947 35.5673
44 1 15.3435 26.7596 35.1692
41 1 15.3278 26.522 36.1711
465 1 13.2176 0.471557 34.7185
77 1 22.6186 58.8332 36.0727
125 1 16.2952 4.69084 35.4784
485 1 19.039 4.5182 35.5111
122 1 16.927 6.48572 34.7592
484 1 18.7981 5.46425 35.2219
482 1 18.0466 6.772 34.4367
126 1 15.4976 5.22539 35.7795
121 1 16.0041 6.13834 34.8214
498 1 18.3134 9.37105 35.8956
499 1 17.6119 9.0722 35.1494
131 1 16.7246 7.61544 34.5823
497 1 19.2436 9.63358 36.1829
496 1 19.411 8.68667 35.7664
371 1 20.0443 8.69856 38.0609
133 1 16.2768 9.07175 35.4133
132 1 16.9891 8.29988 35.214
134 1 16.0483 8.28328 36.0985
331 1 17.2453 9.17152 36.4861
334 1 18.2787 9.55424 36.9248
362 1 18.3799 11.3581 35.9171
372 1 19.8068 7.72764 38.3027
365 1 18.9269 11.2324 37.6731
135 1 16.3625 8.67094 36.9902
337 1 17.8973 11.514 38.0932
335 1 18.3289 10.3601 37.4784
336 1 17.4191 10.7082 37.4556
373 1 19.0058 7.64105 37.586
340 1 16.6144 10.8801 37.9834
368 1 18.5362 9.76471 38.377
367 1 19.6237 9.70435 38.4465
139 1 14.2928 10.0718 38.9889
338 1 17.7127 10.7295 38.5288
140 1 13.3249 9.59149 38.7422
56 1 13.1676 22.7933 35.7984
58 1 11.9749 22.1675 36.1593
57 1 12.393 22.9516 36.3929
55 1 12.285 23.1088 35.3139
42 1 15.7717 27.3463 36.3927
78 1 22.3805 58.2701 35.2751
79 1 21.5168 58.2112 35.6659
62 1 21.9016 59.1083 34.4292
76 1 23.0814 59.6817 36.2569
486 1 18.4577 4.50179 36.2459
488 1 17.6837 5.63715 36.361
487 1 17.9442 5.08423 35.6474
489 1 18.6665 5.90401 36.5316
481 1 18.7135 7.42174 34.9856
483 1 18.9607 6.31386 34.7892
127 1 15.7651 6.10968 36.135
128 1 16.7115 5.80349 35.7316
130 1 17.4183 7.25877 35.3621
129 1 17.1127 6.60371 35.933
493 1 17.4464 7.60054 36.7817
495 1 18.446 8.31648 35.4503
494 1 17.7267 8.35499 36.1902
492 1 18.4565 7.45696 36.6298
333 1 18.3742 8.54393 37.1021
332 1 17.3928 8.95816 37.2846
377 1 18.1881 8.98689 39.0931
376 1 18.7437 9.51081 39.4154
370 1 19.6855 8.6748 37.1332
369 1 19.0192 9.39609 37.5364
374 1 18.2947 8.08512 38.0239
375 1 19.0303 8.75768 38.6189
379 1 17.5609 9.76266 37.9617
366 1 19.2188 10.6091 38.3276
380 1 16.6834 9.26714 38.263
106 1 57.436 49.8855 38.1737
107 1 56.5056 49.7116 38.1496
63 1 21.6767 59.3776 35.3718
65 1 21.4353 59.4743 36.5857
66 1 21.7578 59.6228 37.4618
64 1 20.9143 59.9317 35.798
80 1 20.9192 58.0636 36.4095
61 1 21.4435 58.2249 34.6888
490 1 18.4124 6.58042 35.8997
491 1 17.9171 6.67609 36.6923
378 1 17.5975 8.78076 38.4223
195 1 19.1223 32.4527 41.1039
191 1 18.5742 32.8838 43.0335
183 1 21.1147 31.4234 42.7576
187 1 20.7085 32.2834 43.6499
186 1 20.267 33.078 43.1165
182 1 20.2964 31.2874 42.1081
105 1 58.1563 50.4183 37.814
118 1 58.3243 48.345 37.8465
117 1 57.4276 48.6059 38.0664
108 1 56.8527 49.324 37.3101
109 1 57.4153 48.9986 36.5337
104 1 58.5985 49.5798 38.1476
116 1 57.9049 49.1756 37.4005
115 1 57.7782 50.0645 36.8556
114 1 58.3843 49.5388 36.3658
68 1 23.0128 58.8929 37.0952
67 1 22.1078 58.7424 37.504
75 1 22.482 0.186358 35.693
74 1 22.1699 0.0818139 34.6843
73 1 22.9704 59.5719 34.4426
203 1 18.5876 30.3756 40.7567
192 1 18.73 33.7945 42.4789
198 1 18.4775 31.7007 42.4541
197 1 18.5204 32.6274 42.0057
194 1 19.4208 33.2535 41.6661
196 1 18.0794 32.4635 41.1483
210 1 19.3482 31.4769 40.0675
211 1 19.0762 31.2386 40.978
201 1 20.3898 29.9029 40.6625
202 1 19.4787 30.3615 40.4803
209 1 18.425 31.9733 40.2807
204 1 17.9209 30.9397 40.1766
185 1 19.6489 32.516 42.5756
190 1 18.6292 32.019 43.5707
184 1 20.2166 31.7228 42.9922
193 1 18.4502 33.596 41.484
212 1 19.5258 30.4988 41.591
215 1 18.9485 29.8495 42.3246
216 1 18.4029 30.7134 42.2523
188 1 20.0682 32.7473 44.303
189 1 19.5977 32.2485 43.6456
181 1 20.3081 32.0713 41.5568
213 1 20.3627 30.0586 41.7544
214 1 19.9196 29.9297 42.7519
120 1 57.5939 47.6687 37.4634
103 1 59.5586 49.4611 38.5757
119 1 58.5334 47.4084 37.4666
110 1 57.6521 48.1565 36.0516
101 1 0.406285 48.3246 37.7195
102 1 0.355337 49.1949 38.2391
112 1 59.158 48.9602 37.275
113 1 58.9135 49.8813 37.1389
111 1 58.4006 48.4963 36.6625
71 1 23.4803 58.9848 35.4567
69 1 22.7178 57.9227 36.8053
70 1 23.5496 58.4094 36.4605
72 1 23.6551 59.9717 35.3127
208 1 18.0272 32.1148 39.3558
218 1 17.2433 31.5604 41.8885
219 1 17.5647 31.4483 42.8397
206 1 16.7017 31.2503 39.6416
207 1 16.9694 32.218 39.3784
205 1 17.4238 31.6747 40.3115
200 1 19.4568 31.1123 42.7129
199 1 19.2785 31.7926 41.8488
217 1 18.1056 31.1955 41.5231
220 1 17.5965 32.3675 42.5334
304 1 42.0628 17.6488 47.5134
306 1 41.645 18.7437 47.4886
305 1 42.4761 18.409 47.9046
303 1 42.8766 17.5155 47.0018
302 1 42.9251 17.3885 48.047
301 1 43.59 16.7645 47.6162
319 1 42.4725 16.0475 50.1337
308 1 41.2459 17.9111 48.1365
316 1 43.0868 17.4836 49.0442
315 1 42.1114 17.7444 49.0148
307 1 41.5887 18.7569 48.4115
317 1 42.921 16.5846 48.6676
225 1 22.2968 2.56789 49.8284
228 1 22.5743 4.57037 49.4867
224 1 21.39 2.40213 49.915
231 1 21.3854 4.53777 50.5933
229 1 22.0978 5.2186 50.2024
226 1 22.1865 3.54191 49.8493
230 1 22.4268 4.42618 50.571
310 1 41.4479 16.7946 47.4693
311 1 42.4597 16.4061 47.6344
320 1 43.2863 16.5903 49.7732
312 1 42.0019 15.7841 48.2525
309 1 41.4626 16.9854 48.495
314 1 42.0979 16.8093 49.4503
313 1 41.4852 16.1105 49.0882
318 1 42.5592 15.8669 49.1837
400 1 5.5073 18.4976 50.7613
221 1 19.865 2.45569 49.9413
233 1 21.3503 4.13592 49.5267
222 1 19.843 2.13244 50.9125
223 1 20.6579 2.53297 50.7224
234 1 20.8056 3.68006 48.8024
232 1 21.2291 3.5815 50.3584
227 1 23.0585 3.80834 49.3097
239 1 20.6356 2.36058 52.1629
236 1 20.0681 3.40143 50.5019
237 1 20.3475 4.0175 51.2849
238 1 20.2111 3.0135 51.5893
235 1 20.1357 3.82501 49.4598
240 1 21.4221 2.62274 51.5791
398 1 3.71198 17.7957 51.1501
397 1 3.27757 18.3049 51.7836
399 1 4.82345 17.6277 50.9568
393 1 5.03628 19.3932 51.9341
394 1 4.45001 18.8813 52.6404
274 1 2.31736 18.1146 51.3963
390 1 4.37381 18.8073 51.1599
396 1 3.58715 18.0987 52.6133
273 1 2.30035 18.9191 51.677
391 1 4.31427 18.063 51.8154
389 1 3.75929 18.7267 50.5101
388 1 3.57925 19.4149 49.8215
387 1 4.44291 19.4813 50.306
383 1 2.57365 21.0445 51.2488
386 1 3.66015 20.1427 50.7634
385 1 3.29157 19.5988 51.2747
384 1 2.44061 20.1574 51.0166
395 1 4.29479 18.1243 53.2776
275 1 1.96736 17.5805 50.7356
276 1 1.76324 18.5535 50.6948
271 1 3.23297 19.2971 52.2268
270 1 4.08606 19.9039 52.1498
392 1 5.2432 18.4546 51.801
277 1 1.58646 18.9973 49.8534
269 1 3.3365 20.3081 52.4798
272 1 2.52963 18.6147 52.4102
268 1 3.66646 20.8498 51.5378
278 1 1.15595 19.6468 50.5486
381 1 1.33816 20.8207 50.2966
382 1 2.32648 21.1988 50.254
438 1 41.808 14.8968 48.9597
439 1 42.7164 14.8934 48.6187
437 1 40.6992 15.0789 49.1765
427 1 42.0273 14.7795 50.1449
424 1 41.3111 14.6765 51.0905
425 1 40.7682 14.9024 50.423
435 1 39.7707 15.0045 50.0666
436 1 39.7797 15.2535 49.0671
142 1 32.4543 12.3249 56.2652
434 1 40.1549 15.3608 50.9895
280 1 0.70531 18.79 50.331
263 1 1.48361 19.7345 52.8975
266 1 2.29843 21.6847 51.9852
267 1 3.20258 21.4012 52.225
279 1 0.974888 18.862 51.289
265 1 1.50453 21.2376 51.7155
264 1 1.41386 20.5592 52.5247
440 1 42.2282 14.067 48.5633
428 1 42.8102 15.1437 50.7275
141 1 31.9402 12.5608 55.5094
423 1 42.2642 14.4713 51.5493
421 1 42.5702 15.4715 52.1262
422 1 43.1968 14.8645 51.9785
426 1 41.2835 14.2504 49.8507
430 1 42.0562 15.79 51.1484
144 1 32.9577 12.8137 55.4468
149 1 30.2438 12.5473 54.5064
143 1 33.3841 12.5311 56.2975
147 1 31.2471 12.0665 54.594
148 1 30.4962 11.9455 53.8953
158 1 30.1571 11.6515 54.8448
431 1 41.0538 15.9848 50.9422
433 1 40.2485 16.0047 50.1591
432 1 41.3702 15.8319 50.1054
152 1 31.5616 12.3429 53.6325
151 1 30.8114 12.9429 53.5713
150 1 29.7983 12.7401 53.5649
261 1 1.57293 19.8723 51.5205
262 1 2.17994 19.7788 52.2351
429 1 42.8788 16.0276 51.0399
156 1 31.2859 11.1056 55.4189
157 1 30.7393 10.986 54.5744
145 1 32.4652 12.5067 54.5422
146 1 31.4982 12.9258 54.4949
154 1 32.0832 11.2036 54.7782
160 1 29.7785 10.9619 54.0964
159 1 29.4586 11.875 54.1159
153 1 32.1376 11.5409 53.9105
155 1 31.5916 10.2808 54.9992
250 1 49.2016 28.5705 56.5758
251 1 50.2926 28.5507 56.9562
244 1 49.9741 27.8431 58.7304
247 1 49.9958 30.3652 57.9391
246 1 50.2452 29.6915 58.6246
162 1 46.8854 30.417 55.8542
169 1 47.5129 29.4806 59.3937
161 1 46.1336 29.8486 56.2669
249 1 49.5639 29.1016 57.3896
170 1 48.2618 29.8856 59.6082
248 1 49.1914 30.027 57.588
252 1 50.1345 29.4132 56.5878
253 1 50.2048 30.2569 56.1107
255 1 49.6697 31.3377 57.8863
254 1 49.7942 30.7868 56.9203
180 1 47.9678 28.6303 56.3547
163 1 47.2914 30.3925 56.7533
179 1 48.2103 28.5314 57.266
177 1 48.7896 29.5873 56.7942
178 1 47.8934 29.5205 57.155
176 1 48.7582 30.6705 56.9041
ITEM: TIMESTEP
25000
ITEM: NUMBER OF ATOMS
500
ITEM: BOX BOUNDS pp pp pp
0.0000000000000000e+00 6.0000000000000000e+01
0.0000000000000000e+00 6.0000000000000000e+01
0.0000000000000000e+00 6.0000000000000000e+01
ITEM: ATOMS id type x y z
23 1 41.7455 9.40802 12.0258
22 1 41.2217 9.27251 12.9574
24 1 42.1088 9.82815 12.8265
21 1 40.8863 8.75081 13.7073
29 1 42.6051 7.6262 12.5361
25 1 42.4678 8.78698 12.9315
27 1 42.1779 7.44593 13.6193
281 1 41.6295 48.5772 14.7068
30 1 43.3116 7.48371 13.1524
32 1 41.904 6.26957 13.5468
28 1 41.7056 8.02454 12.9866
35 1 40.42 6.5694 13.3628
26 1 42.659 8.23529 13.7393
39 1 40.5206 7.98153 12.1386
31 1 42.7466 6.53683 13.0774
40 1 41.5657 8.05651 11.9775
19 1 56.1578 38.809 15.7444
18 1 55.9077 37.8073 15.9066
20 1 55.8804 39.6963 15.3688
1 1 55.3715 38.7857 14.9067
16 1 57.196 38.6985 15.8486
17 1 56.9065 38.0809 15.5616
2 1 55.7345 38.3772 14.0513
3 1 56.5975 38.2361 14.5548
5 1 56.1044 36.8892 15.3896
4 1 56.3186 37.3526 14.4428
15 1 57.2152 39.217 14.9853
7 1 57.6979 37.2638 15.4088
11 1 56.8292 37.3099 13.3475
6 1 56.9731 36.5385 15.0313
8 1 57.5236 37.7602 14.5688
283 1 42.9836 49.4022 15.2097
284 1 42.2468 49.5612 14.6154
282 1 42.1791 48.8563 15.4303
33 1 41.7815 6.72246 12.5197
36 1 41.0879 7.29119 13.408
37 1 40.2286 7.68804 13.5478
38 1 39.7879 8.11886 12.811
34 1 40.8275 6.35559 12.4657
13 1 56.5386 38.5601 13.5372
12 1 57.1141 38.2231 12.9017
14 1 56.4636 39.2892 14.3385
9 1 57.7541 37.0501 13.8519
10 1 57.6267 37.1377 12.8127
294 1 43.9175 50.0225 12.6699
295 1 43.7441 48.9452 12.7428
293 1 43.1114 50.1439 13.3434
297 1 42.5963 48.6993 12.8343
296 1 42.8984 49.5338 12.4783
288 1 41.8886 49.6988 12.5009
299 1 42.6814 48.6263 14.4784
298 1 43.1618 48.8972 13.5859
300 1 42.0381 48.2901 13.6881
286 1 41.3871 49.0013 13.3678
285 1 42.2125 49.5439 13.658
290 1 42.741 49.4986 11.4626
292 1 42.7245 50.6949 12.6635
291 1 43.0863 50.3693 11.8932
289 1 41.5944 49.5348 11.5108
287 1 41.0926 49.9651 13.043
98 1 45.4058 22.0818 28.8537
97 1 45.5214 22.2159 27.7868
99 1 44.5772 22.3144 28.3491
460 1 56.9961 44.3979 27.6937
95 1 46.2426 21.4155 28.6293
96 1 45.5412 21.2598 27.8682
100 1 44.5779 21.4291 28.8095
342 1 47.5101 22.4566 28.5399
341 1 47.1776 21.8611 29.2388
360 1 45.8914 23.2367 29.0926
359 1 46.1457 23.0638 30.1109
442 1 57.8841 46.6759 28.3904
441 1 57.2794 47.3454 28.9525
458 1 57.3954 46.1456 27.6486
456 1 55.5936 46.6057 28.2423
457 1 56.454 46.3211 27.8246
453 1 55.801 44.2879 27.8216
454 1 55.753 45.1854 28.1682
459 1 56.9084 45.2876 27.9533
455 1 54.9318 45.8573 28.2256
81 1 44.2025 19.5864 31.7074
94 1 45.6233 20.7333 28.7957
93 1 46.3452 20.0714 29.0014
345 1 46.9045 23.5987 28.7936
346 1 47.758 23.4854 28.7222
343 1 46.5299 22.45 28.7655
91 1 47.1023 20.9201 30.3529
344 1 47.1865 22.9303 29.4473
350 1 47.7962 24.1191 31.1241
347 1 48.3865 22.9246 29.1474
355 1 46.1753 21.4827 30.5799
357 1 45.2582 21.9875 30.3057
358 1 45.202 22.7585 29.7438
354 1 45.9901 21.8884 31.4172
352 1 46.8574 22.4467 30.7295
445 1 56.9956 47.0575 26.8381
446 1 56.0086 46.7708 26.7225
444 1 56.547 47.4175 27.604
447 1 55.7541 45.8454 26.9415
448 1 56.1431 44.9354 26.616
443 1 57.486 47.4158 27.8398
450 1 57.4264 44.6893 26.8272
449 1 56.823 45.5854 26.8608
452 1 56.0038 43.7289 27.173
451 1 56.9375 43.8174 26.7135
82 1 44.1032 20.4563 31.4903
83 1 45.1103 20.0097 30.8121
92 1 46.3785 20.6908 29.7763
348 1 48.0458 22.5696 30.0331
84 1 45.262 19.2968 30.1427
85 1 45.9326 18.8157 29.3837
90 1 47.2804 19.9479 30.03
89 1 47.4013 20.095 31.0445
349 1 48.0339 23.3442 30.3895
356 1 46.2127 21.9766 29.8453
86 1 46.4142 19.1825 30.2461
87 1 46.3121 20.1914 30.7963
353 1 46.9901 22.3347 31.6586
88 1 46.7788 20.9239 31.3125
351 1 47.5381 23.0282 31.2153
420 1 11.5036 59.4254 32.5335
476 1 13.1354 57.8004 32.023
411 1 10.6286 58.9606 33.6821
417 1 11.3022 58.2513 32.9427
407 1 10.2532 1.30953 34.2035
419 1 12.2098 58.9562 33.1083
418 1 11.9749 58.2913 32.4761
474 1 12.0505 57.008 32.9119
475 1 12.5813 57.046 32.0959
461 1 14.4808 0.523002 34.4525
405 1 11.8746 0.610048 34.9408
406 1 11.0096 0.750936 34.5959
402 1 12.9124 0.0204023 34.0388
403 1 12.7405 0.891034 33.92
404 1 11.8903 0.347621 33.905
477 1 12.9859 58.6168 32.5581
478 1 13.2586 59.2433 31.8935
479 1 13.1367 59.8863 32.741
401 1 12.5692 59.6773 34.9828
410 1 11.1552 59.6823 34.0264
413 1 10.3168 58.5238 34.6818
412 1 9.74433 58.9631 34.1832
408 1 10.2588 0.44241 33.6335
409 1 10.2537 59.9354 34.5068
414 1 11.1784 59.0578 34.8518
416 1 11.6961 58.3114 33.6882
470 1 12.6721 57.2049 34.0485
415 1 11.8743 59.0049 34.3061
469 1 11.8634 57.8616 34.6226
473 1 12.5755 57.8724 33.2648
472 1 13.5158 57.7429 33.5435
471 1 13.6194 56.9082 33.8209
463 1 14.3641 59.1551 34.2279
462 1 13.7302 59.8725 34.5877
466 1 13.3903 58.8346 34.5762
465 1 13.0779 58.8964 33.7699
480 1 13.3115 0.318063 31.8161
75 1 21.9387 58.6612 32.7917
74 1 21.8832 59.1479 31.8809
464 1 13.8051 59.529 33.5159
124 1 18.6606 5.95576 33.303
125 1 19.4594 6.0298 33.567
123 1 18.6068 6.93805 33.6087
487 1 19.651 6.30748 34.736
485 1 19.0407 7.58212 34.403
484 1 18.7606 7.13083 35.2047
122 1 17.7036 7.01303 33.9206
121 1 17.463 7.12411 32.9617
482 1 16.9465 7.6202 34.5729
483 1 17.9805 7.42537 35.0292
131 1 16.6989 7.3197 35.7441
132 1 15.8072 7.09014 35.3398
130 1 16.8041 6.29725 35.864
495 1 18.5202 8.31156 35.5932
481 1 17.2456 8.34703 35.1233
322 1 15.0933 8.73019 36.5074
133 1 14.8229 6.93824 35.0795
500 1 15.9219 10.5719 37.449
499 1 16.6593 10.2792 36.7422
60 1 13.756 26.7302 36.8276
54 1 14.8476 24.9254 36.7596
55 1 15.5009 25.7449 36.4687
49 1 15.6535 25.0802 35.5003
51 1 15.0383 24.1375 35.8366
48 1 16.5945 25.3317 35.9088
46 1 16.3771 24.3146 35.3057
45 1 16.8589 24.1832 36.1777
47 1 16.6266 25.2485 35.044
44 1 17.6237 24.558 35.9882
43 1 18.0464 24.1848 36.7216
78 1 22.8168 58.1535 33.6303
79 1 22.0935 58.6557 34.2932
61 1 20.2685 59.3683 32.4565
467 1 12.6623 58.7435 35.2773
468 1 12.7433 58.0564 34.4523
62 1 20.1244 58.8707 33.3727
63 1 20.8933 58.6479 33.9377
73 1 21.175 58.5448 31.7206
71 1 22.3247 58.1956 31.7908
72 1 21.606 57.6592 31.7656
126 1 18.9144 5.19892 34.1955
486 1 19.8321 7.02999 34.0191
488 1 18.6188 6.18014 34.3561
127 1 18.0471 4.95153 34.7073
128 1 17.2751 5.41218 35.0509
129 1 16.3843 5.96319 34.964
490 1 17.3411 6.57214 35.0497
491 1 18.0971 6.20263 35.5155
489 1 17.6088 5.98579 34.2637
134 1 15.1191 6.87252 36.0402
493 1 17.3933 7.41088 36.9101
494 1 17.6949 7.99871 36.1277
492 1 17.9283 7.00793 36.1009
333 1 17.5346 8.41958 37.0347
323 1 14.8131 9.6581 36.3058
321 1 15.6006 8.21442 35.8417
135 1 15.837 6.10891 36.0083
498 1 17.5018 10.3074 37.3763
331 1 15.8579 8.55205 37.1558
334 1 16.8789 9.20884 37.0989
497 1 17.9723 9.70106 36.8178
496 1 18.4763 9.11776 36.1748
370 1 18.7848 10.0678 37.7951
324 1 14.386 9.13497 35.6034
325 1 13.9831 8.61566 36.3858
330 1 15.6159 9.56854 37.4584
328 1 14.043 8.76301 38.5954
326 1 14.6044 8.09465 37.2107
327 1 14.5523 8.08207 38.0862
329 1 14.7285 9.11977 37.9301
362 1 15.191 10.6925 38.6022
364 1 16.6851 10.3273 38.2151
363 1 15.911 10.0631 38.4724
361 1 14.2597 11.1112 38.4086
58 1 13.6877 25.5782 35.2536
59 1 13.3809 26.1725 36.0489
56 1 14.8966 26.6259 36.1191
53 1 14.9531 23.9826 36.8513
57 1 14.4676 25.6927 35.7544
52 1 15.0226 23.1521 36.2371
50 1 15.7891 24.6494 36.3519
41 1 16.2655 24.1996 37.5406
42 1 17.0917 24.6153 37.1331
110 1 57.5617 49.7436 36.4827
111 1 56.6724 49.2695 36.6304
109 1 57.5311 48.8255 36.1293
114 1 55.9505 50.1944 35.1662
113 1 55.8937 49.6877 35.9997
115 1 56.8553 49.7684 35.1621
80 1 22.1284 57.6575 34.7
69 1 23.7376 59.1639 32.8342
70 1 23.0904 58.6732 32.2209
64 1 21.521 59.3414 33.6255
77 1 22.7687 59.0216 33.3432
65 1 22.2089 59.9409 34.1424
76 1 22.2652 59.6596 32.8611
68 1 24.3166 59.1144 33.6915
374 1 18.7389 8.43143 38.6992
372 1 18.9245 9.72933 39.244
373 1 19.0777 9.29868 38.5838
138 1 15.5558 7.46582 38.0114
136 1 16.1011 6.7464 36.5827
137 1 15.7057 7.54711 37.1469
380 1 16.9028 8.34246 37.9125
368 1 17.8971 8.94391 37.9656
332 1 16.5946 8.19568 36.664
379 1 16.6122 7.45271 37.7064
378 1 16.4339 6.60269 38.0391
367 1 17.989 9.50031 38.7293
369 1 18.8712 9.07448 37.4923
371 1 19.5769 10.2065 38.6157
340 1 17.6011 9.10506 40.045
335 1 16.492 9.36697 37.9731
336 1 15.754 8.80307 38.2069
338 1 15.9948 8.63114 39.6551
365 1 16.9456 9.92055 39.0041
366 1 17.8076 10.0808 39.4589
337 1 15.3825 9.19869 39.1133
101 1 57.1926 48.7675 34.5683
118 1 58.0304 47.717 34.7524
120 1 58.0168 47.6248 36.0433
119 1 57.2589 48.0344 35.4441
102 1 57.3916 49.2518 33.7192
107 1 58.8991 49.1778 35.236
108 1 58.4598 49.167 36.1471
106 1 58.3067 49.0223 34.3452
117 1 58.0661 48.5956 35.2876
116 1 57.7477 49.5182 35.1699
104 1 57.3355 50.175 34.2864
103 1 56.5042 49.7963 34.1534
112 1 56.3988 48.901 35.7387
105 1 58.3617 50.0394 34.3329
66 1 23.0935 59.7173 33.9591
67 1 23.5583 59.0162 34.3266
140 1 16.2595 7.7401 38.6652
377 1 17.4648 6.74024 38.0646
376 1 17.6442 7.65052 38.8143
375 1 17.8867 8.37444 39.3913
139 1 15.2835 7.78565 38.7107
339 1 16.6223 9.384 39.8705
206 1 20.0493 34.0492 42.0861
207 1 20.0422 34.0778 43.0191
208 1 21.009 33.698 42.7935
201 1 18.8995 31.4737 41.1562
204 1 19.1625 32.9651 42.099
203 1 18.4599 32.9172 41.2668
211 1 21.1092 32.1779 42.4447
202 1 19.3883 32.4379 41.0169
196 1 20.5825 31.8022 44.358
209 1 21.5965 33.1298 42.1484
205 1 19.1939 33.9367 42.3664
195 1 21.012 31.7084 43.4348
210 1 20.7836 32.9569 41.9044
215 1 19.4509 33.2795 43.2792
214 1 19.2049 32.4066 42.993
216 1 20.37 32.9509 43.127
217 1 21.302 32.8438 43.2907
212 1 20.2451 32.2243 42.3648
200 1 21.0938 30.6156 44.3227
183 1 19.9152 30.8679 42.315
182 1 20.2491 31.5753 41.5772
213 1 19.3934 31.8471 42.1443
198 1 20.0415 31.6794 43.3919
197 1 19.8024 32.4814 44.0791
218 1 20.691 32.8298 44.0918
219 1 21.5444 33.0345 44.4335
220 1 21.704 32.1101 44.2082
185 1 21.3389 30.5018 41.8874
199 1 20.4079 30.693 43.5605
181 1 20.0495 30.6557 41.2617
193 1 22.5928 30.6029 43.6388
192 1 21.8578 30.0006 43.6662
194 1 21.6911 31.0526 43.1981
190 1 22.4938 29.8826 42.7905
189 1 21.5264 29.6469 42.6609
187 1 21.2965 29.6402 41.307
184 1 20.9129 31.141 42.5475
191 1 22.714 29.5034 43.5774
186 1 22.1051 30.0695 41.6634
188 1 20.8176 29.2901 42.1127
303 1 42.5549 21.2865 49.2996
440 1 39.0408 16.8889 48.2021
310 1 41.4651 19.1183 47.1607
311 1 40.4075 19.1282 47.1527
312 1 40.7754 18.8878 48.1684
309 1 41.6994 20.0272 46.7496
301 1 41.9393 20.8795 50.0334
308 1 40.8425 20.6963 46.8819
304 1 41.8029 21.4826 49.0709
305 1 40.8563 21.5652 48.7282
302 1 42.6391 20.372 49.3723
306 1 41.2397 21.091 48.0133
307 1 41.1713 20.0635 47.7835
221 1 21.4683 3.54644 50.0838
224 1 22.332 2.77791 51.5612
225 1 21.8104 3.57615 52.2251
233 1 22.7846 5.14244 52.1304
234 1 21.9948 4.66191 51.9409
235 1 21.5303 5.02366 52.7729
226 1 21.5067 3.02488 52.9962
227 1 22.0516 2.13441 52.6935
228 1 22.5431 2.8928 52.6406
426 1 41.3007 18.0763 47.5239
436 1 38.3723 18.7632 49.6368
437 1 38.5996 17.7481 49.7049
438 1 38.8399 16.9566 49.9557
439 1 39.425 17.0179 49.1179
314 1 40.3251 20.6636 48.2622
313 1 40.3762 19.7917 48.4006
318 1 41.6969 19.4162 49.003
317 1 41.6136 20.4009 48.8718
320 1 42.5249 18.3084 49.1334
315 1 40.4472 20.3963 49.2558
316 1 41.1332 20.2283 49.7833
277 1 3.12084 16.8671 52.8598
388 1 4.46082 20.3106 52.2017
222 1 22.0448 3.01427 50.5589
223 1 22.0195 2.07348 50.8659
232 1 22.5755 5.2088 51.054
236 1 20.7603 5.58147 52.6123
237 1 20.6848 4.59306 52.2577
231 1 23.1079 4.52899 51.3043
229 1 23.36 2.91014 52.0942
230 1 22.9968 3.78521 51.8437
435 1 38.8328 18.8807 48.7702
424 1 40.4273 17.8356 48.7747
425 1 40.4241 17.7712 47.8233
434 1 39.497 18.3608 48.3533
427 1 42.1489 17.8478 47.9275
428 1 41.9211 17.2562 48.7207
431 1 41.1196 18.6355 49.689
433 1 39.9113 18.9666 49.1748
432 1 40.7124 19.3133 49.2113
319 1 42.6692 19.3756 48.784
430 1 41.4196 17.7696 49.6446
429 1 41.4779 18.0568 48.6286
274 1 3.78446 17.4422 52.1558
275 1 4.43579 17.387 53.0615
276 1 3.90819 16.6618 53.5077
398 1 5.37144 16.8874 54.109
400 1 4.47483 15.9271 54.4391
399 1 5.07913 16.1786 53.586
278 1 2.68375 17.6599 52.8201
280 1 3.09991 17.8312 53.9549
279 1 3.57815 18.0013 53.0813
389 1 5.271 20.5549 52.771
385 1 6.18192 20.0214 51.2299
390 1 5.26624 20.4437 53.8612
387 1 5.14529 20.3986 51.4598
381 1 4.61021 17.9182 50.7234
383 1 4.79524 18.8248 51.1929
384 1 5.5065 19.4542 50.7912
382 1 4.80074 18.6869 50.2146
386 1 5.88294 20.7094 51.9075
239 1 21.054 3.59424 51.3215
240 1 21.0216 2.80898 51.8865
238 1 20.6706 3.68275 52.2127
423 1 40.0523 17.9495 49.5892
421 1 38.9223 18.0285 50.8989
422 1 39.2978 18.5801 50.0253
397 1 4.64962 17.1257 54.1366
396 1 5.144 17.8867 54.4675
391 1 5.30798 19.5355 53.1173
392 1 4.58872 19.7486 53.8993
273 1 4.64349 17.3575 51.6482
272 1 5.02364 17.9067 52.3792
261 1 4.50273 19.9318 50.4
262 1 3.83563 20.1111 51.0943
271 1 4.55495 18.4826 52.7192
270 1 3.8477 19.0255 52.9467
393 1 4.48469 19.047 54.8019
394 1 3.93074 18.6321 54.0088
264 1 2.69745 18.7339 50.5696
265 1 3.61507 18.6807 50.9947
269 1 2.98161 18.824 52.5215
268 1 2.94251 19.8105 52.2988
267 1 3.76069 19.2768 51.8475
266 1 4.10735 18.3838 51.7458
160 1 35.1667 11.5303 56.3862
150 1 32.8287 13.2597 55.8187
159 1 34.575 11.9713 55.8397
148 1 34.2144 12.6306 54.9789
152 1 31.7605 12.2551 54.7716
153 1 31.5002 11.9889 55.691
151 1 32.7832 12.5397 55.0857
395 1 4.22557 17.9402 54.6747
263 1 3.02374 19.5713 50.7519
156 1 33.7455 11.209 55.7671
157 1 33.7212 11.5675 56.6668
154 1 32.1213 11.4018 55.1969
155 1 32.7955 11.6466 55.819
149 1 33.8682 13.3041 55.5393
147 1 34.1944 11.6011 54.8684
158 1 33.6774 12.2958 56.0232
141 1 33.5668 10.7723 53.8765
145 1 32.6557 11.8557 54.2613
144 1 31.969 12.0736 53.6917
146 1 33.3016 11.3438 54.7635
142 1 32.5803 10.4726 54.1026
143 1 32.5633 11.1789 53.518
250 1 49.6939 27.9923 55.6176
251 1 49.7496 28.6311 54.8972
161 1 47.0386 26.9778 54.0366
180 1 49.0797 27.2514 54.9815
178 1 49.5599 26.9926 56.0039
177 1 48.5316 27.1106 55.86
252 1 50.3548 29.3642 54.8045
162 1 47.1836 26.612 54.9435
163 1 47.7573 27.5046 55.067
254 1 49.5721 30.0755 54.5398
176 1 48.6504 27.7069 56.5494
253 1 50.2004 30.1919 55.338
167 1 46.6361 28.0681 55.6672
179 1 50.0185 27.1671 55.1839
260 1 49.8096 27.7831 56.9977
165 1 46.608 26.5815 56.1086
164 1 47.4891 26.9959 56.0267
259 1 49.2001 28.212 57.3718
258 1 48.5077 28.7709 56.6814
249 1 49.8572 28.6013 56.4251
245 1 49.4854 30.5499 57.1985
174 1 47.9719 28.4114 54.8173
175 1 48.5569 28.0102 55.6012
256 1 48.951 29.3176 54.9168
248 1 49.5235 29.3029 55.8353
255 1 48.9731 30.2293 55.3617
247 1 49.6438 30.1495 56.226
243 1 50.3907 28.7856 57.5692
244 1 49.9646 29.7856 57.2848
166 1 46.354 27.299 55.5564
168 1 47.6047 28.2998 56.1526
169 1 46.9314 28.5607 56.5153
170 1 47.1793 29.4482 56.2788
242 1 49.4999 29.0274 57.8697
241 1 48.9769 29.596 57.2235
246 1 49.1347 30.9214 56.3458
173 1 47.4777 29.0868 55.2158
172 1 47.8042 29.9489 54.9434
171 1 47.9559 29.9841 56.0627
257 1 48.4558 29.102 55.8365
ITEM: TIMESTEP
26000
ITEM: NUMBER OF ATOMS
500
ITEM: BOX BOUNDS pp pp pp
0.0000000000000000e+00 6.0000000000000000e+01
0.0000000000000000e+00 6.0000000000000000e+01
0.0000000000000000e+00 6.0000000000000000e+01
ITEM: ATOMS id type x y z
34 1 42.4868 8.31936 14.2992
33 1 42.0038 8.66771 15.1059
38 1 42.9354 7.32874 12.4125
39 1 41.9235 7.70283 12.3622
29 1 42.3562 7.75262 13.3632
40 1 41.1509 7.03916 12.3842
23 1 41.0331 6.48012 14.5687
24 1 40.4036 7.20642 14.8525
10 1 52.9987 38.3345 17.0556
297 1 43.0753 49.9637 13.7858
288 1 42.5467 49.912 14.6391
290 1 41.4798 50.3806 14.3762
289 1 41.8411 49.8984 15.1581
295 1 43.1257 48.6498 14.2183
296 1 43.2493 49.0948 13.3032
292 1 41.3839 49.1228 13.1826
294 1 42.2885 49.0383 13.7402
291 1 40.9467 49.7061 13.7619
35 1 43.3504 7.7895 14.2827
32 1 41.1218 8.91281 15.0626
31 1 40.8822 8.80414 14.0537
36 1 43.0797 6.91784 13.9087
37 1 43.5037 7.44833 13.2235
27 1 41.1986 7.64786 14.1455
28 1 41.6789 7.02475 13.4873
26 1 42.0345 7.24802 14.5833
30 1 41.7323 8.38785 13.3883
22 1 42.0077 6.21256 14.3779
21 1 42.1939 5.17728 14.5888
25 1 41.3223 7.27571 15.2568
9 1 53.2461 39.0943 17.7196
2 1 53.2913 38.4024 15.2363
11 1 53.4606 37.6724 17.6163
13 1 53.3588 37.4779 16.4532
12 1 53.9962 38.1049 17.0072
300 1 42.3554 49.3814 11.6969
286 1 42.3134 50.9058 13.115
287 1 42.5673 50.8142 14.1656
285 1 42.0393 50.0514 13.4893
298 1 42.8236 50.1399 12.7249
293 1 42.2182 48.9354 12.7886
5 1 52.573 39.6332 17.0354
6 1 52.8622 40.6239 17.2127
17 1 53.7423 40.5092 15.898
3 1 52.9388 39.2452 15.1514
4 1 52.8163 39.2305 16.145
7 1 52.7147 40.1494 18.105
8 1 53.5947 40.0586 17.8497
1 1 54.278 38.7008 15.445
20 1 54.6997 39.6536 16.3407
14 1 53.6001 38.4162 16.2174
15 1 53.9867 39.1025 16.803
281 1 42.0948 49.511 10.4368
284 1 41.8094 49.8252 12.4211
282 1 42.4095 50.3767 10.7947
299 1 42.7918 50.3516 11.8351
283 1 41.6868 50.2623 11.4962
18 1 53.573 40.0339 16.6857
19 1 54.4559 40.5931 16.8485
16 1 53.8262 39.464 15.8925
451 1 0.636864 46.7687 27.2902
448 1 0.325449 45.4754 25.3608
449 1 0.245305 46.2721 26.115
450 1 0.89348 47.0145 26.3182
445 1 59.2767 44.5713 27.3384
446 1 59.7018 44.4863 26.4305
447 1 0.20311 45.295 26.3516
96 1 44.9509 21.5878 28.9516
97 1 43.9619 21.6342 29.4617
99 1 43.7368 21.4998 30.8616
342 1 45.0161 21.9811 29.9133
452 1 0.112325 47.4288 27.7734
460 1 58.3202 48.4305 25.1304
453 1 0.626538 47.8224 27.0262
454 1 59.9004 47.3581 26.5795
459 1 59.1182 47.8846 25.3746
456 1 59.1657 45.8117 26.5379
455 1 59.457 46.6154 27.0274
457 1 59.2083 46.7868 26.0789
442 1 59.8859 45.7487 28.358
458 1 59.7946 47.0826 25.3672
444 1 59.0033 45.4521 27.6747
443 1 0.0318951 45.7222 27.4403
85 1 44.8812 20.107 30.2722
94 1 44.253 20.776 28.9154
93 1 43.4205 20.6667 29.5739
92 1 43.816 19.8423 29.1336
98 1 44.3632 21.2612 30.2023
100 1 43.022 21.8831 31.397
358 1 43.0369 18.5074 30.0794
95 1 44.978 20.842 28.2883
343 1 44.5243 22.0762 30.9267
356 1 43.6339 20.2551 30.6648
341 1 45.6424 22.5374 29.373
348 1 45.3667 23.541 30.6578
360 1 43.1705 17.2922 29.7054
345 1 43.2757 22.7165 30.5711
346 1 44.2387 23.1117 30.626
344 1 43.7945 22.674 31.5276
347 1 44.9202 23.3281 31.4739
441 1 59.3193 46.44 28.0513
84 1 45.492 19.4399 30.4937
86 1 45.1663 20.8819 29.7839
90 1 44.8777 19.7445 28.6833
83 1 44.9977 19.7117 31.3135
91 1 44.569 19.3369 29.5833
87 1 45.9887 20.4426 30.2995
88 1 45.7138 20.0076 29.5848
89 1 45.5923 19.1553 29.1691
357 1 43.3912 19.3303 30.3975
355 1 44.5543 20.714 31.0278
354 1 45.0025 21.1958 31.7189
352 1 46.0073 21.6571 30.1989
359 1 43.8762 18.1076 29.6131
350 1 46.4523 22.7756 30.4363
349 1 45.4719 22.5881 30.4944
351 1 46.3201 22.1299 31.0914
480 1 10.0469 59.515 33.1129
81 1 45.5057 19.9154 32.2056
82 1 45.7199 20.4341 31.3778
353 1 45.4306 21.2965 30.7509
475 1 9.9313 57.284 33.0256
418 1 9.95225 58.3028 33.2278
476 1 10.5633 57.4244 32.3344
73 1 20.6496 57.5199 30.2584
71 1 22.0512 58.1084 29.5826
72 1 21.6759 57.4611 30.2403
420 1 11.0728 58.3945 32.0526
477 1 11.0586 57.867 33.055
478 1 11.4203 58.4896 33.8001
479 1 11.0351 59.0719 33.0798
61 1 23.4288 58.9418 31.8854
75 1 21.2141 58.9307 31.0544
74 1 21.0785 58.08 31.0257
76 1 20.9026 58.6932 30.1407
69 1 22.7808 58.9913 29.3251
70 1 22.3795 58.3428 28.6288
407 1 12.7072 59.8985 35.1228
408 1 11.7046 59.9103 35.4883
403 1 12.048 58.9998 33.1692
404 1 11.6133 59.8046 33.508
402 1 12.8329 59.0677 32.7462
126 1 18.566 8.41256 35.5763
122 1 16.73 9.89662 34.2991
121 1 15.9166 9.2172 34.4284
489 1 16.7757 8.55759 34.3811
124 1 18.4362 8.94902 34.1979
125 1 18.4044 8.06456 34.6612
123 1 17.4925 9.26061 34.017
486 1 17.4744 9.65396 35.2115
103 1 55.6548 49.9234 33.0287
102 1 56.0955 49.9979 33.9464
104 1 56.0263 49.596 32.217
474 1 9.62843 57.1847 33.7807
471 1 11.1699 56.885 33.0907
417 1 10.4042 58.6911 34.0839
416 1 10.9218 58.3079 34.803
470 1 11.872 56.2865 33.5374
473 1 10.4397 57.5576 34.0903
472 1 10.476 56.5628 33.8002
78 1 22.3543 58.5884 30.8757
412 1 10.2042 0.0301921 35.2293
411 1 10.3745 59.1591 34.9773
410 1 11.2284 59.5427 34.6184
419 1 10.2052 58.5246 32.3598
465 1 12.4636 57.3631 34.1941
464 1 12.7274 58.2643 34.0122
463 1 12.1524 57.9227 33.1308
62 1 22.6934 58.677 32.3517
63 1 22.3977 59.5154 31.8068
64 1 21.5156 59.7356 31.7117
77 1 21.8735 59.0184 30.2358
65 1 21.1823 59.8781 30.767
66 1 22.2816 59.98 30.651
68 1 23.0366 58.3519 29.8876
406 1 12.3287 0.409844 34.4404
405 1 12.1315 59.4357 34.1483
461 1 12.1842 58.1835 31.3215
127 1 18.0733 8.10058 36.2884
128 1 18.6035 7.37155 35.8504
133 1 16.6961 6.58745 35.2036
132 1 17.5549 6.44318 34.9669
129 1 18.7239 7.24391 36.7577
490 1 17.3773 8.3481 35.0968
491 1 17.5766 7.55195 35.6198
487 1 17.2122 9.17599 35.9807
484 1 15.7227 9.74192 35.4055
488 1 16.6525 8.92315 35.238
482 1 15.641 8.32018 35.3526
483 1 15.097 9.03033 35.3306
495 1 16.4289 8.57246 37.4337
481 1 14.9929 8.27175 34.656
485 1 16.6596 10.0554 35.5419
324 1 15.0868 7.73975 36.1734
58 1 18.8333 25.212 37.7079
49 1 17.9693 24.627 35.3756
46 1 16.8119 24.4717 36.8298
47 1 17.6882 24.1027 36.9237
118 1 56.7681 49.1091 33.9601
119 1 57.3195 48.306 33.5275
115 1 57.0892 50.4832 33.8463
101 1 55.4896 49.1691 34.0789
106 1 55.1543 48.893 33.0334
117 1 56.206 48.9583 33.1548
116 1 56.7447 49.9176 33.0652
107 1 55.8266 48.5513 32.2697
114 1 57.6827 50.2332 34.4853
105 1 55.0602 49.307 32.1249
413 1 10.1701 59.664 36.1149
469 1 11.7558 56.324 34.5789
468 1 10.8982 56.6132 34.8282
80 1 22.722 57.1598 29.7574
409 1 11.7383 59.0529 35.0302
414 1 10.4816 58.7791 36.7151
401 1 12.8001 0.0490167 33.2222
415 1 10.7541 58.2913 35.8258
467 1 11.409 57.4231 35.2053
462 1 12.2741 58.314 32.3395
466 1 12.1072 58.0348 34.7588
79 1 22.5869 57.6372 30.5865
67 1 23.0952 59.3927 30.2581
134 1 16.9165 5.63481 35.3776
130 1 17.9419 6.82574 36.5415
135 1 17.2509 6.23535 36.0773
136 1 17.5736 5.45151 36.6869
492 1 16.9022 7.30616 36.303
321 1 16.583 7.73053 35.1512
131 1 18.1644 6.12592 35.6811
332 1 15.5871 8.56451 36.5492
493 1 16.5663 8.26046 36.1422
494 1 17.1087 8.5074 36.8816
333 1 14.8693 8.50086 37.2453
325 1 15.9025 7.12108 35.9294
322 1 15.8232 7.63532 34.5566
323 1 15.2276 7.37302 35.3098
334 1 14.4723 8.56561 38.1421
497 1 15.1532 9.81623 36.8246
496 1 15.8116 9.32477 37.3194
499 1 14.3288 8.31098 35.8523
51 1 16.3844 25.6886 35.4279
53 1 17.3295 26.3016 36.3196
52 1 16.6489 25.601 36.3607
45 1 16.1267 24.5642 36.1101
43 1 15.6771 25.9167 37.0343
54 1 18.0174 25.8589 35.6775
57 1 18.5362 24.9196 36.8798
48 1 18.1271 23.8817 36.1663
50 1 17.0263 24.8736 35.5453
44 1 15.5588 25.1114 36.4658
60 1 20.1635 25.5869 37.784
59 1 19.6975 24.8208 37.6416
55 1 17.6976 25.2741 36.4418
56 1 17.6243 25.1449 37.3926
120 1 57.0403 47.8164 32.6668
111 1 57.5446 49.2695 33.1409
113 1 58.1957 50.0108 33.7108
112 1 57.7918 49.2707 34.1411
110 1 56.9786 48.9355 32.4779
109 1 57.1878 48.5987 31.5389
108 1 56.2237 48.9383 31.4076
378 1 17.5229 7.57702 37.0756
377 1 17.4404 6.78666 37.5611
326 1 15.1419 6.79076 36.5318
327 1 14.817 5.88562 36.8431
138 1 15.7984 5.49064 37.4018
137 1 16.7018 4.91595 37.2004
331 1 15.937 7.70736 36.8589
380 1 16.0567 6.742 37.1943
379 1 16.6215 7.4371 37.5817
330 1 15.166 7.56777 37.4092
329 1 14.3257 6.88449 37.2636
335 1 14.6992 7.6378 38.5786
336 1 14.706 6.68012 38.8
368 1 15.8325 8.04819 38.2458
369 1 16.1159 9.0486 38.6231
361 1 14.3844 6.90916 39.9113
500 1 14.2215 7.77113 36.7369
364 1 15.6602 7.3416 40.6335
363 1 15.5098 6.6718 39.8988
498 1 14.7719 9.02017 36.3538
370 1 17.0883 8.91176 39.1488
41 1 16.102 27.0312 37.3693
42 1 16.7042 26.1932 37.2795
139 1 16.7378 5.89959 37.3763
140 1 16.4038 5.70618 36.5319
376 1 17.5618 5.93098 38.1603
375 1 18.5038 6.51067 37.812
374 1 17.9025 6.88085 38.6076
328 1 15.1576 6.32739 37.6268
337 1 15.5049 7.01875 38.6363
338 1 15.9599 6.16658 39.1572
365 1 16.1132 7.8308 39.7621
339 1 16.9003 5.89067 39.0416
367 1 16.8338 8.12138 38.5607
372 1 17.9682 8.44992 38.7464
373 1 18.1191 7.75134 38.2459
362 1 14.7717 5.9453 40.2525
366 1 16.5341 7.41237 39.0396
371 1 17.2568 9.07353 38.1394
340 1 16.6416 6.50845 38.454
187 1 21.393 31.9133 42.4508
181 1 22.7354 33.6499 44.8421
201 1 23.3007 34.0118 43.22
202 1 23.2414 34.5747 44.0404
203 1 23.5848 33.5817 44.134
188 1 21.4003 32.9064 42.5785
190 1 19.5157 32.361 43.2161
189 1 20.518 32.5994 42.9314
183 1 22.1719 32.919 44.0825
185 1 21.1482 32.9746 43.8489
184 1 21.5991 33.5333 44.621
186 1 21.6593 32.2162 43.4181
213 1 22.1043 31.5011 44.2378
211 1 22.5393 31.6916 42.8062
212 1 22.7993 32.0719 43.6432
182 1 22.4191 33.7546 43.9617
204 1 23.0756 32.7755 44.5537
205 1 23.9399 32.3675 44.1522
206 1 24.3406 31.4328 43.8886
208 1 23.4306 32.2852 42.4241
210 1 22.5583 32.6869 42.8163
209 1 23.3643 32.8545 43.2905
192 1 20.4394 31.5122 43.5499
191 1 19.3875 31.2757 43.3974
199 1 21.3626 30.5719 44.4673
193 1 20.2176 30.4812 43.5063
194 1 20.9666 30.5892 42.8193
214 1 22.5795 30.7455 44.9561
197 1 22.4759 30.0367 44.0804
195 1 21.5209 31.0887 43.4523
217 1 23.6292 30.515 44.0153
198 1 21.9144 29.7991 44.8181
218 1 23.7353 30.5213 43.0018
220 1 21.9906 30.5632 42.6507
215 1 23.3139 31.4403 44.5475
207 1 23.9625 31.5236 42.9007
216 1 23.7663 30.7785 44.9983
200 1 21.3407 30.0369 43.6313
196 1 22.5953 30.8616 43.5255
219 1 22.9345 30.2049 42.6666
308 1 40.4717 23.4539 47.0807
309 1 39.4872 23.4828 46.7995
440 1 36.9315 22.3075 47.6434
434 1 39.4725 20.7741 47.0021
426 1 39.6343 19.5097 47.1026
425 1 39.1957 19.9785 47.8727
427 1 40.2073 20.1959 47.5261
311 1 39.0831 22.9965 47.9015
312 1 39.0335 22.0597 47.6304
313 1 38.4778 22.0675 48.4335
310 1 39.8252 22.7709 47.3474
306 1 40.8036 23.4433 48.7335
307 1 40.7986 23.0187 47.9436
314 1 39.368 21.7658 48.6258
438 1 37.3715 22.3806 48.6801
439 1 37.7945 22.4977 47.8348
437 1 37.4852 21.3753 48.3
424 1 39.0166 18.8788 47.6411
430 1 41.123 21.3974 48.7592
423 1 38.183 19.3229 48.0671
320 1 41.3914 22.3807 50.0744
428 1 40.6376 20.9827 47.6534
429 1 40.4586 21.8296 48.093
436 1 37.9454 21.461 47.2725
435 1 38.6828 20.8663 47.5196
433 1 39.5717 21.0924 47.9864
431 1 40.1601 21.289 49.3101
432 1 39.426 20.7403 49.0603
318 1 41.7788 22.634 48.8208
319 1 41.8876 21.8298 49.3651
315 1 39.2905 22.4732 49.1858
316 1 39.9596 22.7458 48.5495
303 1 40.4127 24.1492 47.9562
302 1 40.0024 24.158 48.9323
317 1 40.815 22.4261 48.9229
305 1 41.0436 24.4143 48.9507
304 1 41.3934 24.2417 47.9865
223 1 22.9543 2.76147 53.0223
239 1 22.5382 3.91038 51.8116
221 1 21.8355 3.09845 51.6898
222 1 22.6529 2.77982 52.079
232 1 22.9654 3.57008 54.7831
231 1 22.5613 2.67989 54.6156
381 1 6.91662 19.6748 52.3714
421 1 38.5024 21.0996 48.663
264 1 5.58602 17.4731 51.2045
265 1 4.60418 17.4041 51.6279
263 1 6.42062 17.6694 51.6584
383 1 7.49735 19.8414 54.1308
384 1 7.51341 18.8597 54.3911
382 1 6.84215 19.7139 53.3234
261 1 5.94876 18.6983 51.8238
422 1 38.4531 20.2218 48.5114
262 1 6.93926 18.6229 51.8891
385 1 6.92439 18.6899 53.7427
301 1 39.0381 23.977 48.5655
240 1 22.1128 4.13617 52.5784
224 1 23.2274 3.57561 52.5958
227 1 23.3165 3.94769 53.8904
238 1 22.6406 4.87838 52.0878
225 1 24.0456 4.02161 52.3538
228 1 22.6074 3.48745 53.5759
229 1 21.9394 4.20043 53.7056
230 1 21.7097 3.42225 54.2955
236 1 22.3931 5.19256 53.5082
237 1 22.2364 5.54087 52.6096
233 1 22.9773 4.28666 55.337
234 1 22.4295 4.84773 54.7445
235 1 21.7185 5.13802 54.2045
278 1 3.54398 17.1983 54.5242
274 1 6.19279 16.532 55.6384
266 1 5.09889 16.5192 51.6906
273 1 6.04383 15.9143 54.9926
272 1 5.54588 16.3013 54.1945
271 1 6.02546 17.2422 53.8861
269 1 6.19712 16.5891 53.0124
268 1 6.31424 16.1732 52.0929
267 1 5.81787 16.3116 51.2346
388 1 5.72083 19.0054 53.0168
389 1 6.16173 18.1886 53.2935
387 1 5.91903 19.6713 53.7324
386 1 6.49863 19.349 54.5053
226 1 23.307 4.62422 53.0079
142 1 34.738 11.6553 56.479
143 1 35.1691 12.2595 57.1379
141 1 33.8384 11.5117 56.2325
145 1 34.4194 13.1041 56.0754
144 1 34.2417 12.6014 56.9416
277 1 4.40759 16.8466 54.8441
276 1 5.18617 16.4886 55.2549
398 1 4.96392 17.8309 55.5543
399 1 5.8119 18.42 55.8486
397 1 5.16907 17.9632 54.6436
280 1 3.75683 16.6077 53.4562
279 1 3.29844 17.3471 53.7039
275 1 5.85245 17.2921 55.0429
270 1 5.36056 17.0445 53.3618
394 1 5.09046 18.1854 53.5296
391 1 4.89817 18.2821 52.299
392 1 4.76072 17.6205 52.8699
390 1 5.91889 17.8257 52.478
161 1 47.091 26.4365 53.2011
154 1 36.5663 11.3065 56.001
146 1 35.3776 12.5724 56.0664
152 1 35.9694 12.2119 54.86
153 1 36.6193 11.5939 55.1511
151 1 35.4767 11.4985 55.5814
148 1 34.9681 12.3301 54.2269
147 1 34.8168 12.3491 55.2264
149 1 35.0923 11.4614 54.5466
400 1 5.82448 19.4308 55.5776
395 1 4.87267 19.0069 53.9801
396 1 5.7262 18.6419 54.4045
393 1 4.36116 17.5825 53.8155
162 1 48.0929 26.5191 52.8737
167 1 47.3123 26.7119 54.3179
166 1 48.1202 26.7148 55.0695
163 1 48.1355 25.9488 53.8224
174 1 48.9324 27.0259 52.5994
175 1 48.9372 26.7128 53.4438
250 1 50.1733 29.7278 54.2006
180 1 49.5449 26.1986 52.7506
179 1 50.2293 25.9564 53.4417
173 1 49.4348 27.7343 52.9558
172 1 48.8639 28.5696 53.1099
251 1 49.5219 29.4254 53.4694
256 1 49.7303 28.4808 53.9605
252 1 49.8903 28.7097 52.7611
254 1 50.4658 27.2102 53.7495
255 1 50.2112 27.8348 54.4757
253 1 50.5386 28.0729 53.3529
156 1 34.9856 10.3667 55.5507
155 1 35.8362 10.5981 56.028
157 1 34.0071 10.5404 55.8601
158 1 34.4568 11.2571 55.3581
160 1 33.674 12.379 55.0807
159 1 33.8374 11.5604 54.6061
150 1 35.7427 10.8846 54.9421
165 1 48.7658 25.9061 54.8114
177 1 50.1496 26.6169 54.6544
164 1 48.9804 25.6093 53.7603
178 1 50.2149 25.6575 54.3948
169 1 47.2767 27.6331 53.672
168 1 47.5414 27.5706 54.618
176 1 49.4945 26.3938 54.0792
260 1 48.9872 28.0654 54.9416
258 1 48.5107 27.311 54.3988
170 1 47.3275 27.6332 52.7536
171 1 48.3401 27.855 52.7279
257 1 49.3709 27.6296 53.9274
249 1 49.4957 29.4666 54.8209
248 1 48.8708 29.7708 54.0865
247 1 48.7165 28.8055 54.1502
246 1 48.1501 28.1888 53.882
259 1 49.3165 27.0654 55.0562
244 1 47.2601 28.5399 54.1576
242 1 48.225 29.4519 55.0566
241 1 47.3798 29.4977 55.6358
243 1 47.739 28.6728 55.0156
245 1 47.7303 28.7718 53.2867
ITEM: TIMESTEP
27000
ITEM: NUMBER OF ATOMS
500
ITEM: BOX BOUNDS pp pp pp
0.0000000000000000e+00 6.0000000000000000e+01
0.0000000000000000e+00 6.0000000000000000e+01
0.0000000000000000e+00 6.0000000000000000e+01
ITEM: ATOMS id type x y z
281 1 41.6116 49.4307 14.007
282 1 41.7271 50.3571 14.1189
40 1 42.2696 8.30046 15.1222
39 1 42.4787 7.45729 15.2766
38 1 41.753 7.6056 15.9774
300 1 43.3647 50.2613 13.5861
293 1 42.6304 50.9796 13.7353
284 1 41.3745 49.9323 12.9636
298 1 42.2981 48.9551 13.2251
299 1 42.6979 49.5835 13.9231
283 1 42.2453 50.1869 13.2103
28 1 42.2526 6.79663 14.4208
36 1 41.6681 6.73012 15.3974
27 1 42.735 6.1911 15.0933
29 1 41.844 7.34654 13.6625
30 1 42.0848 6.44716 13.4398
37 1 42.1875 6.75406 16.2936
31 1 42.2201 5.62213 13.9649
292 1 41.9942 51.4155 13.0474
291 1 41.4647 51.5166 12.189
294 1 43.3185 51.4709 13.3766
297 1 42.3749 49.4557 12.3499
295 1 42.9638 51.119 12.4801
296 1 42.9313 50.1912 12.4564
286 1 40.8447 49.4247 12.296
287 1 40.4641 50.1057 11.6534
285 1 41.0454 48.9994 13.2508
21 1 42.5812 8.05045 16.7736
23 1 43.6766 8.19406 15.2512
22 1 43.2174 8.02698 16.1232
24 1 43.1982 7.68213 14.4849
25 1 43.6042 7.09741 14.8697
34 1 40.7974 7.23799 14.3308
26 1 43.1426 6.82601 15.8478
35 1 40.8778 7.51213 15.2944
32 1 41.4249 5.78458 14.7398
33 1 41.1441 6.44498 14.0781
2 1 48.8846 40.6909 18.7547
3 1 48.4987 39.8556 19.0172
1 1 49.2302 40.6537 19.624
288 1 41.1858 50.2715 10.961
289 1 41.4973 50.2463 11.8558
290 1 42.057 51.029 11.6049
10 1 50.3834 41.0141 17.2634
13 1 50.1288 40.7887 18.8881
12 1 49.5 41.4639 18.3616
14 1 50.026 39.9085 19.284
5 1 49.0026 39.3258 17.5647
4 1 49.3436 39.674 18.4213
15 1 50.5334 39.4706 18.6602
16 1 51.138 40.2598 18.6975
20 1 52.9881 41.5458 20.6716
17 1 51.421 41.0337 19.3164
18 1 51.2857 40.7901 20.3642
19 1 52.0305 41.1751 20.845
11 1 50.131 41.8929 17.7012
9 1 50.0037 40.4271 17.9364
6 1 49.838 38.8832 17.5435
7 1 49.9806 39.7709 17.0975
8 1 50.6234 39.7135 17.584
448 1 4.13674 46.7873 24.5958
458 1 3.66431 46.9049 27.9468
460 1 4.50543 46.8831 26.3349
459 1 3.80651 46.5489 27.038
447 1 3.36583 46.9537 24.1289
446 1 3.56198 47.986 24.1633
449 1 3.83356 47.3405 25.2864
450 1 3.41372 47.2175 26.0835
456 1 3.02959 45.8343 27.4034
455 1 2.44527 46.3749 26.6697
457 1 2.64087 46.7104 27.7214
453 1 1.76218 46.4314 25.8624
454 1 2.29387 47.2772 26.1246
95 1 41.7493 20.7906 30.0952
443 1 2.80804 47.5293 25.1751
445 1 3.08557 48.598 24.7214
442 1 2.08026 48.1086 25.1525
444 1 3.28083 48.2967 25.7088
451 1 3.06444 46.5436 25.6114
441 1 1.55122 47.2362 25.1741
452 1 2.14845 46.2331 24.9777
360 1 42.6381 18.0736 31.6629
359 1 43.2683 18.9297 31.4792
92 1 42.039 19.6733 29.1773
90 1 43.2849 18.6799 30.1598
91 1 42.4336 19.0405 29.674
89 1 43.4745 18.9324 29.2232
94 1 42.4839 20.823 29.4301
93 1 43.0301 20.0077 29.316
86 1 43.2736 20.0583 28.0645
88 1 42.6303 18.9585 28.6502
97 1 42.4094 19.9158 30.2301
96 1 41.5321 19.9922 30.6364
342 1 41.8553 21.0789 32.4569
341 1 41.6009 20.1126 32.8182
71 1 21.3875 59.4036 28.0487
70 1 20.4126 59.2742 27.8253
80 1 22.4336 57.4575 27.6342
68 1 21.4929 57.9677 27.3413
69 1 20.7497 58.582 27.0325
66 1 21.214 59.7567 26.8959
358 1 44.1012 19.2706 31.9177
357 1 44.7529 20.056 31.7411
84 1 44.1296 19.8047 29.5563
83 1 44.8854 19.428 30.0965
356 1 43.7675 20.2921 31.9154
85 1 44.1693 20.0543 28.6787
98 1 42.7016 20.7164 30.4454
355 1 43.6379 20.8487 31.1288
82 1 44.1413 19.7388 30.7817
353 1 43.5576 21.7564 30.737
87 1 43.1582 19.0837 27.8314
99 1 42.9299 20.0725 31.1621
100 1 42.2315 19.2618 31.0511
345 1 42.7761 19.6098 32.5222
343 1 41.9426 20.7934 31.3093
349 1 43.0602 21.7016 31.6373
352 1 43.1971 22.5217 30.2201
350 1 42.1761 21.9914 31.1595
351 1 42.6382 21.7983 30.2813
346 1 43.0557 20.4268 33.1649
348 1 42.8331 20.8636 32.0237
347 1 43.3031 21.2178 32.7574
461 1 9.49673 57.9866 31.8643
73 1 20.8364 57.6045 28.529
74 1 21.0841 56.6458 28.6624
72 1 21.5386 58.3357 28.316
79 1 23.1536 56.6879 27.3301
75 1 21.9681 57.1783 28.7793
76 1 22.9215 57.5492 28.4795
65 1 21.3642 0.354307 27.6863
78 1 23.6618 57.5087 27.5735
77 1 23.9272 57.7969 28.4881
67 1 21.7231 58.9605 27.1662
81 1 44.6966 20.5532 30.6214
354 1 43.695 21.0444 30.0633
344 1 42.148 19.9058 31.9339
107 1 55.9789 49.7006 32.3758
120 1 54.796 48.229 31.6329
105 1 57.2278 49.8641 32.0543
104 1 56.5649 49.7671 31.2692
110 1 54.2561 49.3876 30.4321
108 1 55.2935 49.2031 32.0176
109 1 54.6131 49.2933 31.328
476 1 9.72556 57.4827 34.0019
420 1 9.38328 58.3263 33.4841
419 1 10.2325 58.5617 34.0565
462 1 10.3785 57.6591 31.532
402 1 10.9902 57.9346 32.5279
62 1 22.5212 58.6936 28.1316
63 1 22.2316 59.6171 28.6112
64 1 22.3289 0.104426 27.7533
61 1 23.0031 59.243 27.4956
401 1 10.1453 58.4113 32.6743
122 1 14.769 8.99939 35.6554
124 1 16.4438 9.55965 36.8386
123 1 15.5988 9.59449 36.0783
119 1 55.2064 48.2245 30.6683
103 1 57.2279 50.1467 30.5696
101 1 57.1247 49.0071 30.7269
106 1 56.6439 49.0474 32.2143
102 1 56.5406 49.548 30.1106
118 1 55.83 48.5858 31.4256
117 1 55.515 49.2262 30.7024
116 1 55.4744 49.9714 31.3538
111 1 54.7873 48.7665 29.7389
113 1 55.675 49.8614 29.2946
112 1 55.6952 48.9385 29.6567
115 1 55.9086 50.4372 30.5118
471 1 9.68735 57.6176 35.0521
472 1 8.68284 57.8422 35.4075
470 1 10.2997 57.0179 35.5412
475 1 8.81813 57.3652 34.3169
418 1 9.49284 58.9971 34.5286
474 1 8.06729 57.0337 34.8863
477 1 10.498 57.5778 33.2721
478 1 11.0018 57.146 34.0613
473 1 8.52536 56.9493 35.6207
465 1 9.35958 56.921 32.7616
464 1 9.56561 56.3798 31.8481
463 1 10.3701 56.9305 32.3007
480 1 11.2191 58.1691 33.637
479 1 11.0741 58.0853 34.5633
417 1 9.46969 58.5409 35.3632
403 1 12.0177 58.0057 32.5482
404 1 11.5821 57.113 32.8751
405 1 11.9175 56.79 33.7013
412 1 10.6395 59.1938 35.4864
406 1 11.7073 57.0114 34.785
134 1 17.9905 8.06323 35.7686
133 1 17.392 8.03699 36.489
132 1 17.1617 8.41631 37.3071
131 1 17.075 8.62775 38.1782
482 1 14.0248 8.23661 35.4567
481 1 13.1579 7.89959 35.716
323 1 16.039 7.74631 34.4237
321 1 17.5701 8.15239 34.1103
322 1 17.1087 7.44559 34.6225
125 1 15.6128 9.69008 37.5093
490 1 16.3512 8.51973 36.3495
491 1 16.242 7.97114 37.1445
126 1 15.0185 9.68048 38.2766
483 1 14.2036 8.45087 36.3759
121 1 14.5877 9.55988 36.4438
489 1 15.5883 8.12016 35.8508
484 1 13.5017 7.84782 36.6059
488 1 15.2109 8.56397 36.6236
486 1 14.5685 9.05771 37.4476
485 1 13.7137 8.64302 37.4145
50 1 19.0452 26.1854 37.2624
49 1 18.4139 25.5277 37.6654
51 1 19.4631 26.7518 36.5657
54 1 19.6302 25.6571 36.3848
114 1 55.0736 50.1236 29.9964
468 1 9.35071 56.4572 34.595
469 1 10.4693 56.6161 34.666
416 1 9.71849 58.8593 36.2368
467 1 9.65523 55.9244 33.9911
466 1 9.66783 56.1564 33.0581
411 1 11.5489 59.4826 35.679
410 1 11.0314 0.165185 34.953
407 1 12.1486 57.7712 34.57
408 1 11.8057 58.7604 34.3856
409 1 11.0718 59.2957 34.3033
140 1 16.6632 6.33434 36.7122
136 1 17.7663 6.37218 35.0657
326 1 16.598 7.66482 35.5664
327 1 16.8103 6.6763 35.5239
130 1 16.7043 9.50961 37.9563
135 1 17.5834 7.29405 35.478
500 1 13.5509 5.95559 35.5444
324 1 16.0374 6.71151 34.5292
499 1 12.9046 6.61052 36.0998
492 1 15.7744 7.26173 36.6993
493 1 15.2881 7.65788 37.7244
494 1 14.5347 7.8149 37.1868
325 1 15.7206 7.25964 35.3002
331 1 14.7402 6.99481 36.3836
127 1 14.789 8.72389 38.4095
378 1 16.4206 6.95493 37.8074
128 1 15.3147 8.37146 39.0199
129 1 15.9466 8.97308 38.4742
332 1 14.374 5.97881 36.4474
497 1 13.8155 6.78141 37.5288
498 1 13.6446 6.65811 36.7025
487 1 15.6674 8.71893 37.5585
47 1 19.1672 26.1386 38.3937
48 1 18.7452 25.1696 38.5731
44 1 21.207 25.6406 36.8345
46 1 20.0284 26.1473 37.9032
52 1 19.7478 26.8837 35.6309
45 1 20.9506 26.3016 37.5557
55 1 19.4718 25.1913 37.3039
57 1 18.5886 23.9496 36.811
43 1 20.5935 25.8485 36.1878
53 1 19.4526 25.8514 35.429
415 1 9.35495 57.8548 36.2098
413 1 11.1357 58.3771 35.5751
414 1 10.2631 58.0131 35.7448
138 1 18.0991 5.71532 36.6164
137 1 17.5738 5.78781 35.7938
329 1 15.6476 6.464 35.9065
328 1 16.2667 5.82899 35.3829
380 1 15.5339 6.31689 37.1225
139 1 17.63 6.57996 36.4055
340 1 17.911 5.67389 38.0283
377 1 17.165 7.47289 37.6289
376 1 17.8742 7.98977 37.9292
375 1 18.1326 7.36372 36.9929
333 1 13.5877 5.52314 36.64
334 1 14.255 4.81297 36.4272
330 1 14.7041 6.44415 35.4582
495 1 14.2408 7.64061 38.2344
379 1 15.8006 6.30421 37.9582
368 1 16.8904 6.1377 38.7964
373 1 17.7274 6.72794 38.6163
496 1 13.3285 7.59695 37.8876
371 1 15.8266 7.23001 38.6338
56 1 19.0536 24.3989 37.6617
58 1 17.6019 24.1346 37.1233
59 1 16.8337 23.4172 37.5376
60 1 16.5557 24.3918 37.1972
41 1 20.2301 26.9774 37.2459
42 1 20.8393 26.8011 36.5299
336 1 14.8734 5.43756 37.8828
361 1 15.4323 4.9214 36.7025
363 1 17.1554 4.88698 36.6085
337 1 15.8116 5.28266 37.7427
338 1 16.6779 5.69848 37.9016
339 1 17.3355 6.29641 37.7176
374 1 18.1367 6.99178 37.9867
335 1 14.5757 4.80563 37.2704
365 1 16.3698 4.24168 37.6315
367 1 16.7331 5.25037 39.1776
366 1 16.2437 4.69803 38.5794
372 1 16.8375 7.1438 38.7475
369 1 16.1633 6.30395 39.5795
370 1 15.1615 6.69259 39.2631
362 1 16.2403 5.33408 36.4744
364 1 17.1892 4.55842 37.4908
194 1 24.1847 33.0288 45.6905
220 1 24.69 32.4462 42.8149
219 1 25.0945 33.3681 42.9126
187 1 23.1788 31.5832 46.6768
211 1 23.8522 31.4716 44.1292
210 1 24.8309 31.6377 44.0083
208 1 25.0856 31.3554 42.4374
188 1 22.6659 32.3958 46.6964
191 1 22.6669 34.3661 46.2689
193 1 23.1693 33.1243 45.6015
200 1 22.324 32.4277 45.4217
197 1 22.6581 33.4343 44.4435
195 1 24.0951 33.5979 44.9373
196 1 23.1454 34.0105 45.1247
217 1 24.0492 32.4412 43.7464
218 1 24.8582 33.0576 43.8406
190 1 22.6557 33.4534 46.7761
189 1 23.4967 32.873 46.9026
192 1 23.4803 33.8529 46.204
186 1 23.3158 32.1461 45.9424
213 1 22.9113 30.994 43.4496
212 1 23.2598 30.7149 44.3442
205 1 24.1492 30.3205 43.721
209 1 25.6084 31.6194 43.246
207 1 25.1371 30.7102 43.2792
206 1 24.308 31.201 43.1863
185 1 23.4772 31.6219 45.0709
183 1 24.6664 30.6801 44.6392
182 1 25.6008 30.8216 44.2126
201 1 25.5772 29.3124 44.2211
203 1 24.4927 29.3622 44.1215
202 1 25.0464 28.892 44.8511
198 1 21.8361 32.7862 44.5581
199 1 22.2033 31.8921 44.6395
214 1 23.2999 31.7864 43.2802
216 1 23.8105 32.5912 44.661
204 1 24.5826 29.7016 43.1824
215 1 22.9892 32.3707 44.0761
181 1 26.1183 30.7124 44.9553
184 1 24.4329 31.5401 45.0848
426 1 37.7364 22.996 46.371
434 1 38.4529 23.7857 47.0013
309 1 39.6004 24.816 47.8335
308 1 39.9705 25.4839 48.5208
423 1 37.7094 22.8324 48.2782
425 1 37.8082 23.0031 47.3108
424 1 36.9217 23.1851 47.6204
437 1 37.2903 25.809 46.8023
422 1 38.3627 23.6344 48.2736
435 1 37.441 23.928 46.9452
433 1 38.9437 22.9966 47.3503
427 1 37.8203 23.8324 45.8651
428 1 38.6958 24.1782 45.5258
440 1 39.0555 26.6741 46.1918
313 1 38.5223 24.569 47.5449
439 1 38.1674 26.4663 45.9515
436 1 37.1195 24.7362 46.6097
312 1 38.1514 25.0043 46.7415
310 1 39.4624 25.5414 47.2142
316 1 38.3668 25.7314 48.0049
429 1 39.2192 24.8008 46.0791
311 1 38.6692 25.7706 46.7296
301 1 38.8351 27.643 48.5738
307 1 39.4513 25.5199 49.5577
303 1 38.0314 26.8536 48.5631
304 1 37.3729 26.1351 48.3052
421 1 37.3437 23.9574 48.3654
432 1 39.5552 23.768 47.3877
431 1 39.3947 23.6266 46.2914
438 1 37.8108 26.532 46.795
314 1 37.6056 25.063 47.6041
315 1 37.8584 24.923 48.4813
430 1 40.0557 24.3006 46.1838
317 1 38.9364 25.1054 48.5119
318 1 39.446 24.1344 48.657
319 1 38.6498 24.3208 49.1677
306 1 39.0763 26.221 49.0156
302 1 38.4286 27.3098 49.3939
305 1 38.0785 25.8703 49.1231
267 1 9.41745 15.7536 54.0494
264 1 9.07889 16.5769 53.1909
320 1 39.0788 24.4942 50.1728
222 1 23.3325 1.53983 54.0241
239 1 25.0687 6.49877 55.3797
221 1 23.6398 2.25519 53.3493
240 1 24.8811 5.89398 56.2695
224 1 24.4988 2.00284 53.8931
225 1 24.7967 2.54838 53.2069
238 1 24.2766 6.18233 54.7558
237 1 23.4933 6.12963 55.5319
266 1 8.75932 15.179 53.6356
268 1 8.90339 16.4562 54.6171
265 1 8.5782 15.8164 52.8862
391 1 8.0845 16.1736 54.0262
263 1 8.59417 17.0912 52.4639
390 1 7.97008 17.1625 53.9636
381 1 6.48129 18.3595 55.0199
261 1 9.05152 15.6523 51.114
262 1 8.58855 16.1666 51.9247
174 1 50.971 26.0676 51.3568
180 1 52.4863 23.6345 52.1255
170 1 48.6596 25.0728 51.7842
171 1 48.9855 25.8961 51.8924
252 1 49.7136 28.1569 51.4926
223 1 23.6622 2.30566 54.3474
228 1 22.9659 3.89433 55.0032
229 1 22.0358 4.10838 55.3156
230 1 21.7445 4.28424 54.4223
227 1 23.7433 3.47571 54.2938
236 1 22.9992 5.39797 56.0162
235 1 22.3995 4.69311 56.3082
226 1 24.4685 2.99496 54.009
148 1 36.8737 11.9879 56.0879
280 1 5.077 16.7932 55.8775
272 1 8.52303 16.7223 56.2455
270 1 7.79366 17.2092 55.115
269 1 8.79199 17.2682 55.2939
279 1 5.97515 16.3891 56.078
394 1 6.02979 17.4549 54.9438
392 1 7.08851 16.5185 54.3286
393 1 6.17512 16.757 54.2981
271 1 8.06212 16.2442 55.485
389 1 7.51706 16.9941 53.0611
388 1 6.64732 17.3971 53.6414
395 1 5.0916 17.4192 54.6898
382 1 7.1884 17.9352 55.4661
385 1 6.648 18.6109 54.0711
387 1 5.746 17.5478 53.8787
383 1 7.02967 17.6295 54.5337
164 1 49.9194 25.9838 53.3355
161 1 50.1776 25.1141 51.8677
162 1 50.4294 24.6947 52.8325
163 1 50.7396 25.6284 53.1365
175 1 50.9322 26.4203 52.2078
176 1 51.734 25.9131 52.2769
179 1 52.3024 24.003 51.1826
169 1 47.8385 25.7636 52.022
246 1 46.2993 27.9931 51.0005
173 1 49.928 25.9327 51.2162
172 1 49.8305 26.1252 52.266
256 1 49.078 27.607 52.2547
257 1 48.5794 26.8982 51.6039
254 1 49.0774 27.3165 50.8268
253 1 50.0114 27.7213 50.6357
244 1 45.9032 29.4727 50.9481
245 1 45.7476 28.6959 50.5295
251 1 48.6284 28.0697 51.3312
248 1 47.4137 27.9436 51.2721
247 1 46.6557 27.9161 51.9235
250 1 48.6943 28.925 51.6565
231 1 22.5167 4.80395 54.6524
232 1 21.7145 5.29823 54.5861
233 1 22.1333 6.02903 55.224
234 1 21.8967 5.40011 55.8746
156 1 35.889 10.838 56.5667
158 1 37.5691 10.6434 56.8765
150 1 35.6251 12.266 55.293
160 1 38.7658 11.7259 57.0973
159 1 38.4255 10.8949 56.7511
151 1 35.9192 11.4552 55.679
147 1 37.7186 11.7919 56.4607
149 1 35.9401 12.4629 56.2334
152 1 35.7762 10.9617 54.8966
153 1 34.9114 11.3458 55.1627
277 1 7.05778 16.0092 55.5375
276 1 6.8576 16.9101 55.349
274 1 6.95715 17.6257 56.4551
273 1 7.77727 17.2304 56.3142
278 1 6.03365 15.9373 55.1973
398 1 4.60245 17.9735 56.068
397 1 4.40438 18.7195 55.2882
275 1 6.24245 17.54 55.9131
396 1 5.32691 18.2038 55.2454
386 1 5.60306 18.5108 54.2595
400 1 3.52076 18.1294 56.134
384 1 7.31547 18.2103 53.5718
178 1 51.8892 24.6024 51.6826
167 1 48.7612 24.6293 53.3743
166 1 49.3104 25.134 52.5763
165 1 49.6505 25.1041 53.4922
259 1 47.9666 27.4895 52.1491
177 1 51.1863 25.194 52.0053
168 1 48.142 25.2742 52.8905
258 1 48.5598 26.7178 52.5801
260 1 47.3446 26.9039 52.7084
255 1 49.6581 27.0126 51.6546
242 1 46.7231 28.9635 51.4652
241 1 46.6084 29.3911 52.4858
243 1 45.6791 28.959 51.719
249 1 47.7102 28.7724 51.8065
157 1 36.6687 11.1109 56.8991
154 1 34.9773 11.0613 56.1199
155 1 35.3609 11.5689 56.8559
141 1 38.1832 11.1516 55.625
144 1 37.6478 12.1882 55.4524
142 1 37.1767 11.0007 55.6517
143 1 36.8757 11.6254 55.0132
146 1 38.0086 12.6935 56.7961
145 1 38.4135 12.3604 55.8861
399 1 4.08427 17.1233 55.8459
ITEM: TIMESTEP
28000
ITEM: NUMBER OF ATOMS
500
ITEM: BOX BOUNDS pp pp pp
0.0000000000000000e+00 6.0000000000000000e+01
0.0000000000000000e+00 6.0000000000000000e+01
0.0000000000000000e+00 6.0000000000000000e+01
ITEM: ATOMS id type x y z
288 1 42.8685 51.2887 14.0853
286 1 43.6737 51.5246 12.5134
297 1 42.2027 49.9621 12.7802
287 1 43.6618 51.1289 13.4826
289 1 42.6498 51.0267 13.1832
290 1 41.7339 50.8672 13.484
295 1 41.3296 49.8386 12.0296
296 1 41.1227 50.1484 12.8778
291 1 40.7123 51.0921 13.639
31 1 43.4048 7.39162 15.2347
33 1 43.1854 7.04318 16.2969
30 1 44.0087 6.66774 15.574
29 1 43.111 6.33397 15.3021
284 1 42.0445 50.943 12.3279
285 1 43.035 50.8086 12.256
281 1 40.9688 51.1544 11.0026
298 1 42.4108 49.9395 11.7957
299 1 41.9141 50.5837 11.3785
282 1 40.629 50.7539 12.0079
293 1 40.0017 50.0267 12.6707
283 1 41.1613 51.3191 12.6197
292 1 40.178 50.1692 13.6336
300 1 42.3845 51.4432 11.4824
294 1 40.4487 49.5327 12.1971
28 1 42.4456 6.954 15.3402
36 1 43.7495 6.60222 17.2687
27 1 41.7859 7.77858 15.0487
32 1 42.7673 7.78038 15.9361
25 1 41.9215 7.36613 16.4809
34 1 43.7264 7.96745 16.3884
35 1 44.372 7.13422 16.4977
40 1 41.9642 5.9634 15.1262
39 1 42.6024 5.29974 15.5753
23 1 41.1189 7.01004 16.9543
24 1 42.1098 6.67774 17.1156
37 1 42.9856 6.11063 16.8801
26 1 41.3487 7.2134 15.6854
38 1 42.3586 6.18968 16.0694
21 1 41.6992 5.25373 16.1037
22 1 41.2577 6.12705 16.3184
7 1 46.0271 41.2871 22.0474
5 1 46.065 41.2123 20.9971
4 1 45.8253 42.3065 20.8544
6 1 45.1971 41.2144 21.4468
8 1 46.1626 40.2656 21.7679
9 1 46.9407 40.8978 21.4144
10 1 47.8763 41.0195 21.5162
12 1 48.7627 41.337 20.195
11 1 48.665 40.6919 20.8242
3 1 46.3351 42.044 20.0982
14 1 47.7415 41.8309 19.7691
15 1 47.8097 42.3966 20.6662
2 1 46.7898 41.0747 20.0781
1 1 46.8989 41.3617 19.134
13 1 47.7964 40.8695 19.9819
16 1 47.4625 41.5531 20.7965
17 1 46.8033 41.9233 21.323
18 1 47.304 42.7568 21.4704
19 1 46.9207 43.0683 20.506
20 1 46.4824 43.0875 19.6281
447 1 6.46326 46.9367 25.7641
446 1 6.88008 46.2471 25.1214
452 1 5.38398 49.3065 24.6637
448 1 7.5948 46.9833 25.8243
451 1 5.91118 48.8774 25.3788
443 1 6.12783 47.9461 26.108
442 1 6.97586 47.6938 26.6042
441 1 6.08574 47.1336 26.9197
449 1 7.41214 47.8915 25.5113
445 1 6.49533 46.8971 24.5069
455 1 5.20364 47.1412 24.8859
453 1 5.94958 48.507 24.327
459 1 7.1691 48.1306 23.0438
460 1 7.01197 47.6587 23.9197
454 1 5.06029 48.08 24.7285
450 1 6.89247 48.6613 25.2726
444 1 6.14605 47.751 25.032
69 1 22.1364 58.012 26.7482
66 1 21.1865 57.1339 25.2438
65 1 20.5961 58.0126 25.3653
64 1 20.6947 58.8119 24.8323
87 1 41.0737 18.7999 29.9542
86 1 40.3604 19.5159 29.6924
457 1 5.24962 47.934 23.4142
458 1 6.09082 48.0666 23.0106
456 1 5.69089 47.2933 24.0817
79 1 21.8583 56.6791 23.2174
73 1 23.3063 58.377 25.8888
80 1 21.411 56.0445 23.8914
68 1 21.9417 57.553 25.9413
72 1 22.331 58.6724 25.7461
76 1 22.8888 57.9567 25.0188
78 1 21.4279 57.1829 24.1416
77 1 22.02 57.5629 24.8373
71 1 21.8835 59.3407 26.0917
70 1 22.1077 59.0717 26.9265
67 1 21.1394 57.0689 26.1469
62 1 22.0174 59.5956 24.842
63 1 21.1395 59.6304 25.0407
61 1 21.5392 59.4048 23.9824
92 1 41.6651 19.4287 30.8564
91 1 42.4044 19.0051 30.3821
88 1 41.6918 18.2913 29.4818
89 1 41.7472 19.2734 29.0815
93 1 40.5541 19.1971 30.8782
84 1 40.9414 20.278 29.8352
94 1 39.5801 19.7728 30.8529
85 1 39.9803 20.2608 29.7933
111 1 55.483 50.5213 30.1917
113 1 54.4754 50.8289 29.3796
112 1 54.7702 49.9658 29.8521
114 1 55.1184 50.2595 28.9033
74 1 23.1151 59.3545 25.7725
75 1 23.2643 58.9697 24.8027
97 1 39.6448 19.0816 32.4365
96 1 39.4645 20.113 32.725
100 1 42.0966 18.5083 31.2316
90 1 42.1347 19.7597 29.8513
82 1 42.2499 20.9438 29.3316
83 1 41.5233 21.1355 29.8241
95 1 39.7967 20.1916 31.7674
98 1 40.1934 18.5746 31.7821
343 1 41.3471 17.6313 31.4508
355 1 41.5657 20.5898 32.2465
99 1 41.2484 18.7199 31.6939
354 1 41.0453 21.5134 31.7517
81 1 41.5127 20.4946 28.6821
350 1 40.8485 19.4222 33.1711
351 1 40.8176 19.5643 32.193
353 1 40.49 20.8895 31.232
352 1 40.9903 20.1391 31.4403
119 1 55.4271 48.6814 29.1729
118 1 54.9238 49.2287 28.6799
110 1 55.8675 49.9041 29.5422
109 1 56.0995 49.5658 28.6223
117 1 54.9683 49.5984 27.8229
116 1 55.702 50.336 27.856
104 1 54.205 50.0535 28.633
101 1 54.614 48.0902 28.9786
102 1 53.7834 48.6043 28.9
115 1 54.8016 50.7901 28.2015
103 1 54.1506 49.3346 29.3786
360 1 43.3707 20.3508 30.2738
345 1 41.9227 17.6149 32.645
344 1 41.3435 16.8814 32.1842
359 1 42.5825 20.8815 30.3003
358 1 41.8192 20.5523 30.7587
342 1 40.8459 17.5366 30.6324
341 1 41.7481 17.5665 30.4658
348 1 42.7729 19.8178 32.898
356 1 41.8774 19.7866 31.8393
347 1 42.3592 18.9551 32.3247
357 1 42.5629 19.895 30.9997
349 1 41.7732 19.5832 32.9617
120 1 55.6499 47.9961 28.6103
108 1 55.6857 48.8644 27.949
107 1 54.9419 48.3577 27.9173
106 1 54.1691 48.7579 27.9701
105 1 53.9329 49.6361 27.7333
465 1 7.05397 56.7004 34.1154
464 1 7.64386 57.1651 33.3844
463 1 8.4163 56.7145 33.1133
404 1 9.34346 57.242 33.0054
461 1 8.4451 55.7402 32.4108
462 1 8.03358 55.883 33.2878
402 1 8.51592 57.0124 32.2079
401 1 8.55469 56.7931 31.213
403 1 9.51553 57.3177 32.0701
321 1 15.0931 6.76534 34.1036
346 1 42.6334 18.2261 32.9368
467 1 7.35007 56.4754 35.2676
466 1 6.5424 56.2292 34.7913
405 1 10.4191 57.0908 32.63
476 1 7.95593 57.2432 34.6277
420 1 8.78184 57.8411 34.2318
477 1 8.5973 56.89 34.1497
478 1 9.52458 56.5718 33.8905
480 1 10.8306 57.7036 33.9505
419 1 9.21748 58.2412 35.0416
409 1 12.1284 56.2356 34.1633
410 1 12.0231 57.0517 34.5157
500 1 13.8921 5.54667 35.5702
330 1 14.6637 6.34396 35.3268
327 1 16.6936 7.81316 36.2083
324 1 15.4508 7.25443 35.184
328 1 16.2537 6.90596 36.0677
136 1 15.2997 8.72779 37.3772
482 1 13.4742 7.41487 36.3642
481 1 14.2696 7.11508 35.9184
323 1 16.142 7.31605 34.4453
322 1 15.9214 6.43639 34.719
326 1 15.8608 8.15673 36.3952
325 1 15.1098 8.01935 35.7022
135 1 14.7106 8.27857 38.0018
122 1 11.5066 8.69501 38.7496
52 1 22.0442 24.7763 36.708
53 1 21.4229 25.5177 37.1141
474 1 8.27503 58.2308 35.9557
473 1 7.72165 57.7286 36.6166
468 1 8.28977 56.2228 35.1187
470 1 8.93332 57.1487 35.2406
469 1 9.21984 56.2243 35.4894
406 1 10.1751 56.3095 32.7947
471 1 8.21261 56.9205 35.8443
472 1 7.36182 57.437 35.7555
475 1 8.03001 58.0791 35.1577
417 1 10.2377 57.8782 36.6284
479 1 9.90545 57.5714 34.1396
413 1 10.5574 58.18 35.2048
407 1 10.9365 56.7259 33.4705
418 1 9.71866 58.3756 35.9401
412 1 11.1257 57.8865 35.7923
411 1 11.644 57.8737 34.9492
408 1 12.0047 56.5336 33.2512
333 1 16.1384 5.66774 35.3469
334 1 16.4975 5.29521 36.1531
361 1 17.3581 6.79095 34.024
362 1 18.0195 6.74923 34.7704
363 1 18.6748 7.05555 35.4827
499 1 14.8598 5.30291 35.8431
498 1 14.4549 5.93317 36.5025
331 1 14.3699 5.78175 34.4044
332 1 15.2785 5.59836 34.8635
329 1 15.4324 6.24629 35.8697
380 1 15.6859 6.74017 36.9068
140 1 16.4895 7.40297 37.4201
138 1 16.7139 8.33978 38.1594
137 1 16.2993 8.75439 37.2243
139 1 15.9292 7.93806 37.8029
483 1 13.2924 6.36304 36.4558
484 1 13.4624 5.88778 37.1065
489 1 13.9326 7.76104 37.4439
488 1 13.5478 6.9481 37.6374
490 1 14.7147 7.96116 36.9044
492 1 14.3663 6.76562 37.0425
134 1 14.5319 7.57636 38.4078
133 1 15.2957 7.65046 39.1107
375 1 15.5852 5.78586 38.4702
123 1 12.4187 8.37547 38.9221
121 1 11.751 8.85852 37.7162
124 1 12.187 8.654 39.9464
58 1 21.4656 27.3553 38.1503
57 1 20.5878 27.6206 38.1519
54 1 20.5395 26.175 37.1486
44 1 19.5199 25.7711 37.2505
51 1 22.4751 25.5975 36.7552
43 1 19.7552 24.9303 36.7079
42 1 20.7871 24.7268 36.7928
415 1 9.99948 56.7048 35.1215
414 1 10.7293 57.2145 34.8785
416 1 9.84124 57.2654 35.963
365 1 18.2802 5.59172 36.1281
336 1 16.9904 6.29566 35.0619
335 1 17.2823 5.52681 35.628
337 1 17.3447 6.9913 35.6703
366 1 17.9431 5.70642 37.1471
340 1 17.566 7.31147 36.616
364 1 18.8025 6.07199 35.614
497 1 13.9503 5.0995 36.7402
378 1 16.479 5.8016 37.1518
379 1 15.7258 5.73687 36.7215
338 1 17.3935 6.26253 36.3779
339 1 17.3301 6.59364 37.3797
374 1 15.4161 4.70414 38.2245
495 1 14.4959 5.12779 37.8163
496 1 14.9556 4.97354 36.9188
493 1 14.9288 6.09214 37.4337
494 1 14.1099 6.05544 37.953
132 1 15.6513 7.09676 38.4335
491 1 15.0739 7.39577 37.4268
377 1 16.4154 6.41823 37.9566
376 1 16.4709 5.98653 38.8657
485 1 12.6712 6.47266 37.3205
125 1 12.3055 7.92601 40.5475
126 1 11.8863 7.48761 39.8098
486 1 12.6407 7.21978 38.112
127 1 12.6054 7.30761 39.1428
487 1 12.9837 6.35649 38.2821
131 1 14.8214 6.6212 38.6959
130 1 13.7594 6.94527 38.6303
129 1 13.749 7.92224 39.0127
59 1 21.5746 27.3677 37.1218
60 1 21.7105 26.6781 36.6558
49 1 22.2052 25.6193 38.0287
48 1 21.7237 26.0103 38.7989
55 1 21.4204 26.4142 37.722
56 1 20.8061 26.6193 38.4568
50 1 22.993 25.3814 37.482
47 1 21.1162 25.4245 38.3398
46 1 20.4145 25.2555 37.7665
45 1 19.8191 26.0073 38.1516
41 1 20.1701 24.3062 37.566
367 1 17.2242 5.02692 36.9013
370 1 17.2875 4.70834 37.9317
368 1 17.7932 4.13924 36.715
372 1 16.3407 5.18434 38.0111
369 1 17.1564 3.96643 37.4504
373 1 16.0913 4.44566 37.3416
128 1 13.1888 7.38831 39.8369
371 1 17.1696 5.63237 37.9273
208 1 24.0556 33.108 43.7936
220 1 24.0446 30.8246 44.6179
201 1 23.239 33.2935 43.1275
203 1 23.6643 32.9728 44.6963
204 1 24.5778 33.4015 44.9646
213 1 27.4063 31.7541 45.2269
205 1 24.9683 33.7162 44.0672
207 1 24.8703 33.1526 43.1507
206 1 25.3173 32.8232 43.9492
182 1 24.5882 31.2049 45.4806
211 1 25.7647 31.6063 44.4434
217 1 25.7054 31.3728 45.6042
214 1 27.6688 31.7346 46.1859
215 1 27.3076 32.6097 45.9054
210 1 24.8379 31.8487 44.225
209 1 23.9131 32.0416 43.8993
219 1 25.0772 30.541 44.4816
218 1 25.7786 30.4345 45.2034
428 1 38.6918 27.2069 44.8817
202 1 23.1668 33.6484 44.0997
212 1 26.6019 31.3992 44.7865
183 1 23.9995 31.9377 44.8852
181 1 24.7253 30.975 46.4764
200 1 25.1273 32.3857 45.1093
198 1 26.3781 33.1255 46.3496
199 1 25.5403 33.0659 45.7659
185 1 24.7509 32.1372 46.3372
216 1 26.4914 32.1321 45.6037
184 1 23.9056 32.4796 45.7505
197 1 26.4944 32.8645 47.3594
194 1 26.6228 31.7882 46.794
193 1 26.2366 31.5079 47.7662
195 1 27.3499 31.7203 47.5341
196 1 27.3686 32.6673 46.9817
426 1 37.2088 26.4899 45.0671
434 1 37.0068 27.5306 45.4306
435 1 36.2298 27.9006 45.3567
427 1 37.8289 26.9187 44.5619
431 1 38.8425 27.1068 46.0541
436 1 36.5357 28.3057 44.5857
312 1 36.5432 28.1485 46.3696
429 1 38.7123 26.4521 45.1988
430 1 38.0182 26.47 45.8211
437 1 37.1146 28.614 45.3141
439 1 38.3624 28.7967 45.2713
438 1 37.7751 29.241 45.8277
440 1 38.04 27.9928 45.5646
311 1 37.4785 28.3605 46.5756
188 1 26.2859 30.1345 46.5985
187 1 25.8908 31.0477 46.6757
189 1 26.6872 30.3656 45.6115
186 1 25.6818 32.0112 46.5176
190 1 26.9413 31.1057 46.2085
192 1 26.6734 30.7509 47.5878
191 1 27.3973 30.5096 46.783
424 1 36.2794 26.7663 45.7191
423 1 36.2816 26.6738 46.7201
425 1 36.3479 26.9812 44.6513
422 1 36.4886 25.956 47.5366
421 1 35.6576 26.4438 47.7684
433 1 37.3092 27.2774 46.3253
432 1 38.1904 27.5374 46.707
313 1 35.7553 27.6376 46.6939
314 1 36.5481 27.7618 47.4325
315 1 36.998 26.8773 47.6919
309 1 37.9017 29.1992 48.2131
308 1 37.1947 28.7949 48.4674
310 1 38.0724 28.9118 47.259
317 1 37.6642 27.935 47.6732
316 1 37.9345 27.0013 47.5446
303 1 37.7633 28.4352 50.2937
304 1 36.7118 28.3053 50.0716
301 1 38.3708 28.8214 49.1888
318 1 38.3359 27.4068 48.4294
307 1 36.2449 29.2628 48.3347
319 1 37.6516 27.9035 48.957
305 1 36.1094 28.9015 49.4799
306 1 36.7998 29.5477 49.0913
302 1 37.8946 29.4804 49.8407
261 1 8.63124 14.9962 54.3323
179 1 50.2696 26.2117 50.8796
320 1 37.438 27.1772 49.5339
173 1 50.1428 25.5321 49.9685
174 1 50.479 26.3657 49.6067
246 1 47.6078 26.1646 49.4542
248 1 47.6316 26.8314 47.9693
254 1 49.2959 24.5675 48.7327
253 1 48.319 24.3992 48.656
251 1 48.2218 25.2481 49.327
244 1 47.828 27.3876 49.5406
245 1 48.2602 26.551 50.0539
263 1 9.66724 15.1343 54.9342
262 1 9.60176 15.0812 53.951
180 1 50.9542 26.5574 51.6067
170 1 49.7592 24.0504 49.6735
166 1 49.6539 25.378 51.1917
161 1 49.2842 26.6284 50.5431
162 1 48.5607 26.9169 51.091
177 1 51.4403 26.254 49.3898
178 1 51.1698 26.2836 50.4965
169 1 49.6337 23.4038 50.5341
258 1 48.015 25.7529 50.5384
260 1 48.4683 24.4555 50.0328
171 1 50.611 24.2503 50.2844
172 1 50.6459 25.231 50.6896
257 1 49.0349 25.5594 50.1627
255 1 49.7892 25.4935 48.7596
175 1 50.736 25.5381 49.133
176 1 51.2274 25.3027 49.828
247 1 47.3296 26.4112 48.6323
259 1 47.5525 24.7616 50.3819
252 1 47.5541 24.9151 48.5779
256 1 49.2392 26.1901 49.3375
243 1 48.5869 27.0034 49.1104
242 1 49.152 27.3142 49.7553
241 1 48.8625 28.166 50.1557
249 1 48.3208 26.2123 47.6816
250 1 48.3118 25.8657 48.6304
222 1 24.9721 3.33512 57.6506
221 1 24.6947 2.94588 58.4802
224 1 23.8298 3.55203 56.1707
225 1 24.537 3.45271 55.5716
227 1 23.8255 5.14705 54.8889
226 1 23.9265 4.17733 55.1244
266 1 9.7565 16.6744 56.7207
391 1 8.44364 16.8126 56.2205
389 1 9.08676 17.7071 54.6551
267 1 10.0588 16.5759 57.727
264 1 8.92392 15.4664 55.3654
265 1 9.3983 16.1514 55.9302
386 1 9.06503 15.9614 53.0743
388 1 8.74672 16.8499 54.3414
387 1 9.48995 16.2265 53.9411
390 1 9.07104 17.1268 55.5056
384 1 7.82859 16.228 53.1455
385 1 8.45327 15.9513 53.8761
168 1 49.1849 24.1615 50.976
167 1 49.7102 24.5054 51.7705
165 1 48.7592 25.0487 50.9884
163 1 48.7008 26.0508 51.5026
164 1 48.4844 25.1653 51.9699
223 1 24.2704 3.72859 57.0519
229 1 23.7021 5.90695 55.7731
230 1 24.5276 5.7404 56.4089
228 1 23.131 5.15177 55.6781
231 1 25.041 6.56019 56.0732
232 1 24.503 6.37496 55.4191
233 1 25.0608 5.55688 55.5121
237 1 23.5121 3.81747 57.6478
239 1 22.5463 4.42311 56.336
238 1 22.6341 4.15665 57.2672
153 1 39.5071 10.7178 57.7663
152 1 40.0115 11.542 57.6948
141 1 37.6897 12.2645 56.9277
142 1 36.8461 12.4461 56.428
150 1 39.6343 12.0053 56.8564
151 1 39.0408 11.8124 57.6517
143 1 37.3299 11.5967 56
144 1 38.2459 11.6079 56.28
392 1 7.80897 16.0503 56.1046
393 1 8.20283 16.3339 55.1691
277 1 9.99362 15.6034 57.4012
276 1 8.9812 15.5683 57.7179
278 1 10.0591 15.0914 56.505
271 1 7.2373 17.9506 57.6663
268 1 9.16272 16.8246 57.5871
395 1 7.47234 15.29 53.9046
396 1 6.79935 16.1884 53.8376
381 1 7.53782 17.7812 53.8035
394 1 7.56896 15.5375 54.8705
383 1 8.2777 17.039 53.4551
270 1 7.42503 17.07 58.2146
382 1 7.71851 16.9665 54.2844
269 1 8.45194 16.5409 58.3079
397 1 6.77951 16.6278 54.7851
235 1 24.2288 4.62038 56.0444
234 1 25.2587 4.81007 56.1339
236 1 23.5504 4.45973 56.7272
240 1 22.6291 3.46176 56.5003
154 1 40.0119 10.7475 56.883
156 1 38.103 11.3095 57.2733
157 1 38.3818 10.3812 56.9237
158 1 37.4478 10.6622 56.6745
159 1 38.0481 10.4507 55.9482
155 1 39.0477 11.0988 56.8443
148 1 39.4827 12.6612 56.0224
149 1 38.7911 12.4872 56.527
147 1 39.2966 11.6248 55.8711
146 1 39.2552 11.187 54.9671
145 1 38.3767 11.3143 55.2866
160 1 39.107 10.3072 56.0393
399 1 6.24486 16.7969 56.133
280 1 8.68866 15.9981 56.9078
279 1 9.12568 15.1704 56.7244
272 1 6.68974 17.1832 57.4671
400 1 5.4252 16.9421 55.4668
398 1 6.78385 16.2628 55.5295
274 1 8.10975 16.803 57.3639
275 1 7.91196 15.7491 57.6274
273 1 7.18972 16.4009 57.0011
ITEM: TIMESTEP
29000
ITEM: NUMBER OF ATOMS
500
ITEM: BOX BOUNDS pp pp pp
0.0000000000000000e+00 6.0000000000000000e+01
0.0000000000000000e+00 6.0000000000000000e+01
0.0000000000000000e+00 6.0000000000000000e+01
ITEM: ATOMS id type x y z
281 1 41.4377 52.8464 13.5389
299 1 40.6725 49.6935 14.0736
295 1 41.955 52.0412 12.4495
294 1 42.5578 52.1811 11.6673
297 1 41.636 51.2118 13.4501
298 1 41.169 50.4316 13.9736
293 1 41.6946 52.3398 11.4533
282 1 41.0327 52.2292 12.8654
283 1 41.263 51.2635 12.3264
284 1 40.5497 50.7278 11.8875
285 1 40.8701 50.4995 12.7407
300 1 39.9872 50.2818 13.6399
286 1 41.6273 50.114 12.2092
296 1 42.2192 51.0012 12.7203
291 1 42.088 51.2585 11.6127
292 1 42.1267 51.7317 10.7609
288 1 42.2558 50.2154 10.893
289 1 41.3694 50.424 11.1669
290 1 41.1806 51.3774 11.287
287 1 42.4874 50.2866 11.8956
39 1 44.0578 7.30747 17.2053
28 1 42.7744 6.60925 16.0082
40 1 44.2036 8.16089 17.6094
30 1 41.6916 6.6059 16.704
29 1 42.4573 7.09372 16.8978
26 1 42.7352 4.85564 16.1568
27 1 42.4854 5.73689 15.9153
31 1 41.7397 5.54697 16.7793
21 1 44.6229 6.14279 16.3743
23 1 43.4032 6.38888 16.8421
22 1 44.1722 6.09782 17.1783
24 1 43.519 5.42221 16.8126
38 1 43.7073 6.77687 18.0053
33 1 42.5027 5.44032 17.9821
37 1 43.2824 7.59287 17.8892
32 1 42.6037 5.83228 17.0416
25 1 42.735 4.73046 17.1872
34 1 42.2578 6.36187 17.9472
35 1 41.5156 7.09497 17.7565
36 1 42.2106 7.83611 17.6245
1 1 42.7206 43.6524 22.1052
14 1 43.6412 41.7957 23.6134
20 1 44.8088 42.1848 23.3746
5 1 42.9778 42.8403 21.4381
9 1 44.1828 44.2023 23.4633
2 1 43.0294 42.8098 22.5928
13 1 43.3744 41.9116 24.4924
12 1 42.8674 42.7274 23.8357
11 1 43.2437 43.5874 23.8156
4 1 43.3985 42.0482 21.9902
3 1 42.8924 41.809 22.6557
17 1 44.9033 42.7203 22.0558
15 1 43.835 42.8032 23.3738
16 1 44.1241 42.8132 22.407
19 1 44.0959 41.7893 22.771
6 1 43.6704 43.4963 21.8084
7 1 44.5162 43.7484 21.9993
8 1 44.6472 43.4921 22.9889
10 1 43.444 43.9345 22.7989
18 1 44.4968 41.653 21.7843
457 1 10.0449 49.2639 26.0113
456 1 10.5095 48.5426 25.311
460 1 10.3157 50.1249 24.1923
458 1 9.79687 49.5749 25.1174
459 1 10.448 49.229 24.5116
80 1 23.6326 57.5896 22.2521
79 1 22.6988 56.9791 22.4841
78 1 21.7403 57.261 23.0058
61 1 21.1908 59.1773 23.101
446 1 9.59969 48.7141 24.4007
445 1 8.7511 48.1836 24.4682
455 1 9.62077 47.8906 25.195
454 1 10.3648 47.489 25.2902
453 1 11.1986 47.7356 24.7486
444 1 8.44663 48.7482 23.6698
449 1 8.82362 47.9432 22.7101
452 1 10.2834 47.6229 24.1712
451 1 9.43248 47.5672 24.0129
450 1 9.05713 47.0736 23.2228
66 1 21.6496 58.1884 23.7267
65 1 20.8975 57.7134 24.1036
77 1 21.291 57.8891 22.4141
76 1 20.931 58.3177 21.7007
64 1 20.2442 57.0849 23.6768
63 1 20.1628 57.6533 22.9267
62 1 20.5206 58.4155 23.5127
75 1 21.8747 58.6875 21.2079
447 1 9.50207 48.5754 23.4744
441 1 8.36506 48.5562 21.8134
448 1 9.72629 47.787 22.8078
443 1 7.93236 48.7032 22.7901
442 1 8.78187 49.1305 22.4675
67 1 22.5039 58.3088 23.6098
69 1 22.7509 58.8841 22.4336
68 1 22.3172 59.2383 23.1334
73 1 22.9024 56.9232 21.2736
72 1 21.9375 57.1056 21.4771
71 1 22.3383 57.9366 21.9894
70 1 21.8097 58.8847 22.2819
74 1 22.6654 57.9177 20.9537
107 1 53.4142 50.0791 27.1372
106 1 53.8031 49.0662 27.2814
105 1 54.5649 49.6314 27.6865
117 1 54.4241 50.616 27.2238
108 1 52.7053 49.3289 26.9327
116 1 54.0982 50.852 26.2346
115 1 55.0881 50.8238 26.4006
88 1 38.2871 18.2031 29.643
87 1 38.219 18.1674 30.6894
86 1 37.7835 18.8754 30.3037
89 1 38.7265 18.9975 29.5855
90 1 38.8708 19.7752 30.0846
85 1 37.5626 19.3055 31.1962
84 1 37.8104 20.125 30.5747
82 1 38.6888 19.5806 32.2926
83 1 38.4808 19.9365 31.2944
81 1 38.0708 19.1462 32.9941
101 1 54.3923 47.9162 27.7466
120 1 54.399 48.7749 26.0189
102 1 55.2482 48.3485 27.9931
103 1 54.8989 48.666 27.0943
112 1 53.9888 49.9238 25.2615
119 1 53.6484 49.3353 26.189
118 1 54.3078 49.9246 26.5718
110 1 52.5011 49.6509 25.7754
109 1 52.7203 48.732 26.0054
104 1 55.2058 49.5385 26.9895
113 1 54.8509 49.6348 25.5882
114 1 54.8567 50.6623 25.435
342 1 40.8645 18.4971 29.9359
100 1 41.2006 18.5775 31.3056
341 1 39.9084 18.2667 29.6451
94 1 39.6683 17.0498 30.524
93 1 39.3708 17.9708 30.5157
92 1 40.0515 18.656 30.7977
91 1 39.8588 19.4164 30.1224
357 1 39.8571 19.8031 31.4105
353 1 38.529 18.4175 33.4626
359 1 40.9006 19.5326 30.782
358 1 40.7824 19.5942 31.8894
360 1 41.584 19.9278 29.9218
111 1 53.0176 49.9122 25.0178
401 1 6.42734 55.9257 34.8198
344 1 41.4054 17.4922 31.4454
98 1 39.6875 18.7348 32.0945
343 1 40.9079 17.5924 30.5159
345 1 41.652 17.7572 32.3096
97 1 39.9109 18.079 32.7672
99 1 40.4755 18.2751 31.8621
351 1 39.0601 19.647 33.385
356 1 39.0329 19.1384 31.1223
347 1 41.5943 19.1525 33.7053
96 1 39.6047 17.4455 32.0946
95 1 40.2346 17.1813 31.3241
352 1 39.4023 18.6468 33.4969
355 1 38.6745 18.4113 31.6343
354 1 38.7809 18.1623 32.5374
461 1 7.4466 55.6602 34.7344
402 1 6.34164 55.9477 33.9803
405 1 7.5261 55.9303 32.4955
406 1 8.16449 56.4437 32.9143
403 1 7.16946 55.3684 33.6735
321 1 15.001 8.87419 35.9347
361 1 14.8794 8.84528 37.3262
346 1 41.6877 18.2973 33.1666
350 1 39.7392 19.9415 32.7374
348 1 40.7192 18.697 33.6024
349 1 40.2366 19.1824 33.0665
465 1 6.1011 57.5276 33.7658
463 1 7.04335 56.6836 34.0842
462 1 7.97548 56.1096 33.8811
477 1 8.02244 57.9179 34.5721
478 1 8.19425 57.2019 33.9185
407 1 8.87531 55.8381 33.3926
409 1 8.46274 55.4081 34.991
408 1 8.98839 55.9464 34.3724
464 1 6.51336 57.0855 33.1334
404 1 6.78231 55.6499 32.7632
420 1 10.3383 57.231 34.8469
479 1 9.11249 56.8507 33.8293
480 1 9.50764 56.5325 32.9679
500 1 13.3109 5.7133 34.3276
332 1 17.5234 6.59652 35.4208
333 1 17.4081 6.76457 34.5091
335 1 16.5011 7.73649 35.6747
330 1 16.2761 6.63534 35.6397
331 1 16.8893 5.94217 35.9779
322 1 14.3584 8.93192 35.2929
336 1 16.0559 8.58276 36.0129
362 1 15.9206 9.12843 37.1351
337 1 15.5017 8.1557 36.6399
363 1 15.9293 8.3261 37.6822
364 1 16.5905 8.33569 36.924
324 1 13.82 8.04012 35.8788
325 1 14.3731 7.60199 36.5876
323 1 14.0461 9.05861 36.1474
466 1 6.81157 57.7039 34.6209
467 1 6.31802 56.9175 34.8118
468 1 6.98549 56.6706 35.3006
469 1 7.74603 56.8722 34.9835
415 1 9.33422 56.7 34.9719
410 1 9.24994 54.9354 34.3956
476 1 8.73772 57.6832 35.0808
475 1 8.69357 57.7187 36.0677
419 1 9.85432 57.2221 35.7147
470 1 8.50003 56.807 35.6584
413 1 10.1075 55.6774 33.4718
414 1 10.0869 56.1722 34.5212
411 1 9.93254 54.4356 34.8797
368 1 17.6891 6.53316 37.6306
497 1 14.102 5.35452 36.1209
499 1 13.2636 5.2986 35.3199
496 1 14.4664 4.93857 35.2746
334 1 16.5865 7.382 34.9291
365 1 17.2761 7.84121 36.3634
367 1 17.0275 6.06422 37.0245
481 1 13.2355 7.02436 36.9158
483 1 12.6938 5.67982 37.1522
484 1 12.9156 5.00224 36.4362
498 1 13.2583 5.88228 36.1376
329 1 15.6795 7.17737 36.2017
380 1 14.1092 6.07688 35.2723
492 1 13.7368 5.2869 37.2587
328 1 14.9688 7.75434 35.7802
378 1 15.6641 5.79991 35.7624
379 1 15.0612 5.82618 34.9447
338 1 15.273 7.45006 37.2006
482 1 12.5336 6.48688 36.467
490 1 13.4816 6.22146 37.7174
327 1 15.1524 6.80054 35.2813
326 1 14.6309 6.67893 36.2366
340 1 15.7076 6.68186 38.001
43 1 23.9164 27.9699 38.5389
53 1 21.5567 25.3327 37.6848
42 1 24.4986 28.6087 39.063
52 1 21.3255 25.0313 38.6222
51 1 22.0331 25.6408 38.9168
54 1 22.458 24.8822 37.8724
60 1 24.0566 25.1848 36.3997
59 1 22.9985 24.7964 36.2878
471 1 7.81415 56.113 35.7507
474 1 7.88158 58.1289 36.2403
473 1 7.38329 57.2918 36.1519
472 1 7.99805 56.5999 36.5885
418 1 10.3929 56.3996 36.0348
416 1 9.49676 55.8988 35.3313
417 1 9.44856 56.3743 36.2712
412 1 10.3564 54.986 34.096
369 1 16.7628 6.29625 38.0935
374 1 16.0891 5.13034 36.8609
495 1 15.0625 4.26345 35.9707
372 1 17.9101 5.23131 37.2519
373 1 17.0581 4.77873 36.8218
366 1 16.9615 6.89386 36.3642
370 1 16.2056 5.46575 38.37
371 1 16.9907 5.19573 37.8659
485 1 12.589 3.99821 36.7278
488 1 12.2219 5.93773 38.3471
494 1 14.5264 4.67017 36.7743
487 1 12.9 5.285 38.1095
375 1 15.9309 5.7836 37.4853
493 1 13.5591 4.30875 37.0441
132 1 15.1372 4.98194 38.1232
377 1 15.0956 5.89328 36.5672
339 1 15.8471 6.63008 36.9934
486 1 12.8086 4.35248 37.7071
489 1 13.1108 6.45371 38.4949
135 1 15.5468 6.04518 39.1289
134 1 15.0947 5.5247 39.9429
491 1 14.0314 6.10108 36.8264
140 1 14.6259 6.66837 37.461
138 1 14.4126 6.94437 39.0295
139 1 14.0604 7.21047 38.1693
121 1 10.8793 4.83164 40.248
136 1 14.6381 5.89918 38.8739
137 1 14.0144 6.09403 39.4998
47 1 22.9843 26.2076 38.7514
46 1 22.634 26.5348 37.8316
41 1 23.9843 29.1387 38.4165
49 1 21.9552 26.6671 39.3603
50 1 21.5974 26.4554 38.5587
44 1 24.4143 27.1355 38.1171
45 1 23.4285 27.1098 37.8244
55 1 22.7037 25.5679 37.1176
56 1 23.2877 25.5533 37.7747
57 1 23.3223 24.6434 37.3143
58 1 23.6288 24.1321 36.5963
130 1 14.7427 4.10671 38.7792
131 1 15.0697 4.05949 37.8155
376 1 14.8699 5.65397 37.4634
123 1 12.1047 5.44586 39.5877
126 1 13.0011 4.91155 39.1429
127 1 13.5871 4.52599 38.5229
129 1 14.2283 3.28883 38.8001
128 1 13.6841 3.72418 37.984
133 1 15.3189 5.04464 39.0744
122 1 11.2123 5.60723 39.9479
124 1 11.8736 4.96417 38.7085
48 1 22.636 27.1409 38.8781
125 1 12.5228 4.16396 38.8596
209 1 28.5315 32.6029 46.7634
206 1 29.0721 31.6075 46.6053
210 1 28.8703 33.396 46.1098
208 1 29.2256 32.6931 47.5529
201 1 28.5468 31.7859 47.3827
202 1 28.422 30.8705 47.5946
205 1 29.7785 31.6638 47.3674
207 1 29.5901 32.4795 46.6449
425 1 34.6763 30.5845 45.9885
426 1 34.995 31.0801 45.2777
427 1 35.7498 31.3596 44.5339
429 1 36.1058 29.6332 44.8854
434 1 36.9997 31.0151 44.613
435 1 37.8922 31.1701 44.9885
436 1 38.8423 31.6383 45.0315
440 1 37.3977 32.1649 45.9694
428 1 35.5672 30.3647 44.8198
437 1 38.2496 31.805 44.3438
439 1 37.4769 32.065 45.0933
220 1 24.5593 34.071 45.3086
182 1 26.8143 33.1642 47.527
217 1 25.7507 33.5482 46.6594
219 1 25.5774 33.6766 45.4672
218 1 24.8962 33.5566 46.2019
212 1 27.126 33.4601 45.3952
189 1 26.0108 31.0555 46.549
183 1 27.4876 33.0644 46.7578
200 1 27.2258 32.3116 46.0362
211 1 28.0207 32.9761 45.5706
216 1 26.4193 33.048 46.3313
213 1 26.2407 33.0335 44.8977
203 1 29.4347 30.6934 47.6597
204 1 30.1051 30.7757 46.9694
424 1 35.3145 29.7563 45.8361
423 1 36.0668 28.968 45.7135
430 1 36.4371 30.4348 45.3611
431 1 35.9045 30.8178 46.0459
312 1 34.8729 31.0983 47.1175
313 1 35.6157 30.3868 46.9509
311 1 35.3139 31.5758 46.272
433 1 36.4485 31.4577 45.4208
432 1 36.8214 31.2002 46.2756
438 1 38.0801 32.8238 44.6434
181 1 26.7389 32.2871 47.1187
188 1 26.1604 31.4678 47.3678
187 1 27.1808 31.3795 47.2812
190 1 26.4553 30.1072 46.5409
191 1 25.8385 30.2111 45.9197
184 1 27.6581 32.3775 47.5185
185 1 27.7612 31.653 48.1996
186 1 26.8125 31.7373 48.262
194 1 26.0275 31.5172 45.3932
214 1 25.5677 32.5385 45.6184
215 1 25.9797 32.1527 46.2646
196 1 27.5437 31.3466 45.387
199 1 27.9045 31.7875 46.542
198 1 27.704 30.756 46.2992
252 1 49.7359 23.9435 48.2828
421 1 35.2744 28.0763 46.0131
422 1 35.4168 28.9623 46.5683
315 1 36.3778 29.0557 47.1146
316 1 36.6471 29.8516 47.5791
248 1 49.4136 23.3212 47.006
249 1 49.6566 22.2994 46.6754
314 1 36.3103 29.8058 46.4082
317 1 35.7078 29.7146 48.0942
318 1 34.963 29.2193 47.6442
307 1 35.9165 30.6682 47.948
309 1 36.3326 32.1275 46.7726
308 1 35.9765 31.312 47.1099
310 1 35.2943 32.5115 46.7789
192 1 25.8586 29.9048 45.006
193 1 26.5326 30.7811 44.8862
195 1 26.7391 31.8375 44.7811
197 1 26.9198 31.3163 46.0529
170 1 50.3718 23.9896 49.6843
253 1 50.3313 23.9588 47.5761
251 1 49.8891 22.9679 48.1571
254 1 50.1879 24.9567 47.5201
255 1 49.7244 24.4497 46.9268
173 1 50.1778 25.9879 47.8268
175 1 50.9739 25.7503 46.9971
176 1 51.4608 26.1403 47.8457
246 1 47.8073 23.4649 46.6629
247 1 48.7621 23.805 46.4187
250 1 50.0255 22.1632 47.5337
256 1 49.1216 25.1814 47.3192
243 1 48.6569 25.6901 46.5454
174 1 49.9486 25.9873 46.8089
177 1 50.7309 26.744 48.1376
319 1 34.4938 29.9992 47.3886
320 1 34.3736 29.1216 46.8439
244 1 48.297 24.6732 46.8844
242 1 48.7107 26.5397 45.9763
305 1 36.6623 31.9125 47.8175
306 1 35.8572 31.7943 48.0523
301 1 36.0549 31.5238 49.0299
302 1 35.7936 30.593 49.0705
169 1 50.5751 23.4068 48.9361
168 1 49.6131 23.3883 49.244
171 1 50.1122 24.7979 48.7798
260 1 47.3302 24.6195 48.9763
259 1 47.8629 23.9071 48.4376
166 1 48.5148 24.8438 48.347
257 1 48.9789 24.2734 47.6269
165 1 47.6931 25.5751 48.3161
172 1 49.4693 25.3324 48.2835
245 1 47.7066 24.1997 47.4838
162 1 48.2955 24.7702 49.6208
258 1 48.4918 23.421 47.9256
161 1 49.1159 25.097 49.2982
179 1 50.1504 25.8118 49.2742
178 1 50.0753 26.5943 48.7515
304 1 37.1422 31.0971 48.064
303 1 36.8233 30.566 48.6539
241 1 49.0644 25.6574 45.6266
164 1 48.5343 26.1159 48.604
167 1 48.872 24.0826 48.8668
163 1 48.192 25.6346 49.3804
180 1 51.0081 25.5814 49.2303
395 1 9.96902 14.8867 56.1649
262 1 12.0148 15.9936 58.7105
396 1 8.9776 14.8184 56.4377
384 1 9.43127 14.1863 54.3085
385 1 9.93203 14.8745 55.1156
383 1 9.52481 13.5599 55.0463
386 1 10.4148 15.7315 54.7761
387 1 10.5259 16.1237 55.5086
381 1 8.42862 14.083 55.8181
226 1 24.9677 4.55161 56.7601
225 1 24.3679 3.86767 57.1404
227 1 25.7901 4.90679 57.1252
228 1 25.2267 4.5856 57.8152
233 1 24.4422 5.70662 58.623
232 1 25.5401 5.62365 58.9142
145 1 41.09 11.4636 57.4646
146 1 40.3044 11.8469 57.1223
394 1 10.9299 14.906 56.6843
261 1 12.6621 16.2147 59.635
263 1 11.1161 15.5985 58.9089
264 1 10.2954 15.5022 58.4206
400 1 7.33624 14.6987 55.1962
397 1 8.00345 14.9893 56.4552
398 1 7.54108 15.7579 56.2464
393 1 10.003 15.3728 57.0601
382 1 9.04942 13.2776 55.8854
388 1 11.1209 16.629 56.2161
390 1 9.58535 16.6752 55.4626
389 1 10.172 17.0543 56.0536
240 1 23.7989 6.41019 58.639
224 1 23.9803 3.4883 58.032
223 1 24.9228 3.47871 57.9559
239 1 23.9715 6.02399 57.7087
235 1 24.0575 4.68058 57.7173
236 1 24.0177 4.77876 56.5652
234 1 24.6593 4.84439 58.5583
229 1 24.8839 5.43114 57.6572
230 1 25.641 5.99351 57.8536
231 1 25.7962 5.27578 58.3453
157 1 39.5953 10.306 57.2291
158 1 39.9001 10.9401 58.0189
159 1 40.5045 10.3656 58.5187
154 1 40.0927 11.3025 56.2447
155 1 41.0348 11.2002 56.4367
160 1 40.4785 11.207 59.238
142 1 41.9791 12.07 57.5556
141 1 41.2147 12.4872 57.1927
143 1 41.6618 12.1449 58.4261
144 1 40.7818 11.8633 58.3175
150 1 40.7902 10.3002 55.9736
148 1 40.8867 11.7742 55.4247
149 1 41.2644 10.8959 55.2497
147 1 40.7463 12.2051 56.3371
279 1 9.15445 14.1488 57.6478
278 1 10.1202 13.9382 57.3293
399 1 8.05018 15.314 55.4754
391 1 9.43073 15.8589 55.5123
392 1 9.92096 15.9924 56.3444
273 1 9.38389 16.14 57.7358
266 1 10.3065 16.582 57.007
265 1 10.6539 16.3881 57.8934
280 1 9.47081 15.0352 57.8981
238 1 23.5438 5.66843 57.0734
237 1 24.4587 5.57808 56.6353
222 1 24.7462 3.14559 58.8355
221 1 25.6577 2.97255 58.4507
156 1 40.4586 10.6874 56.9472
153 1 39.1047 11.4268 56.572
151 1 39.7471 10.2989 55.7824
152 1 38.8863 10.5332 56.2594
276 1 9.54902 14.4931 58.9568
277 1 10.0545 13.9247 58.3152
270 1 7.78851 17.0816 55.8115
269 1 8.73358 17.5358 55.9293
274 1 9.58088 16.2521 58.6954
275 1 9.06377 15.2684 58.8292
268 1 9.24886 17.2165 56.5216
267 1 9.90711 17.4815 57.2539
272 1 8.91762 16.151 56.8111
271 1 8.60455 16.3413 55.8836
ITEM: TIMESTEP
30000
ITEM: NUMBER OF ATOMS
500
ITEM: BOX BOUNDS pp pp pp
0.0000000000000000e+00 6.0000000000000000e+01
0.0000000000000000e+00 6.0000000000000000e+01
0.0000000000000000e+00 6.0000000000000000e+01
ITEM: ATOMS id type x y z
289 1 41.7231 51.3998 13.6807
290 1 40.9419 50.8698 13.3427
288 1 42.1436 51.1837 12.8067
292 1 41.1606 50.4147 12.416
283 1 40.3529 52.1226 12.4168
284 1 41.1212 51.816 12.8482
285 1 41.2966 52.6756 12.5082
286 1 41.8639 52.836 11.6818
296 1 41.0993 51.3644 11.8083
291 1 40.3355 50.9497 12.5229
287 1 41.9102 51.9663 12.1287
295 1 40.1837 51.5265 11.5796
294 1 39.6686 50.7032 11.6998
293 1 40.406 50.1704 11.6794
299 1 42.8281 50.8245 11.2028
300 1 42.982 51.819 11.4549
298 1 41.9 50.7531 11.6422
297 1 41.8682 51.6339 11.1191
281 1 40.7718 53.3869 11.4878
282 1 40.6409 52.3966 11.7209
26 1 42.9214 7.85157 17.686
31 1 44.8352 5.39209 18.1479
24 1 43.4129 7.08275 18.4361
28 1 43.0414 6.18248 16.9665
30 1 44.2801 6.2638 18.4279
29 1 43.8983 6.36434 17.4983
27 1 42.8338 7.04614 17.1067
32 1 44.4033 5.04834 18.9695
23 1 42.8524 6.40698 18.1174
21 1 41.6549 6.73342 17.3843
33 1 44.0092 5.05653 19.8809
25 1 43.7337 7.53593 17.633
34 1 43.8314 6.06701 19.7636
35 1 43.2609 5.91326 19.042
22 1 41.9043 6.18544 18.1498
38 1 43.1911 4.53448 17.642
36 1 43.605 5.45092 18.3686
39 1 42.4518 5.34283 17.8745
40 1 42.4542 5.14608 16.9931
37 1 42.8969 4.75541 18.6739
73 1 20.6413 57.173 20.3441
74 1 20.1042 56.4709 19.9602
75 1 20.3616 56.6575 18.9322
5 1 39.7825 42.4758 25.5547
2 1 39.2429 44.2806 24.935
4 1 39.7537 43.3763 25.1315
3 1 39.9974 44.2127 25.4402
16 1 40.2778 44.8429 24.7851
19 1 40.0191 44.8618 26.3885
17 1 41.1091 45.2555 25.1607
18 1 40.2339 45.3593 25.7
1 1 38.4731 43.7602 25.1405
6 1 40.5486 42.739 24.9652
10 1 41.377 44.3625 24.4176
7 1 41.2679 42.9175 24.2787
449 1 13.368 49.7955 23.4007
448 1 14.2702 49.766 23.8016
441 1 13.5611 50.3696 24.2833
443 1 12.3179 48.9799 23.8277
442 1 12.7909 49.6563 24.2813
79 1 22.2955 56.1051 20.5536
72 1 21.0094 57.7657 19.858
77 1 21.7505 57.2039 19.4078
76 1 21.2325 56.3116 19.4196
71 1 20.9711 58.5995 19.4194
80 1 21.2156 56.3722 20.7002
69 1 21.7055 59.5641 19.213
70 1 21.1973 59.4065 20.0873
14 1 40.6125 44.6808 23.7928
12 1 41.963 43.589 23.3476
15 1 39.7701 44.7578 24.0251
20 1 40.4102 43.8296 26.2478
9 1 40.98 43.6536 25.0924
11 1 42.109 43.6773 24.3211
8 1 40.5594 43.5887 24.3184
450 1 13.9218 49.1797 22.8132
451 1 13.2192 48.7899 23.1826
452 1 12.3873 48.3301 22.7485
444 1 12.879 48.1666 24.045
447 1 13.842 49.3107 24.5668
460 1 11.3921 48.5446 21.6375
64 1 22.9866 57.9155 20.4505
65 1 23.1384 57.7346 19.4859
63 1 22.422 58.6392 20.9637
62 1 21.7749 58.553 20.2153
78 1 22.3683 56.5042 19.6511
66 1 22.1677 58.3017 19.2393
67 1 22.6422 59.0177 19.8086
61 1 21.5016 57.83 20.8557
68 1 22.6163 59.7249 19.1647
13 1 40.9943 43.7626 23.4177
445 1 13.7844 48.1868 23.8831
455 1 12.276 49.5649 21.6003
456 1 12.8706 49.7684 22.2711
454 1 12.4189 48.5372 21.4677
453 1 13.2263 48.5171 22.1649
458 1 11.5607 49.2672 22.4663
446 1 13.6346 48.3792 24.9762
459 1 10.6378 48.9587 22.1174
112 1 52.1433 50.3129 25.0622
111 1 53.0921 50.0988 25.2643
113 1 52.4209 49.4939 24.7416
114 1 51.8838 49.9006 23.9511
457 1 12.2421 49.7868 23.0118
108 1 53.9088 50.4924 24.7436
110 1 53.4676 49.6548 26.042
109 1 54.1991 50.1439 25.5989
119 1 53.7178 49.2689 24.8808
120 1 54.5905 49.0237 25.3143
103 1 52.4655 49.3789 23.238
118 1 53.2932 49.891 24.1596
104 1 53.0909 48.9429 23.8803
107 1 54.5517 50.1345 23.9874
116 1 53.4624 49.9917 23.1296
115 1 52.6051 50.5547 23.5143
101 1 51.9358 48.7292 24.1754
102 1 52.3534 48.4202 23.3982
106 1 54.6069 49.2175 24.1593
105 1 53.9735 49.1287 23.6031
117 1 53.6351 50.6928 23.7637
88 1 37.6799 18.1737 30.6645
341 1 38.505 16.7386 29.8394
342 1 38.6825 17.809 30.1075
89 1 37.4638 17.9113 29.799
360 1 36.1479 18.8731 33.7848
94 1 39.2301 18.188 30.9325
87 1 36.9947 18.6205 30.7146
93 1 38.4472 17.7266 31.3848
344 1 39.3434 19.2997 30.8653
343 1 39.0701 18.7357 30.0795
95 1 39.2189 17.0513 31.1902
86 1 36.5366 18.7158 31.6723
85 1 36.4025 18.9269 32.6376
83 1 36.1321 17.4754 33.0313
90 1 37.7453 17.1919 30.508
91 1 37.2273 17.3151 31.3596
357 1 37.4798 18.6589 33.0024
356 1 37.3948 17.6234 32.8808
100 1 37.5546 18.7124 31.6187
92 1 37.7589 17.7751 31.9932
359 1 36.7375 18.0769 33.8113
84 1 35.5949 18.3505 32.9551
97 1 38.959 18.3704 32.0241
96 1 39.6325 17.5647 31.9996
355 1 37.1428 16.6628 32.5747
354 1 37.2841 16.7947 33.6173
99 1 38.282 18.9833 31.0015
345 1 40.1087 18.6736 30.7712
82 1 36.599 17.6087 32.1812
98 1 38.5322 19.1083 31.8505
350 1 38.3591 17.7919 32.8776
358 1 37.346 18.6072 33.968
404 1 6.01084 54.3169 32.9663
405 1 6.43156 55.1853 32.9828
353 1 38.0662 16.5069 33.1556
346 1 39.8224 18.8119 31.7689
81 1 36.1008 17.9021 31.2305
351 1 39.0428 17.2499 32.7911
352 1 38.6168 16.9524 33.8145
348 1 39.8875 18.3885 32.8136
349 1 39.0346 18.1781 33.4607
347 1 40.619 18.2883 32.207
403 1 5.20404 54.8562 33.2763
413 1 6.86456 54.8869 35.7139
412 1 6.4264 54.3107 35.0137
402 1 4.95206 55.7515 33.5217
463 1 6.57245 56.5917 34.6028
464 1 6.37258 57.4425 34.9171
406 1 6.932 55.8302 33.3667
462 1 7.01993 56.1147 35.4077
407 1 5.9671 55.7966 33.665
479 1 7.70383 54.751 34.2727
480 1 7.14217 54.5133 33.4503
465 1 7.23112 57.1981 35.4677
478 1 7.75928 55.6822 33.8735
500 1 12.0675 5.64306 35.7555
499 1 11.4033 5.25466 36.2626
496 1 13.1649 4.04406 36.367
380 1 14.3147 7.84417 35.535
379 1 15.0289 7.55459 36.1205
327 1 14.2973 7.66357 36.9773
330 1 15.9235 9.55438 38.1743
332 1 15.3934 9.54856 39.4433
333 1 15.8125 8.86175 38.946
335 1 14.954 7.6701 38.3934
334 1 15.599 7.95981 39.1286
322 1 12.719 8.69225 37.8053
461 1 6.16518 56.0391 35.8049
409 1 6.39883 55.5383 34.7555
410 1 5.78171 55.1819 35.2461
411 1 5.44051 54.2523 35.2021
401 1 5.21402 55.4195 34.4602
467 1 7.05067 56.9646 37.1063
468 1 7.91998 57.0395 37.5285
469 1 7.73556 55.9843 37.2398
470 1 7.96006 56.385 36.4323
408 1 6.05436 54.8982 34.0071
415 1 8.29134 54.4745 35.0968
416 1 8.90509 54.0368 34.2689
414 1 7.68422 55.2222 35.26
466 1 7.49564 57.6236 36.3646
477 1 7.52104 56.5531 34.0919
476 1 7.8657 57.3091 34.329
419 1 8.59833 56.326 33.8785
420 1 8.22992 56.0906 34.7834
485 1 12.002 3.52974 37.4857
495 1 13.5313 3.42833 35.8675
497 1 12.4142 3.67949 35.7714
484 1 11.7848 4.11491 36.7275
493 1 13.9782 4.33127 35.6925
494 1 14.5264 3.55784 36.0272
374 1 14.7574 6.79093 36.78
373 1 15.7838 6.99581 36.6591
482 1 11.2368 3.55486 35.9567
481 1 11.1832 3.9288 34.8177
498 1 11.7201 4.47783 35.6788
491 1 13.5041 4.99318 37.3538
378 1 15.875 7.39128 35.6823
326 1 13.4061 7.66493 36.5053
377 1 15.4054 6.4085 35.8271
331 1 15.6795 10.1508 38.8399
367 1 15.5289 6.84967 37.9216
366 1 15.5343 6.87101 38.9384
339 1 14.1149 5.49734 38.8152
324 1 12.3023 7.87547 37.3394
337 1 14.0279 6.08466 37.5627
325 1 12.6504 7.25044 36.9257
329 1 15.823 8.5178 37.8956
328 1 15.3195 7.77545 37.4537
364 1 13.5803 7.25317 38.8383
365 1 14.465 6.67963 39.0761
323 1 12.2273 8.8139 36.9936
321 1 13.4328 8.60875 37.2721
336 1 14.5241 6.90041 38.0024
362 1 13.4111 7.21968 37.6375
58 1 24.136 26.3596 39.4216
55 1 24.2307 27.3674 39.1267
60 1 24.5421 26.2815 37.757
59 1 24.7721 26.453 38.6953
471 1 8.68662 55.6357 35.9854
472 1 8.797 56.5993 35.9314
417 1 8.94091 55.0547 34.2452
418 1 9.35161 55.8117 33.4595
474 1 9.29389 56.9516 34.4521
473 1 9.66095 56.534 35.3259
475 1 8.55945 57.1702 35.0785
128 1 15.412 2.72344 36.14
131 1 15.8978 3.35162 37.0334
483 1 10.7978 4.05472 36.6319
486 1 12.8693 3.33513 37.4825
492 1 14.204 4.39251 36.7453
487 1 12.7269 4.28395 37.1937
127 1 14.5033 2.25207 35.9648
132 1 14.9515 3.61397 37.1715
376 1 14.3755 6.3567 35.941
370 1 15.3778 6.0634 37.2547
371 1 16.2616 5.99949 36.8666
372 1 16.7211 6.92819 37.2131
488 1 12.6478 5.02905 36.5144
490 1 13.1732 5.87231 36.9484
489 1 12.4281 5.48712 37.3268
340 1 13.4532 5.93711 39.3604
140 1 13.0238 5.53313 38.17
369 1 15.593 5.35966 37.9596
375 1 13.7686 6.76586 36.5803
368 1 15.0652 6.00227 38.3582
139 1 12.8312 4.80855 38.5779
338 1 13.6506 6.27516 38.3678
363 1 13.8815 7.87805 38.0829
361 1 12.7509 6.43804 37.8193
53 1 24.2455 27.2679 37.9655
54 1 24.9828 27.5875 38.4748
56 1 23.41 27.8781 38.8563
57 1 23.3032 27.084 39.5732
46 1 25.7531 25.9072 38.3241
50 1 25.1867 27.6371 37.416
45 1 25.3936 25.7032 39.2059
44 1 25.7552 24.8051 38.9661
43 1 25.3568 23.7808 38.8153
41 1 24.0606 23.8386 38.6723
125 1 14.9356 1.88489 36.8825
129 1 16.345 3.13227 36.0622
130 1 16.7836 2.95757 37.0207
122 1 16.4159 3.27394 38.0765
123 1 16.1351 2.34752 37.8055
124 1 15.9244 2.28903 36.9213
126 1 14.4202 2.5542 36.9676
134 1 15.0297 5.13667 37.062
133 1 15.4024 4.29337 36.8403
137 1 13.9175 3.50324 37.5037
135 1 14.4019 5.15435 37.8884
138 1 13.422 4.09496 38.0945
136 1 14.5179 4.1738 37.881
52 1 24.2088 28.2191 37.9544
51 1 24.8726 28.4906 37.3668
49 1 26.1657 27.6496 37.6276
47 1 25.712 26.7557 38.8945
48 1 25.6125 26.7951 37.8044
42 1 24.8115 24.0887 38.1208
121 1 15.7633 3.92754 37.8321
241 1 48.6147 23.7287 45.0363
192 1 26.917 33.1533 46.4658
429 1 35.0576 32.833 45.1207
423 1 33.2764 33.2701 44.8367
193 1 27.2346 33.8076 47.1362
196 1 29.0023 33.022 46.7387
426 1 34.712 33.8787 45.0524
428 1 35.0109 33.3295 44.2694
427 1 34.791 34.3144 44.2623
434 1 36.9438 34.3487 44.7421
430 1 35.418 32.0144 45.1816
435 1 36.4612 34.9996 45.4863
214 1 29.8794 33.18 47.2372
194 1 28.2302 33.9839 47.0529
195 1 28.4657 33.1126 47.597
433 1 35.9038 34.0868 44.4938
437 1 35.6477 36.137 45.6399
439 1 36.3567 35.112 46.5632
438 1 35.3302 35.273 46.3526
436 1 36.5894 35.927 45.8193
220 1 29.2283 33.3809 49.8263
219 1 29.9277 33.2304 49.1134
212 1 30.3985 31.8352 47.01
213 1 30.8124 32.7548 46.873
211 1 29.574 31.6476 47.6754
249 1 49.8659 22.1995 46.3871
246 1 48.9162 21.8467 45.6302
248 1 50.4162 21.4335 45.9071
247 1 49.6743 21.5489 45.3044
244 1 49.9982 22.8662 45.1671
255 1 51.3288 24.2008 45.9477
243 1 49.3658 23.1882 44.4894
174 1 49.9516 24.6148 44.8485
242 1 48.3836 22.8085 44.6625
175 1 49.8677 25.5611 44.942
421 1 34.0791 33.0786 45.4556
424 1 33.6648 34.0576 44.3268
422 1 33.6838 32.3776 44.7928
320 1 33.0273 32.1138 45.6733
315 1 34.7958 32.3677 46.0165
314 1 34.9142 33.2802 46.2664
189 1 27.6729 32.8735 48.3415
190 1 27.2 32.6683 47.4175
191 1 26.3042 32.8745 47.227
197 1 28.1702 33.0421 46.4231
198 1 27.4907 32.3522 46.5307
204 1 28.0817 31.3359 46.32
425 1 33.9296 34.6378 44.9883
312 1 34.1615 34.0728 46.233
313 1 35.1613 34.2064 46.2514
431 1 35.8946 32.1898 44.3151
432 1 36.0133 33.1481 44.8519
308 1 35.9254 33.476 46.3577
181 1 30.5629 31.4052 48.079
215 1 29.5032 32.9407 48.1228
209 1 30.1873 30.2297 46.5987
200 1 28.7628 32.1094 47.989
199 1 28.1917 32.1757 47.1341
206 1 28.7408 30.0181 47.1499
207 1 29.1651 30.8686 46.4965
311 1 34.4982 34.8688 45.9525
310 1 35.3411 34.7772 45.3897
309 1 35.947 34.0382 45.5707
440 1 36.2745 34.2524 46.9448
218 1 30.3768 33.6051 48.3337
217 1 31.1251 32.9232 47.9408
216 1 30.3427 32.4833 47.9576
183 1 29.3481 30.4856 48.4062
210 1 29.699 30.7123 47.3993
250 1 50.5914 22.8429 46.9807
259 1 49.0708 22.514 47.4716
245 1 49.2419 22.7497 45.5914
258 1 49.3801 23.0545 46.8106
252 1 50.3378 23.9669 47.007
251 1 50.2716 23.2966 47.7102
253 1 51.3519 24.1353 46.9748
166 1 48.7028 23.6188 46.1626
165 1 47.7069 23.1243 45.9781
256 1 50.6215 23.5395 45.6046
257 1 49.9174 23.35 46.0717
172 1 50.2452 24.5733 45.9132
254 1 51.4133 23.3646 46.3998
173 1 49.5438 24.023 45.4161
177 1 48.9087 24.8711 45.7678
176 1 49.1153 25.7155 45.2677
318 1 33.9916 31.9499 46.5888
319 1 33.9971 31.9251 45.587
316 1 34.7574 32.3847 47.0528
317 1 34.0249 32.8703 46.559
202 1 29.2677 32.0637 46.7435
187 1 27.3141 31.4477 47.1942
203 1 28.6612 32.1596 45.9974
307 1 35.7545 32.5637 46.401
304 1 34.797 33.1818 47.754
188 1 27.6653 31.9224 48.1938
186 1 27.7664 30.6972 47.4882
201 1 29.8757 32.7451 46.2616
184 1 28.5219 31.0567 48.203
185 1 28.5361 31.2155 47.2742
208 1 29.4931 30.2264 45.8893
205 1 27.8814 30.2807 46.531
305 1 35.5336 33.764 47.4598
306 1 36.0294 32.8862 47.312
182 1 29.8944 31.1737 48.8328
168 1 49.8667 24.9645 46.9851
167 1 49.1348 24.3947 46.7156
170 1 51.2515 25.1525 46.3726
169 1 50.7262 25.0601 47.3744
260 1 48.3431 22.2397 46.9499
162 1 46.3767 23.0297 45.2184
163 1 47.0319 22.4847 44.6556
161 1 46.6814 23.858 45.5025
171 1 50.8682 25.0707 45.3646
180 1 50.5688 26.3159 45.2611
164 1 47.478 23.2745 45.0523
179 1 50.1765 25.7696 46.1441
178 1 49.225 25.5746 46.4474
302 1 34.0294 33.878 47.3381
303 1 34.6475 34.222 47.8588
301 1 33.5087 34.7059 47.5022
149 1 42.259 11.242 58.8696
148 1 41.5862 11.6506 58.3043
384 1 11.9971 13.4626 58.6165
383 1 11.5239 14.3719 58.6456
400 1 10.7915 13.1685 55.3516
399 1 11.3751 13.6885 55.9388
385 1 11.7266 13.0902 57.6795
386 1 12.6616 13.3706 57.1241
390 1 11.2708 14.7881 55.5308
391 1 11.3853 15.7152 55.3251
387 1 13.1493 13.8611 56.2818
236 1 25.2668 6.80314 58.2347
238 1 26.5112 5.91922 59.0538
226 1 25.8118 2.73161 59.1222
237 1 25.9231 6.16458 58.3972
227 1 26.456 3.44562 59.4608
151 1 42.6301 12.3465 58.7527
152 1 43.2579 11.9679 58.0311
154 1 42.7965 10.8324 57.9577
155 1 42.0604 11.0189 57.4491
150 1 41.9051 11.9813 59.4101
156 1 41.2022 10.6786 57.9639
153 1 43.7035 11.0324 58.304
146 1 42.3226 12.0797 56.9472
147 1 41.9486 12.4504 57.8613
381 1 10.6302 12.8027 58.2859
382 1 10.9501 13.7357 58.0409
397 1 12.2047 14.0783 56.5193
395 1 11.9973 14.1062 57.5266
396 1 11.3095 14.4382 56.761
393 1 12.0909 15.0088 57.1162
394 1 12.4847 14.7043 58.034
398 1 12.1931 13.2436 55.8813
270 1 10.368 14.2284 57.2915
392 1 11.6543 15.3915 56.3473
272 1 9.24953 15.044 57.8564
271 1 9.84617 14.3802 58.0537
388 1 12.8373 14.2599 55.3736
389 1 12.1282 14.9662 55.1957
266 1 11.2882 15.839 58.5885
269 1 10.8504 15.0036 57.5357
268 1 10.7201 15.947 57.5008
224 1 24.903 3.94814 0.113086
225 1 25.5056 3.71027 59.4325
223 1 24.6855 4.71568 59.5473
221 1 23.8787 4.03077 58.1655
235 1 24.6469 6.40027 58.9234
228 1 26.4214 4.2244 58.9487
229 1 26.4644 4.86641 59.5335
231 1 24.9569 5.92452 0.135923
239 1 26.2597 6.21387 0.148119
230 1 25.7024 5.27957 0.241855
157 1 41.4548 10.0224 57.4269
158 1 42.4597 10.1354 57.2317
159 1 41.9127 10.3293 56.3927
145 1 42.7949 11.2109 56.6695
141 1 43.6531 10.6936 56.8946
144 1 42.2017 11.3558 55.9234
142 1 43.3541 9.82214 56.6957
143 1 42.9077 10.4242 55.9969
279 1 9.68185 13.8147 59.3886
278 1 10.693 14.1188 59.3005
277 1 9.94483 15.0191 59.4696
280 1 9.4823 13.2946 58.6378
264 1 10.7754 16.5001 59.6931
273 1 9.03294 14.9495 58.7311
265 1 11.0764 15.5682 59.464
267 1 11.02 16.6998 58.1457
222 1 23.9083 4.16694 59.2679
233 1 25.3569 5.49159 59.1507
232 1 25.4554 6.34954 59.4356
234 1 24.9062 5.77719 58.3291
240 1 25.6243 6.51553 0.890528
160 1 41.2007 11.1217 56.7311
276 1 10.5086 14.9685 58.8045
275 1 10.2813 15.8983 59.0259
263 1 9.87475 16.8785 59.7479
274 1 9.43214 15.8435 58.5433
262 1 9.24303 17.1451 0.501535
261 1 8.66919 17.8623 0.768595
ITEM: TIMESTEP
31000
ITEM: NUMBER OF ATOMS
500
ITEM: BOX BOUNDS pp pp pp
0.0000000000000000e+00 6.0000000000000000e+01
0.0000000000000000e+00 6.0000000000000000e+01
0.0000000000000000e+00 6.0000000000000000e+01
ITEM: ATOMS id type x y z
224 1 25.3035 4.82108 0.316467
230 1 26.1061 6.86313 1.48648
231 1 26.2414 5.98588 1.1207
240 1 27.2804 4.39987 0.973953
239 1 27.991 4.58061 1.61735
262 1 10.834 15.6369 57.224
261 1 10.617 15.2652 57.9999
299 1 40.1327 50.7899 11.6041
297 1 40.942 51.3912 13.261
294 1 40.6965 53.1443 12.3248
292 1 42.2652 52.8171 12.8591
296 1 41.6639 51.7757 12.7661
291 1 41.6223 52.6439 12.0137
293 1 41.314 53.0795 13.1073
288 1 41.5676 51.1769 10.6884
298 1 40.4957 50.9456 12.5553
283 1 39.6796 52.5133 11.3419
284 1 40.7114 52.7291 11.3046
285 1 40.464 51.7873 11.8288
295 1 40.8531 52.3037 12.6905
282 1 39.5398 52.2034 10.3828
286 1 41.4782 51.6008 11.7357
287 1 41.5457 52.1706 10.9247
300 1 40.0271 50.0658 12.3354
281 1 40.3703 52.7086 10.3526
290 1 42.3838 52.3302 11.6454
289 1 42.4258 51.3583 11.1238
40 1 44.4693 6.16291 18.9504
27 1 42.8348 5.00551 17.9922
28 1 41.9276 4.92873 18.3012
39 1 44.9296 6.39144 19.8109
38 1 45.6853 5.76076 19.6332
36 1 44.5756 5.35693 20.0343
31 1 42.0098 6.43563 19.7983
21 1 43.9363 5.87013 17.6902
22 1 43.4851 5.68842 18.4993
24 1 44.7678 4.52614 18.8392
30 1 42.3487 5.56054 19.4468
29 1 42.2534 5.81363 18.4626
23 1 44.403 5.26384 18.3331
26 1 42.7537 4.78432 18.9354
25 1 43.8142 4.65075 18.9192
33 1 42.9196 6.0306 20.2957
37 1 45.3768 5.80254 20.553
32 1 42.7729 6.98724 20.3031
34 1 43.2462 6.30513 19.3258
35 1 43.8088 5.70488 19.6417
74 1 22.9599 58.199 18.9208
75 1 22.0587 58.181 18.7686
76 1 21.5489 57.3508 18.4588
78 1 21.2562 56.7365 17.3699
72 1 22.3582 58.842 17.7838
77 1 21.7966 57.4694 17.538
66 1 21.5568 58.3824 16.6104
65 1 22.4892 58.2606 16.2846
71 1 21.4942 58.542 17.8319
69 1 20.8205 57.4586 16.8648
67 1 21.4459 58.7071 15.8666
68 1 20.5961 58.1075 16.0952
80 1 21.6859 55.281 17.936
79 1 21.0997 55.7153 17.1583
73 1 22.727 59.21 18.5108
62 1 21.5394 56.4239 16.3107
61 1 20.6572 56.4115 16.2916
64 1 21.9376 57.569 15.9264
70 1 20.7086 57.872 17.7576
63 1 21.3938 56.7936 15.504
460 1 16.8197 51.5793 23.6172
452 1 17.3445 50.0749 22.1427
453 1 16.7193 49.7217 22.9006
459 1 17.0592 51.0651 22.8274
455 1 16.3089 49.888 23.8781
454 1 17.2042 50.3072 23.5121
458 1 16.0732 51.2586 22.8315
450 1 16.0974 49.3119 21.9619
456 1 15.6306 49.6846 23.0914
7 1 36.4369 44.4012 27.4038
13 1 37.4807 44.0205 26.9817
12 1 37.196 43.6933 27.962
15 1 38.0072 45.3176 26.2301
14 1 37.2851 44.6325 26.2544
444 1 14.7706 50.1884 21.1259
445 1 15.3659 49.5237 20.6991
102 1 51.9355 48.8635 23.1669
443 1 15.0273 49.6285 21.9013
457 1 15.838 50.369 22.4343
449 1 15.8094 48.5635 22.4605
448 1 16.6804 48.436 22.227
451 1 16.4686 50.2159 21.6075
114 1 53.1301 51.2563 22.6685
103 1 52.1964 48.78 22.2042
101 1 52.2844 49.5968 23.7983
118 1 52.2948 49.8298 22.6835
104 1 52.2574 49.6399 21.6769
116 1 51.6883 50.8084 22.6591
105 1 51.2973 49.5632 22.0332
106 1 51.5712 48.9771 21.2854
115 1 52.5329 50.7813 23.3372
117 1 51.4876 49.9358 23.0602
107 1 51.3834 49.8546 20.9723
5 1 35.9721 46.1173 28.1696
6 1 35.8888 45.2257 27.6422
1 1 36.4742 45.4354 25.374
2 1 36.6432 46.028 26.0411
4 1 36.7992 45.5463 28.0188
3 1 36.8867 45.9561 27.1284
9 1 37.4568 44.7036 28.0237
8 1 37.0891 44.9516 27.2515
11 1 36.5866 44.2488 28.5596
16 1 38.0744 46.1583 26.5642
17 1 38.6388 46.2162 25.6622
18 1 38.6301 45.3235 25.349
10 1 37.1113 44.9239 28.9618
446 1 16.4221 49.2521 20.7594
442 1 14.5825 48.6504 21.6765
447 1 17.016 49.0841 21.5396
113 1 53.714 50.3993 23.0534
119 1 53.0405 49.2905 22.9635
120 1 53.1093 49.1985 21.9663
441 1 15.4618 48.5536 21.3783
112 1 53.1542 50.2638 22.243
111 1 53.2498 49.8551 21.1322
108 1 52.3306 50.0418 20.6294
109 1 52.5155 49.041 20.5742
20 1 37.3065 46.0833 25.0951
19 1 37.6322 45.1471 25.1961
110 1 53.3609 49.5657 20.1903
341 1 34.9746 19.0057 32.0041
89 1 35.0722 16.8034 32.5121
95 1 36.2689 17.6538 31.8771
81 1 34.0134 14.867 32.88
88 1 34.1923 17.3223 32.0656
93 1 36.9869 16.9722 31.3525
90 1 35.9681 16.6018 32.4072
91 1 35.8498 16.4732 31.3522
342 1 35.265 17.9855 32.4156
94 1 37.2567 17.7385 31.8227
87 1 34.5671 17.2126 31.1163
99 1 36.2265 18.1448 32.8955
344 1 35.8772 19.2336 32.661
343 1 35.1038 18.5587 33.0868
345 1 36.7489 18.8003 32.3653
355 1 37.8593 16.3167 33.136
82 1 34.2962 15.0358 31.9093
92 1 36.5865 16.2013 30.7041
97 1 37.306 18.1323 32.8686
96 1 36.8377 17.1417 32.6108
351 1 38.5316 18.2038 32.9113
348 1 37.9957 18.9738 31.9553
347 1 37.4937 19.1806 31.1204
86 1 34.504 16.2472 30.7021
85 1 34.2075 16.1906 31.6732
100 1 36.1374 18.66 33.8331
98 1 36.8482 17.6936 33.5475
346 1 36.7929 18.5393 31.4268
354 1 38.5426 16.5544 32.5093
353 1 39.122 17.2906 33.1111
352 1 38.1473 17.3205 33.0743
84 1 34.2791 15.8679 32.5307
83 1 35.159 15.2415 32.4302
359 1 35.6046 16.7263 33.4015
356 1 37.2274 15.5851 32.8232
350 1 38.2272 17.6247 32.0551
349 1 38.6908 18.333 31.6618
360 1 35.5843 17.6984 33.8432
357 1 36.6308 16.2421 33.3137
358 1 36.1898 16.5341 34.205
403 1 4.17843 56.1033 34.6612
404 1 5.04207 56.848 34.3879
405 1 5.68831 56.7546 33.6818
480 1 4.43958 54.7315 34.8907
408 1 4.66503 56.6003 35.9482
479 1 5.01971 54.3482 35.5483
478 1 5.85954 54.7673 35.491
417 1 5.70195 54.5681 34.2114
402 1 3.28423 55.8609 34.2412
406 1 5.45198 55.8725 34.2332
407 1 5.35774 56.2384 35.1688
477 1 6.30271 55.2916 34.8813
419 1 6.60313 53.763 33.4072
418 1 6.41394 54.7942 33.4206
481 1 11.5855 3.97152 39.4042
498 1 12.8922 4.63691 35.5877
493 1 13.2936 6.65249 36.5026
380 1 12.1561 6.36735 37.7056
378 1 13.943 7.39096 37.0709
411 1 6.36947 55.1695 36.5022
416 1 5.69184 53.7723 34.7809
401 1 2.85166 55.7778 35.0863
413 1 6.85203 53.1924 36.255
412 1 6.55397 54.1441 36.0579
409 1 4.96182 55.6103 35.8822
410 1 5.97235 55.7191 35.8098
415 1 6.59092 53.6543 35.0914
414 1 5.92476 53.2675 35.7559
463 1 6.24788 57.2193 35.6361
462 1 6.15339 57.4547 34.6859
420 1 7.24199 53.7548 34.2038
474 1 7.55406 54.698 33.587
473 1 8.25308 54.2651 34.1982
464 1 6.86489 56.3705 35.6754
465 1 7.46363 55.9069 34.9901
476 1 6.79306 54.6193 34.5306
475 1 7.06923 55.5398 34.0911
128 1 16.6499 6.46434 35.3921
127 1 16.0742 5.78977 35.6502
125 1 15.3163 5.02973 35.2032
126 1 15.9267 4.85401 35.8146
124 1 15.1516 4.15198 35.6855
482 1 11.6039 3.83117 38.4573
483 1 11.4145 2.92861 37.9626
497 1 13.6972 4.12754 35.861
484 1 11.9643 3.44907 37.3611
496 1 14.308 4.65351 35.4559
495 1 14.165 5.56148 35.2653
494 1 14.1149 6.36214 35.8973
131 1 15.2139 6.18744 35.0914
129 1 16.9149 6.392 34.4334
130 1 16.0214 6.57765 34.4365
499 1 13.3087 4.32032 34.7536
500 1 13.1915 3.89177 33.9365
488 1 12.0247 4.44293 36.2994
492 1 13.1785 5.79841 35.8587
134 1 15.0057 5.72498 36.1703
133 1 15.6999 6.34581 36.5863
490 1 12.4011 4.86949 37.3057
375 1 13.0347 5.73138 37.8581
374 1 13.8037 6.38197 37.9481
377 1 14.4881 6.4978 36.887
376 1 13.7791 5.83278 37.1035
373 1 14.7803 6.58642 37.8835
371 1 15.91 6.16149 37.5867
325 1 11.5077 4.49091 37.7279
327 1 11.2605 5.26118 39.0441
326 1 11.9618 4.80319 38.6278
379 1 13.0003 6.77304 37.4901
323 1 11.5611 5.53044 37.9746
471 1 8.45505 54.313 35.2603
461 1 6.43601 56.4589 34.6027
467 1 8.0084 55.2167 35.9442
470 1 7.47453 54.1587 35.7016
472 1 8.06879 55.0523 34.7722
466 1 7.11538 55.284 35.763
123 1 15.0877 3.87717 36.7146
485 1 11.2275 4.0029 36.8275
486 1 11.2936 3.20321 36.2499
137 1 14.3201 4.91938 36.4968
138 1 13.4742 4.54447 36.7594
132 1 15.7618 6.78307 35.7042
136 1 15.0501 4.8476 37.2279
122 1 15.6027 3.65081 37.6452
121 1 14.7728 3.2019 37.9178
487 1 11.7676 3.86745 35.5809
489 1 11.6023 5.14529 36.9029
139 1 13.9394 3.63611 36.8245
491 1 12.7832 5.35282 36.5866
140 1 12.8899 3.52925 36.6506
369 1 15.3146 5.14802 38.194
135 1 15.1073 5.73821 37.2128
361 1 12.5979 4.09986 38.1177
337 1 13.8905 4.97939 37.7071
338 1 13.6347 4.05017 38.0555
367 1 15.0362 4.25613 38.7815
336 1 14.1369 5.52948 38.4835
370 1 16.0243 5.15384 37.6085
368 1 14.5678 4.33369 38.0095
372 1 15.5835 7.05862 37.5853
324 1 10.6529 5.03944 37.7549
362 1 12.7303 4.1951 39.0876
363 1 13.5957 4.48655 39.2834
335 1 13.2661 5.28705 38.8019
328 1 11.5912 5.02656 39.8948
329 1 11.9971 5.85528 39.7375
322 1 10.9369 6.32982 38.2093
321 1 10.4532 6.47963 37.4218
330 1 12.4748 5.83882 38.7865
42 1 23.6808 26.23 38.1754
60 1 26.9754 26.9087 39.8796
48 1 26.7245 27.4019 38.3965
46 1 25.9733 27.5753 39.1958
53 1 28.3148 27.1181 38.3205
52 1 27.3839 26.7105 38.1621
54 1 27.6625 26.8298 39.1066
50 1 27.2432 25.8042 39.0101
51 1 27.9951 25.9422 38.4457
49 1 26.6448 26.6489 38.8869
468 1 8.7143 54.7764 36.3023
469 1 8.26834 53.9427 36.3114
339 1 13.4217 3.43088 38.6663
340 1 12.7859 3.13401 37.9513
366 1 15.2415 5.15482 39.2894
365 1 14.9126 5.78462 40.0584
364 1 14.268 5.17843 39.5208
334 1 12.8377 4.97541 39.6284
332 1 13.4633 6.26781 39.1214
333 1 13.5645 5.74354 39.9444
331 1 12.8854 6.78185 38.9878
41 1 24.1849 26.5782 37.4576
43 1 24.2064 26.541 39.0051
45 1 25.1993 26.9813 38.9294
44 1 25.0015 26.0559 39.3317
58 1 27.9159 27.7343 39.3804
57 1 28.6334 27.0019 39.3834
59 1 26.9567 27.7482 39.5733
47 1 26.2958 28.2312 38.4061
55 1 28.0559 26.1118 39.7849
56 1 28.8372 26.0599 39.3887
428 1 34.292 37.0183 44.7848
427 1 33.6377 37.8861 44.9686
163 1 48.8986 21.4073 43.3119
242 1 50.556 22.0825 42.8122
246 1 50.8805 21.2365 43.7529
247 1 51.7286 21.7704 43.847
245 1 50.4526 22.0261 44.0242
162 1 48.0087 21.5831 43.0417
161 1 47.1411 22.1558 43.3149
164 1 48.4708 21.8638 43.9348
241 1 49.9274 22.704 43.2498
243 1 51.3168 22.5621 43.2847
173 1 51.4143 23.6712 42.7193
244 1 50.8201 22.9246 44.0287
256 1 49.6453 23.1042 44.1914
174 1 50.5526 23.277 42.3621
175 1 49.6325 22.6199 42.253
176 1 49.1899 23.4321 42.1389
171 1 49.8575 23.8803 43.6668
180 1 47.5084 22.1643 41.8172
422 1 31.9386 36.3551 44.1062
320 1 33.0797 34.523 44.973
319 1 32.1121 34.686 45.0625
429 1 34.486 36.9778 43.6824
430 1 34.4467 36.0365 43.9112
431 1 35.0961 36.329 44.6224
423 1 32.1158 37.2577 44.096
421 1 32.9208 36.4987 44.3036
424 1 31.8112 38.0019 43.6595
426 1 33.8831 37.7232 43.9664
433 1 35.6366 38.1692 44.2387
432 1 35.4389 37.1569 44.0964
309 1 34.9436 36.9158 45.8206
425 1 32.809 37.9104 43.952
310 1 34.7174 37.3587 46.6632
434 1 35.1176 37.9285 44.9706
435 1 36.1307 38.0226 45.2318
437 1 36.1369 38.0443 46.9544
260 1 50.138 21.6433 45.8246
249 1 50.9021 21.4496 44.8464
248 1 51.497 22.2485 44.6524
250 1 51.6107 21.2235 45.3712
165 1 47.9351 22.6948 43.9164
258 1 49.5388 22.0886 44.9799
166 1 48.6738 23.3663 43.8955
257 1 48.7747 22.7742 44.7938
255 1 49.5415 23.4222 45.1747
252 1 50.6179 22.5416 45.0829
253 1 51.1717 23.5175 44.9234
254 1 50.3803 23.8956 44.6351
177 1 48.7182 23.0502 42.8793
168 1 48.5322 24.6025 45.4239
167 1 48.4091 23.8261 44.5814
178 1 47.7966 22.5771 42.708
172 1 50.766 23.8681 43.3545
170 1 49.0447 24.3215 43.7502
179 1 47.6925 23.1802 41.8788
204 1 30.0874 33.6483 46.6934
205 1 29.6681 32.9049 46.4143
206 1 30.4989 32.7565 46.8991
207 1 30.4513 31.8565 46.8745
208 1 30.0296 30.9731 46.9985
209 1 29.0447 31.0205 47.2968
198 1 30.8526 33.8484 48.9659
202 1 31.5706 33.4791 47.1482
203 1 30.7759 33.9561 47.3973
201 1 32.0342 34.2552 47.4459
212 1 31.3062 32.2599 47.6286
213 1 31.559 31.5896 48.2566
318 1 31.3285 34.251 44.7777
315 1 32.3066 35.3509 45.7936
316 1 32.04 34.4561 46.0814
307 1 33.8392 35.8561 46.128
192 1 32.4335 32.1005 49.8811
194 1 31.6812 33.8648 50.3141
197 1 31.4744 34.5662 49.4328
196 1 31.8575 34.1932 48.6398
312 1 33.8173 36.6543 45.5748
317 1 31.2854 33.8204 45.6521
314 1 32.8723 35.6247 45.1015
313 1 33.6934 35.9199 44.867
308 1 34.8306 36.1238 46.269
440 1 35.7013 37.0375 45.1124
438 1 35.6649 37.0825 46.9354
311 1 34.0898 37.56 45.9364
439 1 35.8477 37.4065 45.9804
436 1 35.8335 38.4392 46.0916
259 1 49.769 22.4868 45.8209
251 1 51.1842 22.16 45.7567
169 1 48.7815 25.0278 44.5806
186 1 29.7292 33.5596 49.1516
184 1 29.8307 32.3261 48.7436
185 1 29.2257 33.1286 48.3925
183 1 30.4513 31.8073 49.3121
210 1 29.5967 31.3001 48.0349
181 1 30.2581 30.7092 48.6176
190 1 31.3587 32.3169 49.1803
199 1 31.3175 33.3107 48.4416
187 1 29.6607 33.2742 50.108
188 1 30.608 33.4521 49.8991
211 1 30.5034 31.7456 47.9784
200 1 30.4452 32.8647 48.0529
216 1 29.6123 30.1664 47.9284
191 1 32.2765 32.4224 49.059
193 1 31.774 32.8413 50.1783
195 1 31.7785 33.5598 49.3934
189 1 30.5797 32.8081 49.2441
214 1 31.0984 30.936 47.6289
215 1 30.4472 30.0663 47.2773
218 1 29.6139 28.9999 47.1981
217 1 29.8831 29.2285 48.1522
302 1 32.2974 36.4751 45.1814
304 1 33.5306 36.4584 46.9048
305 1 33.2495 35.8091 47.4919
303 1 32.8959 36.4504 46.0307
306 1 33.0498 35.5596 46.5319
301 1 33.0112 37.1472 45.1372
182 1 30.9689 31.0526 49.0556
220 1 28.4133 28.6053 47.0427
219 1 28.8348 28.8697 47.8253
400 1 11.7823 14.3614 57.4324
388 1 13.457 13.419 59.2774
390 1 14.2878 13.2761 57.8029
391 1 14.3076 14.2677 58.1123
389 1 14.4182 13.5299 58.7485
142 1 45.1113 12.0014 58.5
160 1 45.0552 10.8382 58.7951
159 1 45.6152 10.3019 59.4259
145 1 44.3308 12.644 56.7764
144 1 43.5703 12.1135 57.2161
141 1 44.3767 11.91 59.0858
143 1 44.208 11.8841 58.0037
146 1 44.746 11.7688 56.7486
399 1 12.5006 13.6021 57.6514
386 1 13.5334 14.6755 0.746326
397 1 13.4973 12.6813 57.8758
398 1 13.2918 13.5472 58.1631
387 1 13.7297 14.0296 0.0462206
396 1 13.9087 12.8711 56.9492
393 1 13.2129 14.4473 58.7198
392 1 14.1993 14.5932 59.1467
221 1 23.6938 5.19027 59.5416
236 1 28.1825 6.52554 1.07222
234 1 26.8102 5.8822 0.0865032
237 1 29.1593 6.07107 1.23898
156 1 42.9084 10.3095 58.7058
154 1 42.9014 10.9684 57.3982
155 1 43.237 11.2196 58.2659
157 1 43.8824 10.6927 58.9787
158 1 44.646 10.1339 59.4196
153 1 43.4089 10.1358 57.2426
381 1 13.0392 14.5354 1.61632
148 1 44.1341 11.0694 57.3348
147 1 45.12 11.4182 57.6084
152 1 43.8875 9.45923 56.7726
382 1 12.6331 14.2224 0.932555
270 1 11.0455 14.3724 58.3732
385 1 13.24 14.9046 59.7655
395 1 13.4072 13.826 57.0502
272 1 10.4347 14.489 59.5094
271 1 9.94282 14.1531 58.5911
269 1 11.3848 13.508 58.8659
394 1 13.0379 14.674 57.6499
274 1 9.96093 12.948 0.388856
268 1 11.5122 13.9906 59.8592
267 1 11.5227 14.7807 59.3666
226 1 24.0185 4.57599 1.44709
222 1 24.4086 5.59307 0.188062
225 1 24.4736 4.44382 0.506021
227 1 24.9917 4.68664 1.8664
228 1 24.8509 5.53022 1.33686
223 1 25.268 5.25259 59.5464
233 1 26.464 4.97715 0.554915
229 1 25.2546 6.35485 0.932234
235 1 27.8069 6.16556 0.37914
232 1 26.2799 5.06956 1.53739
238 1 28.3419 5.41979 1.13926
149 1 44.1403 10.3644 58.0197
151 1 44.5885 9.98198 57.1058
150 1 45.1155 10.236 57.9846
279 1 12.5127 13.3989 58.9361
280 1 12.9641 12.4722 58.9808
278 1 12.5758 12.9422 59.8631
384 1 12.5249 14.1816 59.6327
277 1 11.7585 12.5494 59.4308
273 1 10.1355 13.7499 59.7557
265 1 12.1603 15.2272 58.1391
276 1 10.7964 12.8514 59.6688
383 1 12.1656 14.7043 0.227324
263 1 11.0583 14.8882 56.7925
266 1 12.0433 14.2836 58.6092
264 1 11.9089 15.4596 57.2151
275 1 10.8882 12.8836 0.495519
ITEM: TIMESTEP
32000
ITEM: NUMBER OF ATOMS
500
ITEM: BOX BOUNDS pp pp pp
0.0000000000000000e+00 6.0000000000000000e+01
0.0000000000000000e+00 6.0000000000000000e+01
0.0000000000000000e+00 6.0000000000000000e+01
ITEM: ATOMS id type x y z
224 1 26.4014 6.6423 1.62101
222 1 26.5076 5.24331 1.55177
225 1 26.7423 7.50618 1.615
228 1 25.0759 6.87771 2.18221
233 1 26.7492 5.01109 3.08772
240 1 28.3252 4.17903 1.94452
238 1 29.7199 4.73455 2.39844
229 1 25.546 6.71879 2.93017
231 1 25.3121 5.42222 2.10341
234 1 27.6732 4.51789 2.89513
236 1 28.2552 5.1487 3.76727
235 1 27.9422 5.3574 2.76567
237 1 28.8588 4.74746 3.04731
274 1 12.1469 12.8191 59.727
275 1 12.6111 13.3133 0.377653
382 1 13.0864 15.1639 0.0913626
387 1 13.5573 13.3591 0.745506
383 1 13.7083 15.2675 0.892531
386 1 13.4249 13.5747 1.79084
226 1 26.0293 7.87408 2.22879
227 1 25.4365 7.7066 1.56001
232 1 25.7107 4.93211 2.82945
239 1 28.8993 5.01809 1.93407
230 1 24.857 5.96381 2.80957
381 1 13.8082 15.4346 59.3642
288 1 41.086 53.6588 12.5234
289 1 40.1862 53.7577 12.9178
283 1 42.1289 53.1947 13.5652
282 1 41.3554 52.7595 13.7349
284 1 41.8776 52.9574 12.6755
281 1 42.0824 52.1251 13.6725
287 1 40.549 53.2225 11.8809
299 1 40.5424 51.9131 9.24592
298 1 39.7083 52.323 9.42442
300 1 40.3254 51.6254 8.28391
285 1 41.5799 53.0899 11.6594
295 1 40.715 51.5052 10.9019
296 1 40.2219 51.1578 10.0578
291 1 40.9956 52.2674 12.1213
286 1 40.9565 52.9056 10.9779
290 1 40.4053 52.8004 12.8629
294 1 39.9179 51.1639 11.2657
297 1 40.1712 52.1357 10.2484
292 1 40.211 52.2696 11.7568
293 1 40.1838 51.3545 12.2074
63 1 20.3552 57.4924 15.8271
61 1 21.1487 56.7953 15.0085
62 1 21.4395 57.4504 15.9142
69 1 21.3886 57.6875 13.2829
68 1 20.7342 56.9325 12.9771
66 1 20.5858 57.8455 14.7357
65 1 20.017 56.9296 14.7434
64 1 19.5147 57.6105 15.1411
67 1 20.6392 57.2983 13.9664
27 1 45.2871 5.41237 19.6862
28 1 45.1884 4.41946 19.5805
22 1 43.686 5.5737 20.2508
23 1 43.5266 5.60241 19.3268
29 1 44.5151 4.86745 20.1602
21 1 43.3647 4.6131 19.9658
80 1 23.2292 56.5801 14.4175
78 1 22.7033 56.7681 13.3806
79 1 22.7408 55.9304 13.7485
70 1 22.0977 58.278 13.7961
76 1 21.6562 57.5813 14.4097
77 1 21.7145 56.8236 13.6701
71 1 21.5483 58.8417 14.4421
72 1 21.3526 58.3808 15.3442
73 1 22.2676 57.9774 15.3948
30 1 44.4281 3.91765 19.9736
26 1 45.632 5.48652 18.7266
25 1 44.5454 5.40968 18.6795
24 1 44.3861 5.81015 19.5442
31 1 45.1401 4.16258 20.6199
34 1 44.5212 5.38229 21.1006
35 1 43.7336 5.89329 21.4294
40 1 41.5344 7.00424 21.1191
39 1 42.384 6.8374 20.7544
38 1 43.0541 6.30398 20.0371
75 1 22.1591 56.8708 14.6916
74 1 22.8823 57.1363 15.391
36 1 42.7989 5.61662 20.9635
32 1 44.7785 3.62408 21.3318
33 1 44.1239 4.39844 21.3558
37 1 42.4812 5.42415 19.9939
441 1 20.2692 51.8013 22.534
445 1 20.5453 50.2445 20.894
446 1 20.5815 51.2106 20.6636
107 1 50.8771 50.2907 21.6895
106 1 51.8262 50.1561 21.2718
109 1 50.7756 50.0125 20.6041
111 1 51.5698 50.7904 19.6646
110 1 51.2528 50.799 20.5388
444 1 19.9695 49.6495 21.4826
108 1 50.1406 49.8345 21.3171
449 1 19.4107 51.81 21.1737
448 1 20.2756 52.2285 21.467
443 1 20.1487 50.2282 22.132
442 1 20.0952 51.0789 21.7883
450 1 19.3313 51.3723 20.334
447 1 20.3542 52.08 20.5447
105 1 52.586 50.1658 20.606
103 1 51.6371 48.8721 20.4708
118 1 51.5438 49.3307 19.105
104 1 51.8159 49.8501 20.1227
120 1 50.0368 49.4106 19.8894
458 1 19.2849 49.3122 22.433
457 1 18.9725 49.8314 21.6875
451 1 19.5711 50.6344 20.9138
452 1 18.9397 50.8922 21.6316
116 1 52.7911 50.2213 19.3272
114 1 52.0641 50.2215 18.5285
112 1 50.603 50.4252 19.5977
456 1 17.9775 49.5466 21.4755
453 1 18.4869 50.5681 20.7716
455 1 18.4585 49.2735 20.5656
102 1 52.1186 48.6253 19.6808
101 1 52.8381 49.22 20.1208
117 1 52.6061 49.3476 18.8468
119 1 50.7922 48.8362 19.5798
459 1 18.9284 48.4336 22.5216
454 1 17.7657 49.8573 20.1772
115 1 52.8499 50.8904 18.6306
113 1 51.0821 50.2962 18.7537
460 1 18.8984 48.6956 21.5514
1 1 34.329 47.6759 29.1317
19 1 33.768 45.1166 27.5804
18 1 33.703 44.6824 28.4692
20 1 33.5845 45.846 28.4306
17 1 33.3229 44.9418 29.2697
13 1 33.6559 46.2046 30.6383
15 1 33.9695 46.1855 29.4938
14 1 33.1579 46.0661 29.848
2 1 35.2504 47.2311 29.0357
3 1 34.5455 46.4822 28.6295
16 1 34.3504 45.193 29.377
11 1 33.1552 47.6744 30.3278
12 1 33.3629 47.0171 30.9772
7 1 33.8447 47.3209 27.9746
6 1 34.2959 46.9169 27.1255
4 1 34.6581 45.9099 27.8247
8 1 33.3823 46.7871 28.8074
9 1 33.1886 47.5877 29.3118
5 1 35.0233 46.1923 26.8947
10 1 33.6936 47.0505 29.7961
86 1 33.1436 14.4482 33.8679
93 1 34.0555 17.4102 32.0675
91 1 34.4861 16.4512 32.0167
92 1 34.0554 16.8478 31.3041
87 1 33.1737 15.4568 33.6466
346 1 33.2891 18.3316 32.2863
347 1 34.1821 18.3429 32.6152
82 1 34.0589 14.6192 31.988
83 1 33.7538 13.8975 32.5625
356 1 35.4561 16.4615 32.9737
85 1 33.819 14.6661 33.345
84 1 34.6633 14.245 32.9548
89 1 33.6126 16.3207 33.7735
90 1 34.2827 16.6243 32.9078
96 1 34.8111 17.5464 32.8865
354 1 36.2527 16.5531 32.1995
88 1 33.9073 15.3603 34.2149
342 1 32.7688 16.9744 32.5475
95 1 35.3523 17.2311 32.0605
94 1 34.7491 17.5834 31.3666
350 1 35.536 18.2076 31.9914
349 1 35.2985 19.0026 32.3984
341 1 32.7641 17.2608 33.5975
344 1 33.6309 17.7463 34.067
345 1 33.4273 18.4255 33.2668
348 1 34.951 18.7255 33.2409
500 1 13.1415 4.9393 35.0215
81 1 34.6156 14.9221 31.3467
359 1 35.1806 15.1165 32.5362
357 1 34.908 15.679 33.4392
358 1 34.363 15.4786 32.6229
355 1 35.5068 16.1103 32.0845
343 1 33.562 17.3282 33.0177
360 1 36.2524 14.8069 32.8455
99 1 36.0274 15.9626 33.6868
98 1 35.2256 16.4296 34.069
97 1 34.6438 17.1178 33.774
351 1 36.4594 17.8986 32.1925
352 1 36.0962 17.5041 33.1323
353 1 36.8111 16.7575 32.9001
100 1 36.976 15.8099 33.4701
419 1 5.66457 52.7397 35.5692
420 1 4.65588 52.5122 35.2929
473 1 5.83024 54.5644 33.7734
417 1 4.53676 53.5386 34.8099
418 1 5.46914 53.7198 35.2847
475 1 4.63918 54.5914 34.4947
474 1 5.24031 53.8281 34.0752
402 1 3.71698 55.7778 36.8406
405 1 3.40241 56.0286 35.2552
406 1 4.09134 55.8669 34.5679
487 1 12.5649 3.18194 35.8813
498 1 12.7065 5.36469 36.1029
495 1 13.246 6.86616 37.0522
499 1 13.6581 5.2192 35.8676
125 1 14.4826 7.00065 36.6619
496 1 12.8949 7.2953 36.2238
131 1 12.6757 7.15762 38.3189
128 1 14.4883 7.54854 38.4154
127 1 14.0736 7.55612 37.5096
129 1 13.9562 6.7611 38.5051
130 1 13.3602 7.44152 38.9017
132 1 12.1407 7.81719 38.2108
416 1 3.46763 53.6579 35.2628
415 1 4.36912 53.7495 35.8051
470 1 5.91402 52.9712 34.3805
480 1 3.44049 53.495 36.2893
479 1 3.86022 54.3985 36.6011
478 1 4.31271 55.0185 36.1987
477 1 4.39952 55.1173 35.2535
476 1 5.3227 54.8295 35.1154
471 1 6.98083 52.9863 33.9947
472 1 6.46685 53.7336 33.4885
401 1 4.60079 55.9229 36.5607
403 1 3.08963 55.2817 36.2395
404 1 3.28158 55.0311 35.308
407 1 4.8974 55.9952 35.1812
464 1 7.30789 53.825 35.539
461 1 7.17476 55.0546 33.6493
465 1 6.82111 54.632 35.3528
463 1 7.82336 53.7128 34.7161
462 1 7.51887 54.6867 34.5876
485 1 13.9255 2.27264 35.9292
486 1 12.8866 2.19994 35.8551
497 1 12.8744 6.19416 36.0829
139 1 13.1692 4.5126 36.9647
140 1 13.1873 3.94096 36.1848
124 1 14.1062 6.0398 36.6775
123 1 14.6688 5.40946 36.3942
488 1 11.8294 3.91247 35.6005
489 1 11.0193 3.7724 36.0348
491 1 11.0036 4.23637 37.0382
138 1 13.7579 5.20921 37.2231
137 1 12.8317 5.62555 37.3148
126 1 14.2904 6.57193 37.532
493 1 11.6906 5.93064 36.3812
494 1 12.331 6.50485 36.795
492 1 11.7222 4.93582 36.5612
376 1 11.3055 4.52803 38.6707
134 1 12.379 6.25512 37.9217
133 1 11.711 6.8861 38.2081
377 1 11.526 5.44202 38.237
378 1 10.8118 5.13917 37.5342
413 1 6.03647 54.6712 36.0442
412 1 6.46437 55.5341 35.6984
414 1 5.1619 54.3304 36.184
469 1 6.44255 52.1596 34.1398
409 1 5.06027 57.3055 35.9349
411 1 5.40789 55.4156 35.9861
466 1 6.26394 54.0498 34.7412
467 1 6.39853 53.3471 35.5451
468 1 6.79448 52.6035 34.9498
408 1 4.27432 56.6262 35.7001
410 1 5.44944 56.3405 35.9871
483 1 14.0365 2.07387 37.101
482 1 13.4393 2.72224 37.7504
484 1 14.346 1.39223 36.3826
361 1 15.6473 3.58706 37.0426
340 1 14.4958 3.08941 36.3093
338 1 14.4297 4.26509 35.9607
122 1 15.1461 6.19599 36.0487
121 1 15.9738 6.30435 36.7122
324 1 11.1036 3.00864 36.8418
490 1 11.8597 3.925 36.7509
325 1 12.1218 2.73094 36.7996
323 1 10.8231 3.46073 37.6263
337 1 13.9969 3.71243 36.9209
336 1 13.5714 3.83115 37.6935
136 1 13.4144 6.06057 37.8106
369 1 14.9607 5.38497 37.6099
368 1 15.1564 4.62449 36.9389
370 1 14.3948 5.73047 38.1182
322 1 11.7141 3.59878 38.2359
321 1 10.8147 3.59252 38.5909
380 1 11.1612 6.82482 36.7175
375 1 12.2314 4.48718 38.3883
374 1 13.0689 4.7532 38.022
379 1 11.1949 6.09681 37.4267
373 1 13.8865 4.77952 38.1615
135 1 12.9173 5.77459 38.6423
372 1 13.4569 4.98207 39.1019
371 1 14.3652 5.24649 39.0265
42 1 28.9738 28.3653 38.4653
41 1 29.1597 29.1935 39.0948
53 1 27.3159 26.3354 40.517
52 1 28.1239 26.7207 39.8406
51 1 27.9661 27.6724 39.9959
48 1 29.134 27.265 39.1067
47 1 29.5768 27.132 40.0966
481 1 13.1491 3.03144 36.7812
362 1 15.5353 2.85396 37.7402
339 1 14.0467 3.49247 35.5213
367 1 15.1262 4.28891 37.8524
327 1 11.5549 2.54585 37.7537
326 1 12.4091 2.761 37.7346
328 1 10.8407 2.53242 38.2274
334 1 12.7806 3.58035 38.5154
363 1 14.7418 2.21015 37.869
335 1 12.595 3.81539 37.4734
364 1 14.6415 3.30879 37.9061
333 1 12.0876 3.71881 39.2385
366 1 14.6576 3.98217 38.7952
329 1 10.4198 2.66283 39.3229
330 1 11.3443 2.8896 39.1963
332 1 11.831 4.53603 39.6451
331 1 11.0621 3.72281 39.7526
43 1 29.3552 27.668 37.8637
45 1 30.2828 27.5384 39.307
44 1 29.9718 28.1659 38.5799
60 1 29.6724 26.1402 39.8452
49 1 28.2694 27.5891 38.9609
54 1 26.4243 26.172 40.2542
50 1 28.4437 28.3821 39.4631
55 1 26.6711 25.8168 39.409
57 1 27.7594 25.6228 39.2131
56 1 27.2667 26.4531 39.0012
46 1 29.4758 28.1547 39.6192
59 1 28.688 25.6997 39.7457
58 1 28.427 26.339 38.9477
365 1 14.909 2.98056 38.8139
180 1 48.9381 20.3505 39.7677
178 1 48.7847 21.1225 40.6451
175 1 49.7757 22.074 39.1691
242 1 49.9322 20.0184 40.5548
179 1 48.119 20.8628 39.9155
176 1 48.9626 21.5319 39.2735
174 1 49.5443 21.6917 40.1629
173 1 49.4123 22.6568 40.3132
163 1 50.5744 20.7248 43.4145
246 1 51.1862 22.8 42.1343
161 1 51.3001 21.3157 42.701
162 1 50.5062 21.6799 42.8941
164 1 50.7467 20.369 42.6507
165 1 50.7119 20.8582 41.8554
241 1 49.412 19.3126 40.0846
245 1 50.9537 22.3656 41.158
243 1 50.1239 20.8317 40.1318
247 1 51.8588 22.7479 42.8046
256 1 49.935 22.8621 42.2908
171 1 49.9628 22.4242 41.2256
166 1 49.8479 20.815 41.3869
177 1 48.4966 21.7722 40.0581
244 1 50.5143 21.4598 40.8374
172 1 50.3785 22.9404 40.4334
170 1 49.8957 23.4582 41.3234
422 1 30.4824 38.995 45.1846
429 1 31.4219 38.8345 45.0706
430 1 31.9887 39.5167 45.5272
423 1 30.9535 39.4836 44.3834
424 1 30.7814 38.4621 44.3273
425 1 31.0776 37.6363 43.8704
426 1 31.7664 38.5327 43.976
433 1 33.1593 39.6948 44.2455
432 1 33.0154 39.3049 45.2206
250 1 50.7918 22.4801 44.5833
258 1 49.6508 21.6627 43.4822
257 1 49.4162 22.2993 42.8617
249 1 50.6954 23.1802 43.8605
252 1 49.673 22.3167 44.5955
248 1 51.0712 22.446 43.3216
167 1 49.7793 21.5817 41.8779
255 1 49.02 23.2095 42.5365
253 1 48.9125 22.1131 44.0164
254 1 48.4828 22.6352 43.3469
168 1 49.0303 22.223 41.8665
169 1 48.9681 22.8988 41.2375
318 1 32.6819 37.5692 44.8518
317 1 32.3401 36.5862 45.1255
319 1 31.9282 37.7908 45.7055
314 1 31.1122 37.2771 46.535
320 1 31.2059 37.6715 45.1655
302 1 30.9506 38.2528 47.1988
428 1 32.279 38.6851 44.8635
421 1 30.0823 38.0643 45.1355
312 1 31.4289 38.7601 46.3922
313 1 30.8573 38.036 46.0987
301 1 30.2399 38.7754 46.8422
431 1 32.4952 38.7201 45.8536
440 1 35.085 37.5802 45.9399
427 1 32.0707 39.4071 44.3241
434 1 32.8419 40.3372 44.9747
435 1 33.5828 40.8685 45.2963
259 1 49.2563 20.8502 43.0275
260 1 49.3973 20.7425 44.0286
251 1 50.3479 21.5701 44.4939
220 1 31.9442 36.3175 47.6762
208 1 32.3776 34.2785 49.2199
206 1 33.5212 34.0755 48.0748
207 1 33.1524 33.7695 48.8667
205 1 34.5313 34.2618 47.9954
204 1 35.0612 33.3613 48.0263
202 1 34.5355 32.4618 46.8169
315 1 32.0717 36.8885 46.2008
316 1 33.046 36.7578 45.8594
306 1 32.1028 38.1739 46.895
307 1 32.8494 37.7106 46.6804
304 1 31.4778 39.3106 47.4353
303 1 30.9101 38.7954 48.1107
309 1 33.5511 39.1445 46.0996
308 1 33.0382 38.7118 46.7659
438 1 34.1711 38.215 46.041
311 1 32.1632 39.5124 46.5792
310 1 32.9723 39.9382 46.0544
437 1 34.5731 39.1333 45.7289
439 1 34.9135 38.1782 45.3336
436 1 33.9164 39.8272 45.3524
218 1 31.7814 35.3311 48.2647
217 1 31.3789 34.4253 48.2779
219 1 31.1456 35.857 47.5883
209 1 32.0478 35.1884 49.3105
210 1 31.1724 34.6676 49.3465
216 1 30.4147 34.1553 48.5396
214 1 31.1808 32.7362 47.2947
215 1 30.89 33.466 48.0515
212 1 31.9088 33.0087 48.4387
211 1 31.2378 33.6127 49.0645
213 1 31.8542 32.2661 47.8865
185 1 32.1098 33.1017 49.4807
203 1 34.4214 33.2423 47.3802
199 1 34.0825 32.4493 48.207
200 1 34.1531 33.237 48.6342
201 1 34.2657 31.6741 47.3255
305 1 32.3206 38.8084 47.7058
181 1 33.8088 31.4032 48.4858
182 1 32.8019 31.4957 48.7789
184 1 32.1339 32.2885 50.0189
183 1 31.9667 32.0404 48.9621
190 1 32.8409 33.2074 47.8983
189 1 33.0016 32.6841 48.566
192 1 31.8437 33.5223 47.6059
191 1 32.3876 34.1721 47.868
186 1 33.0029 33.0024 49.7384
198 1 33.2887 31.9595 47.6658
188 1 33.6028 32.1543 49.1307
196 1 32.4004 31.4229 46.9532
195 1 32.959 32.2448 46.5512
197 1 32.9086 31.0537 47.7146
193 1 32.2115 33.0342 46.7739
187 1 33.3239 32.1118 50.0722
194 1 31.9789 32.1472 46.215
152 1 46.3382 12.1603 0.111144
151 1 45.3172 12.0648 0.243094
145 1 46.7006 11.7813 57.5241
146 1 46.4235 11.9665 58.4807
396 1 15.423 12.3144 58.9745
395 1 15.6735 13.3005 58.6034
263 1 12.9245 13.0547 58.1109
154 1 46.5815 10.3721 59.3363
155 1 46.8668 10.8311 58.3754
153 1 46.297 11.303 59.4588
148 1 45.7268 11.0918 58.622
149 1 44.9962 11.5591 59.0749
147 1 45.4642 12.0401 58.2384
150 1 45.7045 12.2931 59.318
397 1 16.0518 12.5496 59.8649
144 1 46.838 10.8896 57.1992
143 1 46.1034 10.5851 57.6178
142 1 45.469 10.092 58.2662
399 1 14.91 12.8046 59.9913
266 1 12.571 12.3977 58.8378
398 1 15.6182 12.8112 0.814512
390 1 14.5904 15.1025 0.0809602
391 1 14.7801 14.2087 0.595634
262 1 12.5532 13.3985 57.2681
261 1 11.5733 13.4664 57.0383
270 1 13.7981 11.4937 59.8928
400 1 14.5367 12.9872 0.682842
265 1 12.9641 12.0567 58.0722
264 1 13.7554 12.6514 58.4304
394 1 14.7745 13.3006 58.9211
221 1 26.0441 4.37654 1.55935
223 1 27.0076 6.07498 2.16792
156 1 46.467 9.94057 58.3512
157 1 47.089 9.74791 57.5566
160 1 46.1108 8.91943 58.3189
159 1 46.0735 9.38841 57.4296
158 1 46.8488 8.86508 57.1025
276 1 12.3102 12.86 1.21624
277 1 13.0762 12.338 1.08581
280 1 13.0935 13.7105 2.75738
141 1 44.6373 10.6385 58.2611
271 1 13.3009 11.6919 59.0104
269 1 13.8952 11.9752 0.765766
273 1 12.3871 11.873 0.200438
268 1 13.3521 12.5825 0.00239402
279 1 12.4351 13.3089 2.26152
278 1 12.9478 12.5313 2.1155
384 1 13.8856 14.367 1.31212
388 1 14.1272 13.4246 59.8247
389 1 13.8697 14.3645 0.0676199
272 1 12.3751 11.5883 59.3396
267 1 13.1556 13.1439 59.3388
393 1 14.7544 14.4164 58.8262
392 1 15.0219 14.2948 59.728
385 1 12.8003 14.0929 1.22973
ITEM: TIMESTEP
33000
ITEM: NUMBER OF ATOMS
500
ITEM: BOX BOUNDS pp pp pp
0.0000000000000000e+00 6.0000000000000000e+01
0.0000000000000000e+00 6.0000000000000000e+01
0.0000000000000000e+00 6.0000000000000000e+01
ITEM: ATOMS id type x y z
273 1 14.4291 10.145 0.991281
277 1 13.2563 11.8881 2.91534
269 1 15.2932 12.1115 1.23008
268 1 14.6367 11.6683 0.637872
398 1 15.0364 13.9602 3.42375
151 1 48.4905 9.03389 58.414
152 1 48.0728 9.99255 58.272
275 1 13.569 11.7529 1.5014
276 1 13.0718 11.2285 2.13141
385 1 13.38 13.3588 59.7994
387 1 14.3534 13.0522 0.949773
391 1 16.5102 13.5987 59.7162
400 1 16.3924 14.3989 1.80897
382 1 14.8142 13.0961 58.9901
383 1 13.9551 12.8237 59.1242
384 1 14.2753 13.5235 59.8431
389 1 15.4763 14.2009 59.9105
390 1 16.2284 14.0949 0.500682
240 1 27.8219 4.4973 3.30927
231 1 26.69 5.1546 2.77035
232 1 25.9677 5.51212 3.38111
222 1 28.7681 8.11861 3.79265
221 1 29.4668 8.90382 3.4865
235 1 27.3654 4.74484 5.53234
238 1 26.4871 4.53979 3.87423
239 1 27.1934 5.13377 3.61135
228 1 28.1687 5.9277 3.96711
230 1 27.263 5.85838 2.84422
224 1 28.2485 7.06878 3.64489
223 1 28.6762 7.43612 2.98614
227 1 27.8654 6.13623 4.8612
225 1 27.3844 6.99484 3.42356
226 1 27.1729 6.63659 4.26762
278 1 13.8751 12.5259 2.64326
279 1 13.4059 12.9115 1.78598
386 1 13.8965 12.6573 0.216157
280 1 13.3259 13.4874 2.75364
233 1 26.5148 5.80406 4.06485
234 1 26.7817 5.46393 5.00075
236 1 27.8971 5.05567 4.57343
237 1 27.1836 4.41912 4.43315
229 1 28.2459 6.27155 3.07775
300 1 42.1469 54.6978 11.6735
298 1 40.9874 53.861 11.8627
299 1 41.1083 54.8892 11.6538
294 1 41.8068 52.6422 10.7186
296 1 42.054 53.4454 11.4616
295 1 41.5147 52.5846 11.8035
297 1 41.4728 54.0105 10.9933
286 1 39.8682 51.9931 12.1236
293 1 41.352 53.2072 9.97754
291 1 40.91 52.1846 10.3942
292 1 40.251 53.0384 10.0763
288 1 39.7567 53.0348 11.2107
287 1 39.0509 52.4302 11.6021
284 1 38.9477 51.7164 12.5704
285 1 39.6107 52.4738 12.9716
282 1 39.5875 51.6656 11.0985
290 1 40.793 53.0347 10.9679
281 1 39.2433 51.8041 10.241
289 1 40.4576 52.9772 11.8667
283 1 39.3353 51.0891 11.8881
68 1 21.556 56.5104 13.6231
78 1 21.1145 57.4411 10.525
79 1 21.9148 57.1379 9.9407
77 1 20.9102 56.4407 10.401
69 1 21.8593 56.1109 12.745
67 1 20.763 56.0613 13.0218
70 1 21.08 56.5978 12.2026
61 1 21.8258 58.3014 12.5398
65 1 19.8815 57.8856 12.7928
75 1 22.4723 56.695 11.2822
80 1 22.6754 56.4439 10.0092
74 1 22.3932 57.4374 10.8844
64 1 20.8118 58.2867 13.0173
66 1 20.2132 56.9445 12.8735
72 1 21.3996 57.7497 11.4533
76 1 21.5567 56.5318 11.2284
73 1 22.2147 58.2308 11.4712
71 1 20.4773 57.4022 11.9568
63 1 21.1865 57.3639 12.8882
62 1 21.9263 57.3641 12.2883
114 1 49.2092 50.3584 18.3008
30 1 44.3072 5.44663 22.7559
37 1 44.669 4.09845 21.3281
23 1 44.6233 4.75442 20.4494
21 1 44.7589 5.7685 20.5382
27 1 44.0625 6.20285 21.2632
28 1 44.8606 6.25489 21.8706
26 1 42.9813 6.19313 21.3174
25 1 43.1693 5.63164 20.5581
24 1 43.8885 5.25681 20.951
120 1 50.5929 50.7482 18.5127
119 1 49.7176 50.8312 19.085
118 1 50.1048 49.8898 19.1534
102 1 51.5505 48.9227 18.2251
117 1 50.253 49.3499 18.3162
112 1 50.3881 51.3165 17.5732
113 1 49.4717 51.2637 18.0753
111 1 50.5876 50.6867 16.6786
116 1 50.1165 50.0135 17.5567
115 1 49.2688 50.4741 17.3128
31 1 44.9596 4.77037 22.5025
32 1 44.5458 5.0988 21.6761
36 1 44.073 3.7684 20.7367
22 1 45.3895 5.32238 20.0876
33 1 43.5534 5.4296 21.9997
29 1 44.0827 6.44862 22.4769
34 1 42.9076 4.69699 21.9014
40 1 45.1354 2.63607 20.0986
39 1 45.2028 2.74655 21.045
35 1 43.2434 4.30828 21.0978
38 1 45.44 3.70565 20.6365
455 1 22.6057 51.7122 21.366
454 1 22.4996 50.8599 20.962
108 1 52.209 49.6983 17.4429
103 1 51.6969 48.613 17.2849
104 1 50.6532 49.0153 17.3644
101 1 51.0314 49.3978 19.0169
453 1 21.9238 51.4993 20.4107
450 1 21.8539 50.0036 21.2698
451 1 21.4065 50.9337 21.2097
445 1 23.5006 51.1001 19.3064
446 1 23.0521 50.6026 20.0707
109 1 51.2617 49.8661 17.8425
110 1 51.3531 50.5876 17.2119
106 1 51.8792 49.3121 16.3828
105 1 51.0134 49.6265 16.7063
449 1 22.4067 50.4537 21.9564
447 1 22.3652 49.9274 20.3843
459 1 23.947 52.037 20.4156
456 1 23.2977 51.0622 21.9669
444 1 23.2271 51.1105 18.4768
458 1 23.8537 51.9597 21.451
457 1 23.5187 51.011 21.0194
460 1 23.1477 51.9143 20.0388
452 1 21.4345 50.608 20.3465
443 1 22.6822 51.6352 19.1003
442 1 22.0824 52.3048 18.9042
107 1 52.836 49.6642 16.6533
441 1 21.6014 51.4094 19.207
448 1 22.9732 49.9043 21.173
6 1 29.834 46.5905 31.0839
5 1 30.5701 47.0425 31.5088
19 1 30.2301 47.9877 32.1473
18 1 30.5358 47.9513 31.1268
20 1 30.6792 48.8865 32.5623
4 1 31.0283 46.1814 31.5463
7 1 30.4482 47.1791 30.4323
17 1 29.6492 47.8949 30.5128
16 1 29.4078 47.5145 31.3856
15 1 29.6463 48.5078 31.2798
14 1 30.0674 48.9287 30.4675
8 1 31.3042 46.73 30.619
10 1 31.9351 47.1658 29.8516
3 1 31.1905 46.727 32.3559
9 1 31.1397 46.7119 29.5678
1 1 31.2818 48.2284 32.0332
2 1 31.7031 47.4185 31.875
81 1 32.5797 13.8036 34.0354
92 1 31.9658 15.5222 31.846
94 1 33.293 15.6763 31.9834
13 1 30.8668 48.3982 30.2417
12 1 30.4296 47.8571 29.6096
11 1 31.3899 47.9673 29.5287
83 1 31.7423 13.89 32.8808
82 1 31.6229 13.721 33.7867
359 1 35.0042 15.3308 31.3383
358 1 35.1088 15.1452 32.224
360 1 35.2252 16.2993 31.9945
342 1 32.5922 16.1439 34.3101
91 1 31.5889 15.2856 32.7766
355 1 34.7697 16.6939 32.9469
354 1 34.645 17.5534 33.3293
93 1 32.7091 15.6068 31.167
346 1 31.4758 16.9122 35.3004
347 1 31.5996 16.4257 34.4182
95 1 33.401 16.0796 32.7072
350 1 32.6359 17.686 33.6654
351 1 32.156 17.8827 32.7689
349 1 32.0538 17.4136 34.5742
84 1 31.9727 12.977 32.9479
86 1 32.3831 14.1389 32.0864
87 1 32.7849 13.7911 33.0444
85 1 32.0698 13.2023 32.0995
88 1 33.4576 14.4025 32.802
357 1 34.3799 15.8003 32.508
89 1 32.9674 15.1768 33.402
90 1 32.5744 15.0992 32.5599
356 1 34.2031 16.5746 32.0798
98 1 33.7947 16.1351 33.6334
97 1 33.3662 16.9767 34.0206
99 1 34.6321 15.5744 33.6059
353 1 33.7782 17.1912 33.0974
100 1 34.6335 16.1862 34.3786
341 1 32.267 15.8308 33.3289
344 1 32.5487 16.616 35.725
345 1 31.7243 16.9034 36.3137
343 1 32.0925 15.8272 35.1976
96 1 32.8801 16.6372 33.2942
352 1 33.0893 17.6417 32.4942
348 1 31.7376 16.8616 33.5673
469 1 3.34068 53.4146 35.2947
474 1 5.00504 55.0726 35.1193
471 1 2.96225 53.9212 34.3314
472 1 4.0506 53.9283 34.3631
473 1 4.80772 54.5562 34.1547
461 1 6.14441 52.852 32.8352
488 1 12.5405 3.88409 34.3798
339 1 13.6521 5.41696 36.6643
500 1 10.6915 5.15171 36.067
419 1 3.59679 51.876 35.6445
420 1 4.59991 51.8429 35.3303
468 1 2.77853 52.5056 35.1527
416 1 4.6032 52.7513 36.8825
417 1 3.68369 52.7598 36.3698
418 1 4.09368 52.7153 35.64
470 1 2.51597 53.8221 35.2558
466 1 4.18722 52.7632 34.0769
467 1 3.47865 52.2242 34.6299
464 1 5.33993 52.6558 34.298
463 1 5.09971 52.3756 33.4058
404 1 3.02989 55.1789 36.5562
475 1 5.13303 54.1214 35.2491
477 1 4.18796 53.8489 36.9623
476 1 4.91046 54.3496 36.2642
465 1 4.69634 53.0112 34.9568
412 1 5.89648 53.9637 36.7316
462 1 5.67971 53.2822 33.4489
405 1 3.08751 54.2561 36.0874
406 1 4.00531 54.0007 35.6348
408 1 3.93768 55.6891 35.1483
407 1 3.99634 54.8994 35.5115
484 1 13.4962 3.73319 34.9555
325 1 11.3877 2.49219 36.0792
485 1 14.2182 3.3239 34.7941
486 1 14.2275 4.19178 34.1818
483 1 12.9347 4.33043 35.4815
489 1 11.9098 4.35786 34.7722
491 1 11.274 3.93597 36.4978
324 1 11.9275 1.62042 36.5164
487 1 13.3125 4.61253 34.1117
490 1 11.6109 4.43917 35.7917
140 1 12.2849 3.71275 37.1804
337 1 12.9382 4.63374 37.614
481 1 12.0221 3.44547 35.2732
361 1 13.5587 4.25088 36.8915
340 1 13.829 4.74492 36.0793
338 1 12.7834 4.8358 36.5964
498 1 11.6729 6.43204 36.9888
492 1 10.5566 4.32335 36.954
499 1 11.5148 5.5087 36.6298
139 1 11.8931 4.64368 37.0194
123 1 13.8908 5.28611 38.166
368 1 12.7373 4.74969 40.4148
380 1 11.0027 2.70874 37.0946
493 1 10.509 4.89714 37.687
494 1 10.8299 5.7119 37.466
495 1 11.3253 6.44587 37.9139
497 1 12.35 5.68156 37.1637
124 1 13.2915 5.84913 37.7812
125 1 13.4092 6.51307 38.5515
122 1 13.9239 5.75911 39.0578
121 1 14.7324 6.0576 38.518
496 1 12.1399 5.99949 38.213
480 1 4.82676 55.5691 37.0799
415 1 4.75937 53.3822 36.1144
479 1 4.9832 54.6499 37.4203
403 1 2.6939 55.1888 35.6269
478 1 4.05387 54.7186 37.0751
414 1 5.61038 52.9147 35.6551
411 1 5.85648 54.8725 36.1479
413 1 5.70506 52.9925 36.7112
402 1 2.47004 54.7364 34.8706
401 1 3.40594 54.778 34.8046
410 1 5.04709 55.4807 36.0219
409 1 4.15546 55.68 36.222
328 1 12.8315 2.82532 35.1187
327 1 12.2218 2.05375 35.5013
326 1 12.3479 2.66051 36.2252
482 1 12.528 3.79523 36.1875
362 1 14.2465 4.38967 37.6004
363 1 14.4849 4.602 38.6223
323 1 12.4427 2.05622 37.2107
322 1 13.0005 1.41456 36.8404
334 1 13.1718 2.7965 37.1946
335 1 13.6623 3.32479 37.673
336 1 13.314 3.87249 38.1406
367 1 12.7777 4.23242 39.7062
364 1 14.1988 3.7439 38.8273
378 1 11.1958 3.02195 38.6796
137 1 11.2953 4.30285 38.1702
377 1 11.3054 2.01393 38.4124
375 1 12.1812 2.50534 38.7906
138 1 11.6652 5.07274 37.79
374 1 12.8512 2.98655 38.2721
373 1 11.9242 2.76842 37.8399
369 1 13.0229 5.34659 39.7944
379 1 10.8765 3.36934 37.7942
134 1 12.029 3.70221 39.3139
133 1 11.6215 4.34898 40.0468
129 1 11.1263 5.19108 40.3731
126 1 12.5306 6.3794 39.1969
136 1 10.5743 4.41909 38.7916
370 1 12.8222 5.4851 38.756
131 1 11.3273 5.52926 38.8105
132 1 11.8639 5.02197 39.4769
127 1 11.6277 6.19923 39.6212
128 1 11.2042 6.23368 40.4687
42 1 29.9284 25.4592 40.4352
43 1 29.5988 26.1151 39.6813
329 1 13.5552 2.82953 35.7481
321 1 13.4216 1.64052 36.064
330 1 14.0268 2.12454 35.2667
331 1 14.6766 2.2234 36.0514
333 1 13.7714 2.03114 37.48
366 1 13.5245 4.63519 39.0829
365 1 13.9114 3.77785 39.6159
376 1 11.4712 2.12387 39.4504
332 1 14.1775 2.7336 36.8101
372 1 12.1106 3.69682 38.1937
371 1 12.2065 4.65139 38.53
135 1 10.9873 3.89266 39.383
130 1 10.7225 5.48107 39.5762
179 1 51.4961 19.4564 38.4564
180 1 51.2853 20.3445 38.5315
175 1 50.1241 20.6174 38.5801
176 1 49.5184 19.9533 38.2335
57 1 31.0204 28.1194 39.1588
59 1 29.3699 28.9299 39.0495
55 1 31.6695 28.8321 39.8143
52 1 30.0962 28.2335 40.3217
56 1 31.8906 27.879 39.7827
58 1 30.2709 28.6627 39.4189
60 1 28.8362 28.531 39.8662
51 1 30.7942 27.518 40.1955
49 1 30.8829 26.1222 39.5233
50 1 31.5108 26.791 39.9616
48 1 30.8649 26.9956 39.0853
44 1 29.8087 26.7801 40.3837
46 1 29.7751 27.1837 39.3517
45 1 29.364 27.604 40.0364
41 1 30.8164 25.1203 39.9871
241 1 52.2164 20.009 38.972
178 1 50.6465 19.508 38.9933
242 1 51.4896 19.791 39.5092
166 1 50.2004 21.1291 39.8694
243 1 51.0861 20.2456 40.2244
177 1 49.9149 19.2032 38.6055
174 1 50.5586 21.3465 38.6915
173 1 49.6337 21.5964 38.1736
171 1 49.222 20.373 39.2821
245 1 51.7506 21.4833 39.4731
244 1 51.3016 21.3077 40.3185
170 1 48.2032 20.2188 39.1957
169 1 48.7269 19.4569 38.8282
172 1 49.4993 21.2367 39.071
54 1 31.0329 28.5676 40.4417
53 1 30.1054 28.6148 41.1779
47 1 30.1387 26.5374 38.6988
161 1 50.4561 21.8587 41.5265
164 1 50.21 20.0383 41.0208
165 1 50.3609 21.0444 40.7683
167 1 49.9545 20.1314 40.0047
168 1 48.9817 19.6592 39.8866
246 1 51.5569 22.4696 39.6962
247 1 50.5586 22.0446 39.6175
256 1 49.2525 21.0436 40.329
255 1 48.483 21.061 39.6222
259 1 48.8097 19.7174 41.3941
260 1 49.4757 19.1838 40.8302
163 1 50.1546 20.8402 41.7844
254 1 48.3509 20.4402 40.3735
258 1 49.3661 20.1645 41.9775
257 1 49.216 20.7498 41.2312
253 1 48.3523 21.3424 41.0396
162 1 51.1202 21.1686 41.6585
248 1 49.7406 22.6273 39.4944
249 1 50.5479 23.0984 39.7912
425 1 29.4391 39.5409 46.5925
426 1 28.9775 39.9737 45.864
433 1 31.551 40.1132 45.5933
252 1 48.8461 22.0025 40.4512
250 1 50.7989 22.4202 40.5544
251 1 49.7413 21.9652 40.556
317 1 32.3816 38.7738 46.3867
424 1 30.4569 39.4926 47.0359
320 1 31.0902 38.8494 45.7493
421 1 29.2044 38.4563 47.9447
318 1 31.7025 38.3656 47.0251
319 1 30.9738 38.7606 46.6636
439 1 32.5566 39.5212 45.2955
422 1 30.1528 38.3911 47.931
429 1 29.6792 40.5728 45.3362
423 1 29.8599 38.6775 46.908
430 1 30.6191 40.6676 45.4991
428 1 30.1775 39.7025 45.2727
427 1 29.3238 39.1036 45.4633
432 1 31.4936 40.5985 46.4469
436 1 33.28 40.3073 45.8458
434 1 32.1725 40.8502 45.5838
435 1 32.452 40.1243 46.2054
196 1 33.9656 35.9948 48.0737
194 1 35.2497 36.6516 47.3141
195 1 34.168 36.7049 47.3138
202 1 33.7167 34.7031 45.7609
193 1 35.4694 35.7522 46.8742
315 1 31.3394 39.3711 47.7128
316 1 32.0392 39.4762 46.9785
314 1 30.9479 39.0083 48.6396
313 1 30.0137 39.3991 48.2765
306 1 30.4734 41.2226 47.062
307 1 30.8578 41.7459 46.2327
438 1 33.6132 39.3143 45.3683
440 1 31.7673 39.4249 44.7605
312 1 29.3025 39.3796 47.5698
301 1 29.4339 40.9247 47.9461
431 1 30.6937 39.9247 46.1707
311 1 28.6357 39.8413 47.1789
309 1 29.9251 40.6128 46.4187
308 1 29.9469 41.5494 45.9908
310 1 29.127 40.6056 46.9648
437 1 33.2181 39.4509 46.3873
181 1 32.7036 36.1436 48.4712
197 1 33.3717 35.9394 47.1977
214 1 35.888 36.2141 48.4282
213 1 34.9279 35.9486 48.577
199 1 33.3546 35.8332 46.2301
201 1 32.7365 34.2817 46.1217
189 1 33.1857 34.1751 47.6228
198 1 33.4515 35.0464 46.9118
216 1 36.4143 35.4397 47.4752
215 1 35.5195 35.5056 47.8275
212 1 34.6028 35.1052 48.4118
190 1 34.1207 34.4417 47.6113
192 1 34.4389 36.0357 46.649
191 1 34.4149 35.3163 47.4074
206 1 35.9529 34.555 46.1826
205 1 35.0719 33.9099 46.2737
204 1 34.6302 34.6999 46.5505
203 1 33.8595 34.0349 46.4578
217 1 37.0314 35.0227 46.6399
218 1 37.3544 34.5424 47.3554
219 1 37.4483 34.1739 48.3992
220 1 37.7439 33.2783 48.2681
302 1 28.7631 40.456 48.5994
303 1 29.5076 40.3806 49.2578
304 1 30.2377 40.3732 48.5655
305 1 30.278 40.3728 47.5711
182 1 32.7241 35.342 47.6977
183 1 33.3797 35.0272 48.1887
188 1 33.5433 33.4386 48.1334
211 1 34.7076 34.8829 49.3269
208 1 36.208 34.5562 48.1742
185 1 34.6913 33.9236 48.3656
207 1 35.75 34.627 47.2182
200 1 32.7209 36.3304 45.7474
186 1 34.3062 33.2791 48.8625
210 1 35.0384 34.0654 49.311
209 1 35.9706 34.3809 49.1322
184 1 33.8557 34.3065 48.6965
187 1 34.0542 32.6568 47.9565
158 1 46.1356 11.1851 58.9395
261 1 17.0261 12.1401 59.5212
156 1 46.2178 11.1071 57.8625
157 1 46.1074 10.2951 58.4593
160 1 47.382 9.67387 59.3638
159 1 46.9271 10.5541 59.308
142 1 48.1236 9.90716 0.357906
141 1 48.6301 10.814 0.297091
155 1 47.0712 11.1838 58.3468
144 1 48.0792 10.7925 59.2464
143 1 48.6461 10.1547 59.4783
265 1 16.617 10.6919 0.0587595
264 1 16.2371 11.5994 0.704057
147 1 48.7825 12.064 59.0586
145 1 47.4476 11.5056 59.6057
146 1 47.7501 12.0299 58.7814
262 1 16.1018 11.6687 59.2725
263 1 15.7145 11.9251 0.171904
154 1 47.9758 11.1207 57.9747
153 1 48.7132 10.774 58.3886
148 1 49.2943 11.209 59.308
274 1 13.6978 10.9361 0.932485
266 1 15.6323 10.8459 59.9396
272 1 14.0996 10.6074 1.7436
270 1 15.4731 11.1506 1.33627
271 1 14.8289 11.4365 1.85227
396 1 14.7523 12.6598 2.1573
399 1 15.4572 14.0331 2.39084
397 1 14.6656 13.5469 2.77743
149 1 49.7439 10.5247 58.5533
150 1 49.2773 9.70647 58.3022
388 1 15.2407 13.6453 0.730935
267 1 14.711 10.7729 0.210321
395 1 15.6668 12.8911 2.47081
394 1 16.0615 12.496 1.72076
381 1 15.1624 12.8919 59.9029
393 1 16.0437 13.3835 1.38532
392 1 16.2881 12.9948 0.445276
ITEM: TIMESTEP
34000
ITEM: NUMBER OF ATOMS
500
ITEM: BOX BOUNDS pp pp pp
0.0000000000000000e+00 6.0000000000000000e+01
0.0000000000000000e+00 6.0000000000000000e+01
0.0000000000000000e+00 6.0000000000000000e+01
ITEM: ATOMS id type x y z
142 1 49.4529 9.27259 58.4907
274 1 15.312 10.6419 3.4125
273 1 14.6911 10.8269 2.64506
270 1 14.7229 12.1661 3.03586
267 1 17.5149 11.8892 2.60519
265 1 17.6755 10.5868 2.44982
141 1 49.4929 9.47871 57.4923
386 1 16.7952 10.5504 0.179662
269 1 15.6433 11.6111 2.99121
268 1 16.5907 11.8229 2.60652
263 1 17.1226 11.3935 1.71104
264 1 18.0375 11.0539 1.69498
387 1 16.2222 10.9297 0.83547
388 1 15.5367 11.4986 0.773539
390 1 16.1616 12.0623 1.69223
393 1 17.0933 13.1507 2.5981
392 1 16.6611 13.5062 1.79477
231 1 28.5571 4.52554 5.28202
230 1 29.2426 4.6281 6.11493
276 1 16.3842 10.7747 3.56576
272 1 13.9314 11.4869 2.63222
271 1 14.558 11.3947 3.4957
275 1 15.7647 11.256 4.11571
278 1 16.3893 10.567 1.8418
396 1 15.9897 12.546 3.42472
394 1 16.726 13.9328 2.87613
279 1 15.4788 10.1417 2.22857
280 1 15.554 11.1596 1.94219
399 1 15.3676 13.508 3.0429
397 1 15.5434 12.3758 2.39256
395 1 16.639 13.2939 3.60091
400 1 15.4873 13.1463 4.0268
232 1 28.5823 5.55739 5.37592
238 1 26.9654 5.89572 4.23462
240 1 26.626 5.7477 5.86649
239 1 26.5803 6.18868 4.91719
233 1 27.7321 6.14545 5.03331
228 1 29.4318 6.27724 6.23479
224 1 28.8624 7.00681 4.49749
225 1 29.0301 6.51526 5.32857
229 1 29.6315 5.37642 6.7041
222 1 28.9555 7.39427 6.05257
223 1 29.3083 7.7091 5.14416
221 1 28.0296 7.70483 5.79047
277 1 16.6705 10.4424 2.78134
398 1 15.924 13.2482 2.55319
234 1 27.1889 6.97778 5.09381
235 1 27.763 7.11039 4.36932
236 1 28.2213 6.19259 3.86291
237 1 27.7794 5.42407 4.33097
227 1 28.7038 6.51521 6.79876
226 1 28.1505 6.45408 6.00669
79 1 20.808 57.0912 7.20019
282 1 40.4687 54.7664 11.7183
281 1 41.0837 54.0898 11.9808
291 1 40.9094 53.2005 11.2382
294 1 40.2304 52.1845 10.5493
288 1 39.5306 53.8304 9.92627
293 1 41.0453 51.9578 11.2508
292 1 41.4678 52.5579 10.5623
290 1 39.9163 53.4951 11.0872
297 1 40.136 52.7204 11.9617
77 1 21.6405 56.4699 7.01858
75 1 22.0673 55.5971 7.88227
80 1 20.3188 56.735 7.91411
76 1 22.4853 56.1069 7.04761
78 1 20.9007 56.5771 6.39962
74 1 21.6088 56.4205 8.11221
73 1 21.0827 56.1933 8.85465
283 1 40.6703 54.206 10.864
286 1 40.6761 53.0059 9.8555
287 1 40.5075 53.9635 9.69331
284 1 41.6277 54.1946 11.011
295 1 39.5201 52.7956 10.3843
298 1 39.143 53.041 11.9257
289 1 39.372 54.195 10.8076
296 1 39.4627 52.3237 11.2548
299 1 39.0814 52.3462 12.5869
300 1 39.0364 52.8828 13.4338
70 1 20.0573 57.2589 10.4108
66 1 22.3793 57.2025 11.6105
69 1 20.9979 57.3094 10.3745
65 1 22.1381 58.118 11.3835
72 1 20.4896 56.7815 9.53133
71 1 19.5032 56.8714 9.83483
61 1 21.1332 57.2976 8.70874
62 1 21.6835 56.7898 9.42063
285 1 41.3865 53.6824 10.1976
67 1 21.945 57.2496 10.719
68 1 21.2051 56.7175 11.0597
64 1 21.6976 58.1145 10.5037
63 1 22.1322 57.7289 9.60629
105 1 48.4481 49.3802 16.1612
106 1 48.9999 50.1426 16.5416
107 1 48.5673 50.3193 15.6159
111 1 49.5872 50.2897 15.2966
117 1 52.0326 49.6831 16.3059
116 1 50.9493 49.4101 16.0777
104 1 49.3945 48.9634 16.175
109 1 49.5572 50.5979 14.2212
102 1 50.2104 49.046 15.351
108 1 48.7331 50.3013 14.6727
103 1 49.1975 49.2312 15.2335
444 1 25.8723 51.6597 21.0983
114 1 50.7381 50.6251 16.4428
113 1 50.5902 51.1573 15.6344
115 1 50.0485 49.8978 16.1547
120 1 50.5556 50.6188 14.4112
112 1 49.6221 50.9364 15.9854
110 1 49.1637 51.2618 15.0719
118 1 51.4951 50.2684 15.6656
101 1 49.9486 49.5166 14.5142
445 1 25.1904 52.3184 21.3436
119 1 50.6139 50.0441 15.1733
443 1 26.6563 52.2135 21.0386
442 1 26.7259 51.4577 20.2799
441 1 26.8214 51.332 19.4324
40 1 45.9039 6.56346 23.104
39 1 45.3801 6.36271 22.2315
36 1 44.7018 5.09266 23.2347
37 1 45.0551 5.42499 22.4691
38 1 44.8277 5.8313 21.7013
25 1 44.3211 4.74117 21.6271
24 1 45.3154 4.70471 21.57
35 1 45.0483 4.54489 23.9628
23 1 45.8498 4.24156 20.8317
22 1 44.937 4.40665 20.5604
27 1 44.1513 3.30311 22.142
26 1 44.174 3.80865 21.2255
21 1 44.7898 5.38199 20.7658
450 1 25.6952 53.3769 18.4779
447 1 26.3984 53.1641 20.2633
448 1 26.4282 52.3233 19.6878
451 1 25.6805 53.4159 19.4729
454 1 25.632 51.5779 19.4592
452 1 25.0793 52.6978 19.2087
446 1 25.6276 52.5971 20.4455
457 1 25.4066 50.3709 18.6688
455 1 25.4139 51.8484 18.4252
453 1 24.6516 51.7832 19.2772
459 1 26.6685 49.997 18.9857
458 1 25.9043 50.343 19.5242
460 1 26.6585 49.0773 18.6534
30 1 43.3293 3.77537 23.123
33 1 44.6678 3.78397 23.4185
34 1 45.7084 3.79509 23.5359
31 1 43.7258 4.66251 23.2628
32 1 44.292 4.20045 22.6645
29 1 43.1213 3.80558 22.1459
28 1 43.3511 2.83143 22.566
449 1 26.4106 52.8006 18.862
456 1 26.0791 51.0978 18.5858
9 1 26.2806 48.5054 33.5422
10 1 26.616 47.9363 32.8844
12 1 28.2861 47.9138 32.075
11 1 27.3562 48.3893 32.4456
93 1 30.8315 13.7036 33.0264
359 1 31.8435 16.948 32.1876
6 1 26.573 49.6252 33.2535
8 1 27.1007 48.6851 34.1149
17 1 27.8414 48.734 31.3332
16 1 27.3375 47.874 31.3428
15 1 26.6763 47.3825 31.8525
18 1 27.47 49.5957 31.9131
7 1 27.3508 49.0333 33.2193
13 1 27.9829 47.6483 32.9574
14 1 27.1811 47.019 32.7904
86 1 32.2485 13.3265 32.8034
85 1 31.5888 12.5438 32.5996
92 1 31.4699 13.8598 33.8093
91 1 31.4439 14.7291 33.6696
90 1 32.3214 15.027 34.0189
94 1 30.1902 14.3738 33.297
88 1 32.1949 14.8363 32.6071
358 1 30.8754 17.4882 32.0129
95 1 30.9103 14.8731 32.8258
356 1 30.3048 17.1059 32.9576
360 1 31.631 17.5643 32.9221
357 1 30.8441 16.4991 32.371
351 1 30.1004 16.8244 34.2265
352 1 30.8373 16.1588 34.6573
5 1 26.7241 50.4746 33.884
4 1 27.5499 49.9888 33.8041
3 1 28.0325 49.3341 34.2643
19 1 28.2292 49.2026 32.2074
1 1 26.8849 49.9247 34.9488
2 1 27.9032 49.9181 35.0679
20 1 28.5508 48.6565 32.9449
461 1 3.64069 50.1171 35.7716
486 1 11.1279 5.24062 36.0119
487 1 10.1653 5.20775 35.7494
81 1 32.7124 12.1783 33.0867
83 1 32.3704 13.1717 33.9467
82 1 32.3734 12.0733 34.1424
84 1 31.5423 12.8137 33.5147
87 1 31.9026 14.0601 32.2115
89 1 32.4682 14.2482 33.3856
99 1 33.1693 14.9952 33.0045
341 1 31.4664 13.497 34.7635
96 1 30.8085 15.7124 33.36
348 1 28.3392 16.0538 35.3879
98 1 32.5745 15.8232 33.1707
97 1 31.7036 15.7353 33.4048
355 1 31.1348 16.8277 33.4459
350 1 29.9608 16.707 35.1399
353 1 31.6905 16.4945 34.3597
354 1 31.2899 17.4182 34.2502
466 1 1.39023 51.7517 35.3493
464 1 2.51815 50.2994 35.5272
463 1 2.95274 50.7703 36.2342
462 1 3.41276 50.8309 35.2872
473 1 2.30711 53.7277 34.4661
328 1 13.9535 4.58903 36.7182
327 1 14.3052 3.94371 36.0839
330 1 12.1768 4.67614 36.0301
488 1 10.4709 4.53722 35.2236
481 1 11.8871 3.03484 35.5695
484 1 11.0453 4.73146 36.9476
485 1 10.9682 5.6814 36.8937
489 1 10.9134 3.59936 35.4165
483 1 10.685 4.23724 36.1831
342 1 31.5676 13.8555 35.6046
346 1 29.9485 14.941 34.7745
347 1 29.3343 15.7816 35.0069
343 1 31.7929 14.5931 34.9412
100 1 33.6768 14.1861 32.7285
349 1 28.9884 16.7512 34.7637
468 1 1.33826 53.3783 35.9635
419 1 2.7299 52.7786 35.2392
418 1 2.9087 52.6507 34.4054
467 1 1.55098 52.7741 35.25
420 1 2.43135 52.0627 36.0689
470 1 2.08327 54.9791 35.4844
469 1 1.84991 54.0202 35.5482
471 1 3.12777 55.1749 35.4528
472 1 2.80899 54.3487 34.9005
406 1 2.85741 54.181 36.0079
475 1 3.99123 53.3214 34.0948
465 1 1.99108 51.0536 35.8424
414 1 5.00793 53.0887 36.0761
403 1 2.32031 54.1851 37.1073
402 1 2.9185 55.1817 37.2892
408 1 4.34161 54.7568 36.4456
407 1 3.43139 54.6093 36.5563
401 1 3.373 54.4861 37.987
474 1 3.14846 53.7196 34.0454
322 1 13.8796 3.16189 35.3684
325 1 13.6794 3.30705 37.1459
380 1 14.09 1.81449 35.8808
324 1 13.0059 2.97076 36.6999
326 1 13.2904 3.83827 36.3512
329 1 13.0855 4.82093 36.504
321 1 14.0487 2.89021 36.2402
332 1 12.4577 5.18348 37.5064
331 1 11.914 5.33621 36.8959
491 1 10.6086 2.24273 35.362
482 1 11.5932 3.72766 36.3113
361 1 11.4552 6.64409 37.8185
500 1 9.92385 4.16405 38.6554
492 1 9.93694 2.03635 36.135
490 1 10.2366 3.02946 35.848
338 1 12.076 5.8038 38.1336
499 1 10.5783 4.56508 38.21
139 1 10.8098 3.22594 37.0542
497 1 11.9125 3.88506 38.2924
339 1 11.4325 5.13041 37.8259
340 1 10.95 5.70322 38.3307
498 1 11.4602 4.54114 38.8715
344 1 31.1622 15.186 34.5013
345 1 30.7704 14.378 34.4596
417 1 3.34633 51.8984 34.8999
416 1 4.13737 52.4571 34.6586
477 1 3.59084 52.6905 35.7921
405 1 2.49392 53.2706 36.4905
415 1 4.67827 52.4198 35.3486
413 1 5.56864 52.9254 35.1441
412 1 5.07937 53.6774 34.7332
404 1 3.1866 53.6289 37.1734
478 1 4.21487 52.6496 36.6001
476 1 3.66355 53.427 34.9909
480 1 4.23399 53.6864 36.5393
410 1 4.02998 54.5633 35.4507
411 1 4.24953 54.2274 34.5374
409 1 4.95848 54.3645 35.7544
377 1 13.1094 0.864076 36.5961
323 1 12.9868 2.63047 35.7279
373 1 12.4408 2.4741 38.0449
334 1 12.9134 3.64339 37.7722
333 1 12.223 4.27436 37.353
137 1 11.9034 3.27404 37.2895
379 1 13.5373 2.064 36.6745
140 1 9.84652 3.84733 36.9001
372 1 13.5162 2.23843 37.7973
335 1 13.1108 3.86712 38.6916
336 1 12.4267 4.14534 39.1752
374 1 12.2308 1.5714 37.7993
493 1 9.88079 2.52316 36.838
494 1 9.93827 3.05542 37.7774
138 1 11.2485 3.97584 37.494
371 1 13.4281 2.6828 38.6822
337 1 12.3782 4.95567 38.6038
123 1 11.9299 5.43888 40.1819
362 1 12.4962 6.55832 37.6417
495 1 10.7479 3.41632 38.3179
496 1 11.4978 2.83123 38.5768
124 1 11.1918 5.1189 39.6206
121 1 12.3973 5.13335 41.1256
176 1 51.7699 18.783 37.7848
179 1 52.1672 19.5575 38.3801
180 1 52.7049 19.5833 37.5091
175 1 50.8305 18.5333 37.5879
173 1 49.8751 19.0067 36.5663
479 1 4.60989 53.2149 37.3269
375 1 11.9946 0.937301 36.9687
376 1 12.7727 0.641711 37.5019
378 1 12.7525 1.74744 36.2418
135 1 11.351 1.78273 36.2956
367 1 12.8031 4.49891 40.272
134 1 10.6813 1.20565 36.7193
364 1 13.3466 6.16857 39.0529
365 1 13.589 5.26024 38.8182
136 1 11.8309 2.43307 36.6411
131 1 11.1864 1.64878 37.4421
130 1 11.1151 2.46719 37.6507
370 1 12.5269 3.09644 38.9389
132 1 10.2465 1.73698 37.6222
369 1 12.2388 3.196 39.8682
366 1 12.8439 5.16112 39.6085
363 1 13.1582 5.87567 38.1108
126 1 11.2725 3.66328 39.3586
127 1 10.7307 2.8668 39.2271
125 1 11.7414 4.39237 39.9566
122 1 12.7344 5.86005 40.5637
177 1 51.2001 19.5215 37.3326
169 1 48.5687 18.581 38.1058
168 1 49.2419 17.7478 38.1486
178 1 51.1632 19.5529 38.3377
242 1 53.4839 21.8462 37.9353
170 1 47.9616 17.9036 37.6533
255 1 49.5732 19.7229 38.5004
171 1 48.5466 17.5283 36.905
172 1 49.1492 18.3767 37.0493
166 1 50.1506 19.389 37.6155
174 1 50.3981 18.1898 36.7265
241 1 52.5796 22.1093 38.1542
248 1 49.3453 21.3285 37.9002
247 1 50.2919 21.4423 37.746
245 1 52.1216 20.8129 37.9715
246 1 51.3066 21.0503 37.4858
249 1 48.6142 20.9132 37.336
41 1 31.7186 30.086 40.073
43 1 31.6306 29.0699 39.7913
49 1 30.4935 28.3904 40.0931
48 1 30.7673 27.5453 40.5347
47 1 31.4056 27.963 39.7771
50 1 30.8414 28.7148 40.9871
46 1 32.3205 28.0765 39.6525
57 1 33.8262 26.8553 39.3285
56 1 33.6216 25.8886 39.3741
59 1 33.9012 27.6164 40.4487
60 1 34.4352 26.802 40.4256
58 1 33.0361 27.2365 39.9232
55 1 33.0384 25.8718 40.0381
129 1 10.7527 2.14891 38.4746
368 1 13.2031 3.55515 40.1393
133 1 10.6147 0.697281 37.5043
128 1 11.214 2.12211 39.539
259 1 49.132 18.7943 38.9374
260 1 50.1515 18.771 39.3249
254 1 48.9931 19.4481 37.5492
253 1 48.029 19.2397 37.4791
167 1 49.5513 18.6749 37.9632
256 1 49.4108 19.9945 39.4869
257 1 49.0068 20.5976 38.8508
243 1 53.1632 21.3283 38.6033
244 1 53.0504 20.5199 37.9617
164 1 50.4108 20.2368 38.8446
165 1 50.4597 20.3439 37.8254
252 1 48.4198 19.4038 36.5643
251 1 48.5717 20.2162 36.0397
250 1 48.4037 21.1979 36.4498
42 1 30.906 29.5406 40.2429
44 1 31.7989 28.6544 40.5741
45 1 32.6351 28.0517 40.5855
52 1 31.6374 27.0915 41.0202
51 1 31.3207 27.9721 41.3751
54 1 33.2268 26.7438 40.7982
53 1 32.3177 26.6444 40.4437
258 1 48.5648 19.5879 38.6025
163 1 50.7459 20.8377 39.5097
162 1 49.9933 21.3512 38.9412
161 1 51.001 21.1136 38.6241
200 1 38.3516 37.9994 47.1031
427 1 27.371 39.5963 47.5407
320 1 31.0668 40.2188 47.0505
428 1 27.5024 40.4554 46.7779
439 1 29.7666 40.1981 45.9216
440 1 30.1015 41.1028 45.6717
438 1 30.7519 40.3391 45.9349
429 1 28.3184 40.9135 47.2749
430 1 28.838 40.9804 46.5826
433 1 29.2969 41.9582 46.5561
434 1 29.925 42.3326 47.1637
203 1 35.6172 39.2472 46.804
205 1 36.2105 38.2971 45.6376
201 1 36.9796 38.7433 47.9245
202 1 36.5002 38.8287 47.1191
198 1 38.938 36.7218 47.3479
204 1 35.7654 38.1318 46.5745
206 1 35.4898 37.4585 45.4921
217 1 36.9906 33.7308 45.8992
199 1 39.1301 37.6181 47.4067
193 1 36.6837 37.0684 46.2442
192 1 36.9054 37.905 46.6486
318 1 29.8373 39.568 47.8521
425 1 29.0406 39.9857 46.9675
426 1 28.1746 39.4801 47.1631
423 1 29.3144 39.8841 48.7745
424 1 28.7548 39.9381 47.9889
319 1 30.1844 39.772 46.9135
431 1 29.4463 40.9278 47.3604
317 1 30.2528 40.3469 48.107
316 1 30.9744 40.7267 48.4182
437 1 30.3881 40.8116 46.6651
309 1 27.8791 42.2174 49.5019
310 1 27.9127 41.2524 49.0441
306 1 26.954 41.0795 47.5398
432 1 28.906 41.7945 47.4744
435 1 30.3055 42.0882 46.3123
436 1 30.8438 41.5914 46.6217
308 1 26.9008 41.8905 49.497
307 1 26.9067 41.3266 48.6555
187 1 34.7599 38.1493 46.7063
189 1 35.6313 38.6813 47.8596
188 1 35.2112 37.7642 47.5571
185 1 35.7004 37.1259 46.9881
219 1 36.0632 34.8053 46.7312
220 1 35.1895 35.1371 46.5567
182 1 37.1905 37.0358 48.3103
190 1 36.2435 37.904 47.635
183 1 36.8006 36.985 47.5374
215 1 38.1397 34.2606 46.3871
212 1 37.3477 35.7222 46.5482
191 1 37.3717 37.9032 47.4935
216 1 37.6793 34.3784 45.4224
208 1 35.012 36.0947 46.2425
207 1 35.751 36.6566 45.8958
218 1 36.743 34.5084 46.2866
181 1 37.4758 36.022 48.3287
196 1 38.3544 35.8029 47.5524
195 1 38.3072 36.3079 46.5701
197 1 37.9479 36.7643 47.511
194 1 37.7693 37.1368 46.2204
214 1 38.3041 35.2175 46.6232
421 1 28.8761 41.7179 49.445
422 1 29.2175 40.6384 49.5503
313 1 30.1956 41.0732 49.0191
312 1 29.4306 41.0284 48.5776
311 1 28.6097 40.9537 48.364
315 1 30.508 41.3295 47.739
301 1 29.1365 43.2195 48.2551
304 1 27.6596 41.7202 48.071
305 1 27.5511 40.6678 48.0625
186 1 34.8192 37.1787 46.5822
210 1 36.297 35.8734 46.4116
184 1 35.9642 36.5759 47.8439
211 1 36.7167 35.9434 47.2686
209 1 35.6295 35.9708 47.1222
213 1 37.4247 35.2059 47.3986
314 1 30.8357 41.7632 48.5334
302 1 29.5718 42.1802 48.1826
303 1 28.5209 42.0463 48.4914
151 1 48.678 12.0529 59.419
152 1 49.6091 12.381 59.2646
150 1 48.7466 11.1933 59.9914
156 1 51.303 10.8715 59.8295
157 1 51.122 9.98344 59.9041
155 1 50.4392 11.1933 0.133765
154 1 50.5871 11.4759 59.1175
153 1 49.7275 11.327 59.42
149 1 48.37 10.5051 59.5022
160 1 50.1344 9.63317 0.0656388
266 1 17.9995 11.3119 3.15582
158 1 51.553 10.2047 0.788927
159 1 50.7442 9.54571 0.932417
144 1 49.4429 10.3321 59.5586
143 1 49.1108 9.51762 59.2737
148 1 48.9522 11.1843 58.8078
383 1 17.5302 11.4859 0.245204
261 1 17.2677 9.71232 1.49849
262 1 17.3547 10.7308 1.05452
145 1 50.1869 9.99125 59.0001
146 1 49.6157 10.322 58.2405
147 1 48.7019 10.2389 58.591
385 1 16.7918 11.1417 59.3378
382 1 16.8651 11.7587 0.719764
384 1 17.7178 11.6114 59.258
389 1 15.1431 12.1951 1.45712
381 1 16.7991 12.3622 59.9116
391 1 16.4439 12.6955 1.08923
ITEM: TIMESTEP
35000
ITEM: NUMBER OF ATOMS
500
ITEM: BOX BOUNDS pp pp pp
0.0000000000000000e+00 6.0000000000000000e+01
0.0000000000000000e+00 6.0000000000000000e+01
0.0000000000000000e+00 6.0000000000000000e+01
ITEM: ATOMS id type x y z
160 1 52.2901 10.5761 58.5834
159 1 52.0221 9.64748 58.637
386 1 18.6614 11.1074 2.00828
387 1 18.6351 12.0547 2.26959
262 1 17.3449 10.1567 3.82444
150 1 52.2056 9.91279 59.5645
155 1 51.0662 10.2293 58.3294
158 1 51.3054 9.70822 59.1835
388 1 17.5951 12.2075 2.65429
382 1 19.7411 9.93804 4.32712
391 1 17.5338 11.2576 1.8108
383 1 19.1473 9.26559 4.01856
261 1 17.4096 10.1721 4.8404
273 1 16.8641 9.19089 3.25144
279 1 18.7663 8.25124 3.03762
280 1 19.3226 7.42241 3.06968
263 1 18.4547 10.3188 3.98487
278 1 18.2192 7.59456 3.28894
277 1 18.3707 8.16914 4.13053
265 1 18.8654 11.9553 3.96315
264 1 19.0603 11.0221 4.03749
272 1 16.7503 9.02998 4.29741
397 1 15.4076 13.3335 2.73179
389 1 17.271 13.049 2.27964
268 1 17.3585 10.875 3.09865
390 1 17.0953 12.1334 1.68537
267 1 17.8993 11.2624 3.81992
393 1 16.8225 11.6878 3.0324
392 1 16.6215 11.1231 2.20918
398 1 15.3716 13.9252 1.87584
238 1 29.2152 6.33407 5.71802
236 1 29.0827 7.41463 5.31102
274 1 17.6972 9.83867 2.90392
276 1 17.9878 9.20148 3.96304
275 1 18.5405 9.40265 3.17484
266 1 18.0113 12.3377 3.69056
270 1 16.4787 10.757 3.9523
269 1 16.2831 10.8019 3.03059
271 1 16.3953 9.84547 4.16914
396 1 16.121 13.2011 2.17723
399 1 16.1926 14.2949 2.12197
400 1 17.0409 14.7129 1.79935
394 1 16.5237 12.5675 3.01897
395 1 15.7357 12.272 2.48295
231 1 27.899 7.25062 7.31896
237 1 29.964 6.97956 5.32143
232 1 27.7147 7.64134 6.40554
239 1 28.4596 5.8986 4.97585
233 1 27.1128 6.80499 6.5152
234 1 28.2065 6.42639 6.71397
235 1 28.7309 7.12867 6.18992
224 1 29.7726 6.29065 6.84382
225 1 29.6552 5.4734 6.41095
223 1 29.8228 6.32181 7.69462
230 1 28.8758 6.80403 7.37168
229 1 29.1054 6.99514 8.25629
240 1 28.2444 5.40934 5.8794
226 1 29.4471 5.38981 7.4599
228 1 29.4672 6.12168 8.89619
227 1 28.7498 5.83491 8.24039
221 1 30.1569 7.2753 8.3143
222 1 29.9246 7.25512 7.52253
78 1 19.8435 55.51 6.44548
77 1 20.106 56.4037 6.76092
76 1 20.6777 56.1844 6.09265
75 1 20.1333 55.9038 5.34845
79 1 19.2735 56.417 6.01187
80 1 19.4335 56.6288 5.07658
74 1 20.8592 55.3965 5.62256
288 1 39.0225 53.2835 11.4508
286 1 39.1176 52.6693 12.3056
287 1 39.4333 53.6068 12.3352
71 1 21.125 56.57 6.99247
73 1 20.9327 54.8105 6.46808
72 1 21.0304 55.5654 7.06227
62 1 21.0902 57.2908 6.15045
61 1 22.0945 56.968 6.10891
63 1 21.5888 58.1569 6.45028
295 1 40.3563 54.5924 11.7263
296 1 40.2286 54.55 10.7128
294 1 41.2102 54.1628 11.3273
293 1 40.8495 53.4112 11.778
292 1 40.1257 53.6532 11.2655
290 1 39.836 53.9146 9.74798
289 1 39.3228 53.8815 10.5934
291 1 40.4403 53.5749 10.4271
283 1 39.674 52.8209 10.3497
285 1 39.592 52.266 11.5058
284 1 40.4748 52.5776 10.942
68 1 22.7372 57.3585 7.47764
70 1 21.8744 56.8266 7.37252
69 1 22.1878 56.554 8.04737
65 1 22.8142 57.8236 6.22053
67 1 21.8488 57.8035 7.35936
64 1 21.9896 57.8248 5.60358
299 1 40.879 54.5478 9.94209
297 1 39.8179 55.0303 9.99208
298 1 40.6195 55.5641 10.1951
281 1 38.6609 53.1315 10.2203
282 1 38.8451 52.1802 10.1742
66 1 22.664 58.3008 7.04134
109 1 49.6041 50.229 14.1632
300 1 41.752 54.7331 10.402
103 1 48.8566 49.7277 13.6031
101 1 48.3647 50.354 14.5094
102 1 47.9403 49.8203 13.82
107 1 50.3243 51.1204 13.9463
111 1 48.3657 50.6362 13.3852
108 1 49.7765 50.9661 14.7494
110 1 49.3018 51.021 13.5674
113 1 48.7472 50.915 12.3648
120 1 47.5386 49.9918 12.761
119 1 48.5006 49.9072 12.5797
118 1 48.301 48.9321 12.3793
105 1 50.4227 49.893 13.5663
104 1 49.7862 49.3148 13.6258
116 1 49.2592 49.0466 12.6963
115 1 49.5713 50.052 12.8494
117 1 48.4296 48.7223 13.2573
106 1 50.4389 50.6148 13.1476
112 1 48.4012 51.4989 13.0317
114 1 49.6785 50.9962 12.4436
455 1 30.0839 52.3003 19.2057
450 1 28.0509 51.019 18.133
460 1 31.1136 53.7441 19.0931
457 1 29.8527 53.1237 18.352
441 1 29.4448 51.931 18.1206
459 1 30.1685 53.6351 19.2725
458 1 30.0266 54.0877 18.5607
456 1 30.6507 52.8847 18.8188
454 1 29.8897 52.0912 20.085
452 1 29.5693 51.4179 19.0153
453 1 28.9739 51.9297 19.6955
448 1 28.2388 52.3904 17.7461
449 1 28.6626 51.503 17.4192
451 1 29.0106 50.8107 18.4413
26 1 45.491 5.11649 24.3119
23 1 45.0697 5.22777 22.5892
22 1 44.4457 5.15403 23.3523
21 1 44.4834 4.32145 22.6602
445 1 28.6298 52.4686 18.7626
446 1 27.8774 52.3113 19.4025
444 1 28.8746 53.2942 19.0479
443 1 28.8661 53.3144 18.0789
442 1 29.3302 52.6268 17.5516
447 1 27.7089 52.0546 18.4338
28 1 46.6461 4.66426 23.6291
27 1 46.355 4.7962 24.5524
29 1 45.9842 3.89165 24.0877
32 1 45.0055 3.34259 23.0026
37 1 43.9296 3.69533 23.6542
25 1 45.8895 5.21273 23.3555
24 1 45.9806 5.60033 22.4525
39 1 43.959 2.89675 22.6234
38 1 43.3223 3.69504 22.8635
30 1 46.1577 3.93214 23.0593
33 1 45.2476 4.29159 23.4475
34 1 44.7638 4.0309 24.2771
31 1 45.4002 3.93258 22.3735
36 1 43.5136 4.25324 24.4606
35 1 44.0739 3.47226 24.6761
40 1 43.7713 2.41364 21.6934
16 1 25.1151 49.4765 34.9393
17 1 25.2292 48.8174 35.6883
85 1 30.9524 13.2748 32.6393
86 1 30.9452 14.1218 32.4116
87 1 30.537 14.9619 32.5321
100 1 28.981 16.0804 33.2501
95 1 28.6192 13.7897 32.8141
88 1 30.7669 15.9612 32.8157
357 1 27.2398 14.5053 33.6301
359 1 27.7029 15.7121 33.97
358 1 26.9032 15.077 34.2938
14 1 23.5589 49.9175 35.5441
15 1 24.3668 49.3829 35.4353
12 1 23.4442 49.0119 34.0486
11 1 23.2262 50.0127 33.5934
18 1 24.451 48.8543 36.2782
19 1 24.1253 47.9433 36.1195
81 1 31.6176 13.5455 34.3205
82 1 30.8143 13.2879 33.7927
84 1 30.295 12.6458 32.3256
93 1 29.8332 13.4218 33.0547
92 1 30.3995 14.2264 33.4414
83 1 30.4741 12.413 33.2966
89 1 31.6016 15.3788 32.8059
94 1 29.065 13.0014 33.4384
96 1 28.4819 14.6401 33.4412
91 1 30.7453 14.6058 34.2982
90 1 30.9138 15.2041 33.5608
97 1 28.8416 14.7348 34.2798
99 1 29.8258 15.7876 33.8307
356 1 27.5358 14.2699 34.529
351 1 30.2805 14.4336 35.8041
355 1 28.1876 15.1511 34.9536
98 1 29.5833 14.9107 33.6706
360 1 27.3741 15.9302 34.9159
9 1 24.4159 49.9278 33.7153
10 1 23.7427 50.1434 34.4323
13 1 23.3431 49.1339 34.8973
6 1 23.1092 51.0766 34.2489
8 1 24.6121 50.9472 34.1849
7 1 23.9411 51.7255 34.3235
20 1 23.8126 47.5348 37.0379
5 1 23.5726 51.0151 35.1103
4 1 24.5369 50.5737 35.1957
475 1 2.2929 53.8948 34.6128
474 1 1.33949 53.9186 34.3649
491 1 8.70134 2.63323 38.5688
323 1 13.8664 5.06296 36.9438
489 1 8.82378 3.71973 37.0999
481 1 12.3848 3.18567 35.7718
322 1 14.2175 6.10208 36.8096
488 1 9.70174 3.30073 37.2686
341 1 30.2812 12.4775 34.3346
342 1 30.6145 12.9234 35.1268
346 1 28.4839 13.7833 34.535
344 1 30.1558 13.738 34.8216
345 1 29.3355 13.7912 34.1599
343 1 30.9599 13.897 35.0794
348 1 29.4607 13.508 35.6922
350 1 30.3472 13.4848 36.1841
347 1 28.926 14.1621 35.2521
349 1 29.4369 14.0148 36.5183
352 1 30.0356 15.0155 35.0187
353 1 29.6816 15.9066 34.8574
354 1 28.6156 16.1178 34.8625
1 1 24.4843 51.6665 35.2585
3 1 24.0882 51.137 36.051
2 1 24.9417 51.6621 36.1044
464 1 1.73007 53.0691 37.3659
462 1 1.26471 51.9154 36.8575
466 1 1.70563 52.6466 36.1418
419 1 0.452265 52.3453 35.6794
467 1 2.29929 51.8879 36.5671
418 1 0.515872 51.4719 35.1284
417 1 1.11149 50.9588 35.904
416 1 1.53982 51.8048 35.5554
415 1 1.54066 52.0884 34.5133
473 1 1.81922 53.1442 34.1981
469 1 2.32785 53.4664 36.4904
476 1 2.88964 53.1074 34.5774
411 1 4.38843 51.6971 34.2123
413 1 3.26251 51.7626 34.6754
412 1 4.01881 50.9862 34.9657
470 1 2.05002 53.8974 35.775
472 1 1.83813 52.7788 35.1789
471 1 1.24452 53.4067 35.5928
410 1 3.80572 52.6274 34.0809
134 1 10.9306 2.7047 35.9213
375 1 13.2395 2.74144 36.2995
377 1 13.7985 2.75528 35.3461
492 1 9.37495 3.58236 38.2622
493 1 9.67706 2.65188 38.317
135 1 11.7894 2.53316 36.5078
378 1 14.7749 2.98422 35.2923
136 1 12.5389 3.02763 37.0361
380 1 14.4412 2.33035 36.3452
379 1 14.341 3.24816 36.0628
140 1 10.5158 4.1648 37.2167
483 1 10.8072 3.8827 35.8756
490 1 8.71658 2.82116 37.5733
139 1 11.1557 3.52715 36.9828
482 1 11.7901 3.84527 35.8843
324 1 14.0782 4.52849 36.1339
326 1 13.075 4.67436 35.7877
321 1 14.3203 5.53771 36.0588
327 1 12.5502 5.44284 35.4272
486 1 9.76152 2.31234 35.8555
487 1 9.2779 2.70546 36.5138
484 1 10.0487 3.36194 35.5319
485 1 9.49604 2.79294 34.9258
330 1 11.2077 4.77147 36.7749
331 1 10.9137 4.94312 37.7968
328 1 12.0543 4.61726 35.0972
329 1 11.649 5.0663 35.8265
171 1 50.0882 17.713 36.9523
172 1 50.6845 17.6841 36.1273
174 1 51.4584 17.0431 35.5293
252 1 49.6785 18.8154 34.6769
173 1 50.692 17.4453 35.1165
251 1 50.5317 18.4914 34.4953
250 1 51.2797 18.6177 34.0327
465 1 0.975438 53.0362 36.5884
461 1 0.278425 52.036 36.8228
463 1 0.799381 52.4834 37.6346
420 1 59.5523 52.0992 35.9293
477 1 3.17338 53.1277 35.5838
478 1 2.70545 52.32 35.725
468 1 2.88399 52.7483 36.6959
406 1 3.99138 53.1493 36.4707
403 1 2.29902 52.5862 38.3714
405 1 3.21576 53.7429 36.8989
480 1 2.20605 50.879 35.5857
414 1 2.40717 51.9544 34.8636
407 1 3.91217 52.4124 36.0442
408 1 4.26749 51.8908 35.3126
409 1 4.11991 52.6793 34.8657
133 1 10.6917 2.54796 36.8621
376 1 12.9968 2.03028 35.5323
131 1 11.2057 1.6076 37.5398
130 1 12.2057 1.9897 37.3022
132 1 10.6552 1.72175 36.5926
129 1 11.6857 2.70807 37.6865
373 1 13.4035 2.13592 37.4459
374 1 13.14 1.8661 36.5627
372 1 13.8446 3.05419 37.0987
494 1 10.5029 3.13043 37.9534
138 1 11.5535 4.16386 37.6632
495 1 10.5682 3.08915 38.7932
497 1 9.98223 1.52513 38.7915
137 1 12.2142 3.94086 36.8415
496 1 10.8118 2.27628 38.4431
325 1 13.3464 3.85366 36.2951
334 1 10.2756 4.12387 38.6059
499 1 9.2586 1.74061 37.7849
339 1 9.78306 3.32877 40.4053
340 1 9.9655 3.43605 41.2202
332 1 10.0821 5.38457 37.641
333 1 9.75461 4.5278 38.0001
361 1 8.75149 3.76672 39.4638
338 1 9.81417 3.29982 39.3901
362 1 8.77744 2.73253 39.7553
363 1 9.61446 2.21808 39.9413
169 1 50.56 18.2873 38.0005
170 1 50.8133 17.416 37.5578
168 1 50.9849 19.015 37.5897
175 1 51.2244 16.881 36.5609
253 1 49.6987 17.7792 34.6167
255 1 49.1464 18.6079 36.0579
254 1 49.785 18.1673 35.4911
167 1 50.8531 18.5788 36.7133
177 1 52.2684 18.2755 35.5967
178 1 52.2463 18.7897 36.4957
166 1 50.0648 18.6672 36.552
176 1 51.8226 17.6701 36.2282
179 1 51.5429 19.1434 35.8039
180 1 50.9229 18.4942 35.602
248 1 50.8768 19.7398 35.0783
249 1 51.3793 19.621 34.1483
247 1 51.1549 20.3366 35.9207
246 1 50.4722 20.1395 36.533
165 1 50.0394 19.2141 35.8164
245 1 50.1402 21.0138 36.2604
244 1 49.9224 20.5242 35.5951
241 1 51.0183 20.6182 34.0704
242 1 51.5191 21.0256 34.8022
404 1 2.6622 53.3122 37.7316
479 1 3.01991 51.3603 35.6025
402 1 3.09947 52.7178 38.9394
401 1 3.28039 53.5253 38.5459
128 1 12.5983 2.3393 38.2248
371 1 13.5273 3.06614 37.869
500 1 10.1549 1.9811 37.6833
126 1 11.637 1.08262 39.0194
127 1 11.7614 2.06614 38.7914
336 1 11.1669 4.01256 39.105
370 1 12.7278 3.44013 38.1086
369 1 12.357 3.82912 39.0182
335 1 10.579 4.86924 38.9939
498 1 9.81775 0.945812 37.9603
124 1 12.3691 1.97274 39.6719
337 1 10.5386 3.9295 39.7806
366 1 10.8362 2.51965 39.7083
125 1 11.3924 1.69712 39.7361
365 1 10.4162 1.9537 40.5239
364 1 9.807 1.28017 40.2476
258 1 48.5232 17.7428 35.3483
259 1 49.2781 17.1317 35.3008
256 1 48.4643 19.0947 36.4169
260 1 49.1384 17.4602 36.215
257 1 48.1433 18.173 36.2237
162 1 49.3106 19.3996 36.9483
164 1 49.2482 19.7654 36.0035
163 1 49.3594 20.449 36.6181
161 1 50.1929 19.737 37.4575
243 1 50.5122 20.9188 34.9174
57 1 32.3941 27.7375 40.2275
56 1 32.3279 28.5907 40.2402
47 1 35.0059 28.5508 40.2692
46 1 34.3293 28.1191 40.7322
58 1 33.1496 28.2108 40.6432
43 1 34.759 26.8159 40.4528
368 1 11.5919 3.40073 38.493
123 1 12.1625 1.16655 40.2748
121 1 11.3022 2.78778 40.8893
367 1 11.5787 2.98687 39.335
122 1 11.6914 1.98008 40.77
52 1 33.2916 29.313 40.8472
53 1 33.4323 29.1143 39.8566
55 1 32.5285 28.6809 39.3679
54 1 33.187 28.1314 39.6304
60 1 33.4052 27.7337 42.0123
49 1 35.2902 29.3693 41.7295
48 1 35.3463 28.6022 41.2307
51 1 34.0757 28.8939 41.2634
45 1 34.6237 27.4701 41.3247
59 1 33.6183 27.5228 41.166
50 1 34.66 29.4905 40.9553
42 1 35.5087 26.0806 40.4034
44 1 35.4376 27.036 41.0907
41 1 35.8388 25.6081 41.2143
216 1 36.9162 40.2043 45.3524
206 1 39.1313 40.6107 45.9129
205 1 39.5098 40.1409 46.6164
440 1 27.2666 41.6637 47.2874
217 1 36.3503 39.5042 45.5927
215 1 37.2399 39.662 46.0782
220 1 34.7478 38.6124 46.7231
219 1 34.8859 38.8841 45.6781
218 1 35.751 38.6421 45.7009
214 1 37.2987 39.2474 45.2302
208 1 38.001 40.9199 45.7303
209 1 38.2256 40.1087 46.2712
193 1 39.0354 38.1587 46.0375
185 1 39.3816 39.141 47.4049
207 1 38.6697 40.6673 45.0028
210 1 38.2163 39.3547 45.729
212 1 37.5121 38.5548 46.0467
195 1 39.3049 37.4722 45.0363
194 1 38.4837 38.0768 45.1877
187 1 40.3908 38.5525 47.53
186 1 39.8153 38.5039 46.7086
204 1 39.2922 39.4082 45.9818
192 1 39.6298 38.4783 45.3837
200 1 39.8326 34.9844 46.9995
425 1 26.9566 40.9063 48.2394
319 1 30.6599 43.3849 49.296
203 1 40.2028 39.6368 45.6149
202 1 40.6959 39.2089 46.3493
428 1 25.7871 41.6152 48.5287
439 1 27.929 42.0446 48.0031
430 1 26.3964 42.5015 48.833
320 1 30.8684 43.6537 48.3163
438 1 28.0443 41.1655 48.1991
437 1 28.8695 41.3935 48.6043
433 1 27.6657 42.5272 46.8997
435 1 29.0715 41.7301 47.6082
436 1 28.8972 40.7067 47.7702
213 1 36.9243 38.4102 45.2714
183 1 38.9975 38.118 47.3382
184 1 39.0724 38.4439 48.1068
211 1 38.333 38.7861 46.536
182 1 38.9185 37.0965 47.0881
181 1 38.1672 37.4951 46.5168
196 1 39.1826 36.8977 45.8139
197 1 39.7133 37.2958 46.3353
198 1 40.2902 36.5746 46.1647
188 1 39.9303 37.6278 47.5465
190 1 41.1387 37.5231 46.2176
191 1 40.4211 38.2392 45.8898
199 1 39.8166 35.8232 46.5928
427 1 26.1443 40.8602 48.94
426 1 25.9663 40.7033 48.0126
318 1 29.8582 43.9871 48.8794
424 1 27.6038 40.4791 48.9183
189 1 40.6085 37.6885 47.0704
201 1 41.5347 39.1489 45.8126
306 1 25.5659 42.4255 50.5773
429 1 25.7738 41.8484 49.3988
305 1 25.7965 43.3778 50.4112
431 1 26.6115 41.9722 48.1018
312 1 27.509 42.3982 48.9669
311 1 27.0247 41.5993 49.0291
317 1 29.0035 43.3477 48.4481
316 1 28.6929 44.0577 47.7264
315 1 28.5006 43.053 47.6023
304 1 26.748 43.7258 50.2547
303 1 26.8561 43.304 49.3988
434 1 28.3321 41.8512 46.8917
432 1 27.1745 42.6291 47.7597
302 1 27.1064 43.5201 48.4507
314 1 28.0283 43.1368 48.4634
301 1 27.7769 44.2893 48.5417
423 1 28.0332 41.1855 49.3789
307 1 26.2435 41.5167 50.77
310 1 26.8402 42.2136 49.7652
422 1 28.7275 41.5764 49.876
313 1 28.4486 42.3341 48.9679
308 1 26.1005 40.8206 50.0991
309 1 27.0383 41.0936 49.9189
421 1 28.0964 42.2414 50.0681
142 1 50.314 10.6165 0.794785
141 1 50.6609 10.2229 1.71474
146 1 51.5858 11.2044 0.722515
143 1 50.6349 9.6159 0.759523
157 1 50.5524 10.0077 59.614
385 1 18.5214 10.9858 3.01377
149 1 52.4467 10.376 0.485188
153 1 52.0003 11.226 59.5471
144 1 51.5839 9.57738 0.386333
148 1 53.2756 10.9127 0.587271
147 1 52.4988 11.3169 1.22945
156 1 50.2162 9.91475 58.7365
145 1 51.3312 10.4975 0.138481
381 1 20.5663 10.0706 3.89333
384 1 19.1867 10.1566 3.27205
151 1 53.0735 10.2124 59.5439
152 1 53.0684 11.2326 59.6075
154 1 51.1669 10.7552 59.2223
ITEM: TIMESTEP
36000
ITEM: NUMBER OF ATOMS
500
ITEM: BOX BOUNDS pp pp pp
0.0000000000000000e+00 6.0000000000000000e+01
0.0000000000000000e+00 6.0000000000000000e+01
0.0000000000000000e+00 6.0000000000000000e+01
ITEM: ATOMS id type x y z
143 1 54.4235 9.97635 0.834731
144 1 53.602 9.4952 0.633162
142 1 54.9288 9.78992 59.9867
145 1 52.9138 8.90258 0.0731858
146 1 53.6461 8.8855 59.2934
149 1 52.1287 9.76578 59.7925
147 1 53.1479 9.7933 59.519
148 1 52.4795 9.24617 58.9788
392 1 20.4567 10.9128 3.16449
391 1 20.7394 10.4553 2.42031
386 1 19.2817 9.72509 4.44295
141 1 55.6833 10.2293 0.566633
395 1 19.5191 10.9279 2.18115
388 1 20.9186 10.3 3.82999
390 1 20.5936 9.57063 2.97631
387 1 20.2421 9.54051 4.17623
397 1 18.4037 10.463 3.62397
398 1 17.3537 10.3746 3.57397
396 1 19.0048 10.0813 2.75829
389 1 19.8164 10.2388 3.55898
399 1 17.8534 10.3816 2.6869
400 1 18.1639 10.6352 1.84016
278 1 19.6034 9.68877 5.51767
277 1 19.1638 8.76309 5.56236
279 1 20.1573 10.0287 6.29649
280 1 19.459 10.0152 6.8602
273 1 18.9848 8.13546 3.75685
272 1 17.8935 8.53193 3.59547
271 1 17.3625 9.08663 4.20247
274 1 19.6124 8.11032 3.03628
276 1 20.0032 8.57067 4.91626
275 1 19.8755 8.61818 3.89305
383 1 20.0984 11.5239 4.06264
270 1 18.2842 9.5019 4.092
269 1 17.8341 10.1252 4.60224
262 1 18.5792 9.80482 5.28264
263 1 18.7532 10.3182 6.16744
268 1 16.8493 10.3566 4.54986
267 1 17.0555 10.5408 5.57069
385 1 19.4914 10.6982 4.86032
264 1 18.6788 11.2734 5.82965
384 1 20.4074 11.0632 5.02436
381 1 18.7029 11.366 4.51634
393 1 19.4019 11.127 3.31478
394 1 18.7221 11.0797 2.64413
266 1 17.0136 11.4094 5.05807
265 1 17.9123 11.2591 5.20545
239 1 30.2227 6.64152 6.31792
238 1 29.9247 5.84358 6.78138
237 1 29.1069 6.17287 7.08694
236 1 28.7167 5.47591 7.86945
382 1 19.4527 12.179 4.45323
261 1 18.2479 8.97065 5.28884
74 1 20.9576 56.6495 3.95682
80 1 18.5324 55.2354 4.49198
75 1 20.1899 57.1206 3.46296
64 1 22.3704 56.7975 3.02865
240 1 29.654 7.40859 6.32917
225 1 29.3415 6.48407 9.00922
233 1 30.1533 7.06825 8.24375
234 1 29.5743 6.90779 7.54317
224 1 29.3456 5.5356 9.14284
232 1 30.8809 7.82787 8.38664
235 1 28.9136 6.47872 8.13333
78 1 19.4313 54.8248 4.19149
73 1 20.5595 55.9681 3.13082
72 1 20.6147 55.2981 2.37829
79 1 19.3051 55.8745 4.49334
77 1 20.1893 55.5403 4.10349
76 1 19.7434 56.3708 3.66334
71 1 21.5327 55.8588 2.61945
61 1 20.7046 57.4739 4.55976
62 1 21.6966 57.5683 4.25894
63 1 21.4665 57.2823 3.35518
65 1 22.5921 57.8196 3.32356
66 1 22.8001 57.9021 4.29281
226 1 29.2237 7.22108 9.48788
223 1 30.351 5.67771 8.87308
230 1 29.6494 8.15112 9.32437
229 1 29.8478 8.29702 8.56887
227 1 28.555 7.9312 9.05756
231 1 30.6395 7.6383 9.13398
222 1 30.012 6.11316 9.75526
221 1 30.6542 6.43011 10.3864
70 1 21.7848 56.0494 3.47059
69 1 21.7957 56.3993 4.40729
68 1 22.7528 56.7356 4.41184
67 1 23.3041 57.1711 3.92621
228 1 29.1876 7.48155 8.42242
290 1 40.4316 55.0138 11.4838
299 1 39.3818 52.5218 10.8309
283 1 41.2992 54.4238 9.16774
282 1 41.6101 54.577 10.1461
284 1 40.4875 54.623 9.64752
289 1 39.5487 54.6804 11.7709
281 1 41.8473 53.7052 9.75206
294 1 39.036 54.225 10.6072
292 1 40.0602 53.8313 11.2757
291 1 40.921 54.2352 10.8933
297 1 37.8302 53.2077 10.6434
296 1 38.0862 54.108 11.0945
298 1 38.3684 52.5106 11.052
300 1 38.7801 53.2282 10.2378
120 1 48.8522 49.444 12.9823
119 1 48.753 49.7191 12.0452
118 1 48.0224 50.558 12.1977
116 1 47.1435 49.9056 11.2238
113 1 48.1886 51.5184 11.4977
115 1 47.2612 50.8833 11.1352
114 1 47.2841 51.763 11.7643
286 1 39.8593 54.882 10.5722
285 1 40.7455 55.2611 10.5475
288 1 38.9133 55.2302 11.0063
287 1 39.1189 55.1878 10.0132
293 1 39.9284 53.8285 10.3622
295 1 38.9617 53.6332 11.3652
102 1 49.2027 49.8398 11.0684
117 1 47.2414 49.8298 12.119
103 1 48.1548 50.0385 11.2264
104 1 48.0188 49.1148 11.0074
105 1 47.4143 49.6337 10.2622
111 1 49.1628 50.9489 10.7352
109 1 48.6603 50.0768 10.1667
110 1 48.2116 51.0042 10.5268
107 1 47.7571 50.4843 9.69957
106 1 47.9266 49.5903 9.44052
112 1 48.8904 50.73 11.6466
101 1 49.738 50.1388 11.7984
108 1 48.7852 50.6176 9.3925
450 1 33.7039 54.4916 18.0816
451 1 32.7112 54.8887 17.9632
448 1 32.2521 53.5832 18.9676
447 1 31.3665 53.6714 18.51
441 1 33.8714 52.5977 18.5353
449 1 33.0224 54.1091 18.6442
442 1 32.902 52.8644 18.4323
457 1 33.1283 51.7004 17.3984
443 1 32.3493 53.4098 17.8229
446 1 30.6724 53.1157 18.0136
452 1 32.7078 54.1983 17.235
453 1 33.2459 54.6228 16.4804
445 1 31.5766 52.7658 17.9984
455 1 33.4517 53.4044 17.765
444 1 31.6717 53.3409 17.0716
460 1 31.2763 50.486 17.1154
459 1 32.1799 50.9016 17.407
458 1 32.1858 51.8921 17.6577
456 1 33.4851 52.6018 17.2568
454 1 33.6624 53.8554 16.8232
40 1 46.9723 3.10972 24.0799
39 1 47.5322 2.56172 23.355
31 1 45.1438 5.25253 24.0427
23 1 45.2359 3.2776 23.4743
21 1 45.3091 4.08249 24.3909
24 1 44.4235 3.96621 23.6837
37 1 46.2269 2.13758 24.4532
38 1 46.5058 2.30963 23.4914
32 1 46.0241 5.81206 24.4225
33 1 46.5041 4.96046 24.5318
29 1 43.5473 4.54365 24.228
30 1 44.1305 5.36797 24.2672
22 1 44.8278 3.21293 24.4525
28 1 44.176 4.52313 24.9266
25 1 43.8221 3.48367 24.3317
36 1 46.2526 3.0732 24.9294
35 1 45.572 3.56527 25.3589
34 1 46.1281 4.4485 25.0542
26 1 43.8169 3.10297 25.1661
27 1 44.216 3.7867 25.5811
84 1 29.7345 13.9316 32.8496
85 1 30.0789 14.2386 33.7914
86 1 29.3598 13.6376 34.0204
87 1 28.9826 14.4707 33.5831
89 1 27.9841 14.5567 34.4346
88 1 28.7523 15.2414 34.2598
83 1 29.2439 13.3674 32.2554
95 1 26.9031 13.2992 33.6683
93 1 27.8681 13.2819 33.0618
94 1 26.949 13.5846 32.8259
345 1 27.5598 12.6693 34.3298
82 1 29.4376 13.8176 31.2653
92 1 28.0499 13.5927 33.9125
357 1 27.4572 13.0837 36.0645
96 1 25.9865 13.699 34.0483
97 1 26.3012 14.729 33.9946
98 1 26.9442 14.2826 33.57
90 1 28.7921 14.3741 35.0493
359 1 26.9736 12.4667 37.0668
100 1 28.0643 15.2352 33.5454
99 1 27.7648 14.43 33.3486
250 1 51.713 18.3945 33.1569
249 1 50.976 18.2017 32.6067
241 1 48.8349 20.3342 33.058
12 1 19.9401 50.4033 37.5317
11 1 20.3642 50.5163 38.2078
9 1 21.4326 49.7587 37.1844
6 1 21.1725 49.6493 35.6056
8 1 20.7786 50.1422 36.6354
410 1 0.80145 50.3439 36.3803
411 1 0.123913 49.7379 36.6654
473 1 0.437094 52.2939 34.6274
485 1 10.0527 3.9746 35.7533
377 1 12.9137 4.68051 36.5692
376 1 13.1399 4.56113 37.4378
484 1 10.6834 4.11338 36.3959
378 1 13.4135 3.72144 36.7691
327 1 10.3585 5.77315 36.2748
328 1 9.70299 5.15421 36.7138
341 1 29.2155 12.7862 35.4185
356 1 26.788 13.8502 36.2612
346 1 27.323 12.4393 35.2896
348 1 28.4863 12.4942 36.1521
347 1 27.7458 11.9089 35.8444
342 1 28.2848 12.6768 35.208
344 1 28.2108 12.3034 33.6427
343 1 28.8068 12.8079 34.331
81 1 30.1632 14.3836 30.8939
358 1 26.4633 12.5927 36.1224
355 1 25.8887 14.2103 36.3115
91 1 28.1696 13.6663 34.8522
352 1 27.1898 13.496 35.0981
360 1 27.7915 12.3503 37.323
353 1 26.9294 14.2564 34.668
354 1 26.0764 14.3363 35.3689
259 1 50.4014 15.9567 33.1345
174 1 52.2609 16.85 34.9118
258 1 51.176 15.6071 32.7808
253 1 50.1387 16.9958 33.2834
254 1 50.8491 16.5754 33.8924
173 1 51.3792 16.8061 34.8048
251 1 51.9035 17.3933 33.1073
180 1 50.8191 17.9715 33.7251
177 1 52.5805 17.8473 33.975
252 1 51.0568 16.8808 32.7068
248 1 50.7179 19.2614 32.7215
244 1 49.9549 18.5761 33.2399
243 1 49.4752 18.8795 32.5195
242 1 49.7344 19.8256 32.6402
14 1 20.2408 51.2634 36.3812
13 1 20.2856 51.3486 37.3934
16 1 20.7616 52.1003 36.5338
17 1 19.9978 52.6114 36.9799
15 1 19.7184 52.072 36.1909
480 1 1.49144 51.2275 36.8319
412 1 59.6768 50.6164 36.3716
479 1 2.03538 51.6568 36.1025
10 1 21.3661 50.4831 37.9768
5 1 21.3456 50.6251 35.9521
4 1 21.6618 51.1768 36.5769
418 1 59.4501 52.795 35.223
416 1 59.8724 52.5219 36.3529
415 1 0.749285 52.0321 36.5388
472 1 0.606804 52.8347 35.4172
414 1 0.4769 51.385 35.8698
413 1 0.0723044 50.6232 35.4478
409 1 1.70302 50.3032 35.985
408 1 2.25575 50.5303 35.2363
7 1 20.2314 49.8294 35.8967
1 1 21.4311 52.137 38.949
474 1 1.39957 52.7178 34.6741
471 1 0.269569 53.7893 35.4346
475 1 2.27504 52.3243 35.0031
476 1 2.7275 52.6864 35.8276
477 1 1.7845 52.723 36.0542
486 1 9.74846 2.95007 36.1075
487 1 9.90599 2.09789 35.9367
134 1 10.9343 3.64717 37.8779
133 1 10.959 3.31846 37.0292
132 1 11.328 3.34322 35.972
135 1 10.237 3.96123 38.3966
375 1 12.3348 4.00926 37.403
374 1 12.9909 3.4346 37.9957
380 1 12.4196 3.51387 36.311
489 1 9.64434 0.819563 36.435
483 1 11.4359 4.3598 36.9434
139 1 10.2075 2.78445 38.0875
481 1 10.9863 5.4898 35.4122
136 1 10.9576 4.10263 38.9539
482 1 11.2079 5.01806 36.2897
137 1 10.4351 3.76471 39.587
372 1 11.8448 3.45799 38.3918
325 1 11.209 5.34135 37.5262
379 1 13.292 2.85847 36.4084
330 1 9.43173 4.26498 37.6354
329 1 8.85125 4.89671 37.104
323 1 11.4571 5.09693 38.5546
324 1 11.611 4.47128 37.9261
326 1 10.9993 6.18137 36.8592
321 1 10.0224 5.59539 37.8597
322 1 10.4641 5.02057 38.3969
349 1 28.582 13.543 35.7652
350 1 28.0616 14.0827 36.6038
351 1 27.5712 14.0998 35.7697
175 1 52.4331 17.4395 35.6513
257 1 51.4775 14.8674 33.3256
260 1 50.1237 15.0973 33.141
171 1 51.2132 18.2616 35.3201
172 1 50.6835 17.4107 34.7572
176 1 52.4523 18.021 34.9034
256 1 50.7481 15.0452 34.078
255 1 50.4981 15.9215 34.4967
162 1 48.8121 19.64 33.8429
164 1 48.8365 18.3405 33.7301
167 1 49.8316 18.0867 34.2185
166 1 49.0732 17.347 34.0691
165 1 49.2881 17.5946 33.1642
178 1 52.2797 18.7529 34.1015
179 1 51.5383 17.9686 34.2341
163 1 48.9011 18.8653 34.3955
247 1 51.0179 19.0295 33.7569
246 1 50.7042 19.9156 34.1049
245 1 49.8606 19.3695 33.8075
19 1 20.2998 52.0718 38.4825
20 1 21.0419 51.4159 38.2355
18 1 20.5256 52.7726 37.7574
417 1 59.5489 51.8779 35.6455
3 1 21.746 51.4815 37.4327
462 1 0.478394 51.2948 37.2654
419 1 58.5085 53.3575 35.6114
461 1 59.5859 50.9993 37.6096
466 1 2.41761 52.8489 37.5318
467 1 1.75543 53.7109 37.7038
478 1 1.32196 52.0932 35.5664
468 1 0.950839 53.6322 37.6275
407 1 2.94687 50.5264 34.5563
2 1 21.5907 52.3575 37.8999
420 1 59.3405 53.616 35.9723
465 1 1.36581 52.3937 37.3052
469 1 1.16526 53.4227 36.7207
470 1 1.23485 53.6473 35.7049
406 1 3.1934 51.1177 35.3241
405 1 3.98177 51.5811 35.7558
498 1 11.5157 1.09008 36.4196
493 1 9.83061 1.36956 38.0495
490 1 10.3277 0.877904 37.2037
499 1 10.5892 1.53973 36.3787
131 1 12.0544 2.42348 35.9898
496 1 11.1094 1.73397 37.4593
500 1 10.3464 2.21786 37.0687
130 1 11.9613 2.78545 36.8385
129 1 12.2208 2.65145 37.825
128 1 11.236 2.61015 38.1848
373 1 12.659 2.92154 38.7296
488 1 9.42856 1.75605 36.6788
492 1 9.98579 0.413369 38.427
140 1 9.88082 3.34864 37.2713
494 1 10.5373 1.43094 38.5936
138 1 10.5021 3.03583 38.957
370 1 12.2317 3.84446 39.235
368 1 11.2573 3.06403 40.7978
371 1 12.5471 4.24252 38.4323
333 1 9.17911 2.34451 37.6164
331 1 9.21344 3.3953 38.0623
332 1 8.50968 3.05404 37.4483
169 1 49.6039 18.6257 35.1134
170 1 50.3443 18.1825 35.7461
168 1 50.4637 18.6363 34.6061
161 1 47.8605 19.2369 33.3627
463 1 0.567044 51.7132 38.2454
403 1 4.24947 50.2917 36.4383
464 1 0.468587 52.3798 37.7092
404 1 3.4298 50.9363 36.298
126 1 11.8057 1.6106 38.2116
491 1 9.51258 0.46026 37.5661
497 1 11.9583 1.57811 37.0938
362 1 9.83181 59.2362 39.4694
363 1 10.4947 59.6326 38.8618
366 1 10.8599 2.08964 39.1762
125 1 11.9055 0.595058 38.5123
127 1 11.9275 2.28551 38.9037
124 1 11.7931 0.453978 37.4613
361 1 9.29592 58.8314 38.8408
338 1 9.56693 0.833762 39.4017
495 1 10.9837 0.853811 38.0568
334 1 8.77773 1.54598 38.0707
336 1 8.91034 2.48887 38.7595
337 1 9.48508 1.8389 39.0625
369 1 11.4633 3.66879 39.9334
367 1 10.7888 2.67314 40.1077
335 1 8.41528 1.64648 38.9721
54 1 36.0505 29.3658 41.2191
55 1 36.7093 29.0091 40.5642
53 1 36.412 28.9892 41.9704
402 1 3.9625 50.0924 35.5562
401 1 3.18778 49.6976 35.3168
364 1 11.0363 0.52544 39.0665
123 1 11.7677 59.3311 37.2292
365 1 11.3321 1.45215 39.6765
121 1 11.0198 59.8443 37.9389
122 1 10.8125 59.8848 36.9597
339 1 9.10449 59.9121 39.1621
340 1 8.22163 59.4516 38.9639
41 1 33.1521 27.3106 40.7478
43 1 34.1692 27.2708 41.0979
42 1 33.9756 27.5962 40.1155
44 1 35.1174 27.451 40.9861
57 1 37.8963 29.9051 41.8973
58 1 37.2862 30.5922 41.6459
59 1 36.469 30.3219 41.3903
47 1 36.0844 27.4391 41.7605
46 1 35.7044 28.3075 41.3382
45 1 35.1514 27.8033 41.872
56 1 37.1308 29.4425 41.3181
52 1 36.9166 28.3287 41.371
51 1 36.4415 27.7772 40.7183
48 1 35.7048 26.6537 41.7802
50 1 36.8385 26.935 40.7186
60 1 36.7387 30.3003 40.4756
49 1 35.8046 26.5641 40.8934
213 1 39.8083 41.4121 45.6683
194 1 39.8419 40.0783 46.371
195 1 40.0536 39.3494 45.8229
192 1 40.47 40.6846 45.4348
219 1 42.0833 44.0777 45.4515
217 1 41.8872 42.8392 45.473
218 1 41.2173 43.6181 45.3648
214 1 39.9039 42.4216 45.504
210 1 41.3982 40.8194 46.7271
203 1 42.2132 38.9389 45.2466
216 1 41.3338 43.0286 46.1674
208 1 42.7681 41.4488 46.4471
207 1 41.8656 41.9586 46.3709
200 1 39.7234 39.6954 43.5075
182 1 41.2112 38.9241 46.8178
196 1 39.1148 39.4296 45.7319
199 1 39.0218 39.8715 44.3274
198 1 39.409 40.2267 45.2188
212 1 40.4294 41.7006 46.4082
181 1 42.0235 39.6039 46.9949
193 1 40.7623 40.1031 46.1549
186 1 40.531 38.5053 44.884
197 1 39.6241 39.1923 44.9181
190 1 40.1714 40.0884 44.4329
191 1 40.7044 39.7623 45.0734
189 1 40.9208 39.8689 43.81
220 1 42.0087 43.8494 44.483
215 1 40.9013 42.4158 45.5964
211 1 40.4076 40.7552 46.9389
204 1 41.545 39.2937 45.8687
202 1 41.9637 39.0275 44.2689
201 1 41.8391 37.9895 44.4155
209 1 42.2687 40.5004 46.3131
206 1 41.6265 41.2272 45.7075
205 1 41.4954 40.2731 45.4033
433 1 25.7803 42.8375 48.1673
434 1 26.469 42.1312 47.9919
183 1 40.2368 38.8606 46.8365
184 1 39.6124 38.3383 46.2987
188 1 40.5192 38.9538 43.9702
187 1 40.7013 37.8787 44.1496
185 1 40.5838 38.3512 45.8707
425 1 26.8711 41.9748 50.2782
426 1 26.3939 42.5321 51.1008
438 1 26.069 42.6644 49.5041
436 1 26.6288 41.0526 49.5723
428 1 25.8367 43.1356 50.434
431 1 24.8387 43.4372 49.4846
440 1 24.6872 41.9855 48.9197
439 1 25.0161 42.4021 49.6505
432 1 25.6247 43.4653 48.8552
435 1 26.3839 41.483 48.8065
302 1 25.5693 44.7915 48.7325
315 1 26.5513 44.4228 49.2066
314 1 27.041 43.565 49.5614
301 1 25.8082 44.6048 47.8483
317 1 26.3341 45.3527 50.817
316 1 26.4833 44.5141 50.2596
320 1 26.085 46.5875 50.5724
427 1 25.4832 42.379 50.8788
309 1 25.9537 43.8844 51.556
424 1 27.8684 42.1249 50.3382
423 1 27.3955 42.1308 49.3322
437 1 25.8936 41.6626 49.8797
430 1 25.6451 43.9732 49.7535
429 1 25.3423 44.0331 50.5405
311 1 26.9886 43.7132 50.9617
310 1 26.8599 44.5 51.4918
312 1 26.928 43.0085 50.3644
313 1 27.8586 43.2397 50.2229
422 1 27.4392 42.3657 48.3395
303 1 24.7652 44.1817 48.7304
318 1 26.2426 45.3658 49.8175
319 1 25.7277 46.2677 49.597
308 1 25.2125 43.3481 51.4503
306 1 24.1911 42.8974 50.2888
307 1 24.3537 43.467 51.0568
421 1 28.0827 42.8849 49.0412
305 1 24.1025 43.8973 49.9882
304 1 24.8407 44.5736 49.6272
155 1 54.6165 11.0579 0.293445
158 1 53.1834 11.3716 1.49689
156 1 54.2903 11.0195 1.16109
159 1 52.9197 10.4194 1.56686
150 1 52.7878 10.2545 0.597363
157 1 53.7227 11.7224 0.874617
154 1 54.3122 10.4608 59.5118
160 1 52.694 9.48132 1.33578
153 1 53.6935 10.5771 0.281342
151 1 52.5571 11.2908 0.456661
152 1 53.1095 11.065 59.7518
ITEM: TIMESTEP
37000
ITEM: NUMBER OF ATOMS
500
ITEM: BOX BOUNDS pp pp pp
0.0000000000000000e+00 6.0000000000000000e+01
0.0000000000000000e+00 6.0000000000000000e+01
0.0000000000000000e+00 6.0000000000000000e+01
ITEM: ATOMS id type x y z
160 1 56.4812 9.50307 2.10741
144 1 54.4025 10.3001 0.880282
145 1 55.4383 10.2469 0.885129
143 1 54.0191 9.85408 59.9954
150 1 56.4535 10.6855 1.39842
151 1 56.9863 9.90466 1.02052
153 1 56.1691 11.2693 0.395368
141 1 53.844 9.34858 0.940325
155 1 55.0937 10.7091 59.988
156 1 55.937 10.3875 59.4594
157 1 55.3314 9.61699 59.8668
399 1 20.0463 7.8833 2.84273
400 1 19.7251 8.78405 3.17086
395 1 21.9788 8.07522 3.96623
396 1 21.2963 8.40377 4.76972
394 1 21.8516 9.07796 3.96284
391 1 20.4361 10.6598 3.68266
158 1 56.0467 9.19657 0.415364
159 1 56.3667 8.93857 1.32284
72 1 20.0257 56.037 0.211369
71 1 20.4035 55.2188 0.795985
272 1 20.806 8.20833 6.70325
273 1 20.1154 8.88947 6.86415
274 1 20.6823 8.64634 7.65363
271 1 20.1378 8.03549 6.0588
270 1 19.3422 8.33993 5.43048
275 1 19.7484 8.55884 7.94253
390 1 20.5249 10.9316 4.67922
387 1 20.8144 9.05651 5.66872
397 1 20.9976 8.14284 3.77022
398 1 20.8203 8.42477 2.78393
389 1 21.2024 10.3531 5.27051
393 1 22.1338 9.84819 3.95402
392 1 21.1493 10.1314 4.22778
388 1 21.464 9.56023 5.60291
383 1 19.9228 10.0503 4.98061
78 1 21.5326 56.6657 2.31793
77 1 20.8046 56.1087 1.90448
76 1 20.5118 55.2066 2.38385
74 1 19.4954 55.8601 1.02269
75 1 19.7355 55.5384 1.75945
73 1 19.4474 56.7403 0.750706
64 1 21.9424 57.2094 0.373958
70 1 21.0434 55.6796 59.9923
62 1 20.3518 57.382 0.771733
63 1 21.2667 57.1793 1.05519
65 1 21.8903 56.5004 59.6328
67 1 21.9131 56.0515 1.46785
261 1 19.7764 9.22355 5.75779
386 1 21.0909 9.12668 6.56228
278 1 19.9671 10.4303 7.23826
277 1 19.2261 10.6288 7.9417
262 1 19.1808 9.26976 6.54154
276 1 19.6176 9.60976 7.73451
268 1 19.623 8.87517 4.38929
267 1 19.8615 9.74029 3.92918
266 1 19.179 10.2618 3.87502
269 1 20.1415 8.22973 4.88719
265 1 18.5932 9.40772 4.04557
385 1 20.4607 9.89044 6.41588
381 1 20.7969 9.23065 3.65987
384 1 20.0862 10.6001 5.66352
382 1 20.5511 9.28709 4.70018
80 1 22.8896 56.3817 1.34245
79 1 22.3006 57.0632 2.03809
69 1 21.0077 56.2436 0.642654
68 1 21.4929 55.4152 0.823365
61 1 20.1732 56.9278 1.68137
66 1 22.1202 56.1861 0.532472
238 1 30.9779 6.54868 8.93077
237 1 31.8431 6.32261 8.49962
239 1 31.3202 7.39668 8.79487
240 1 30.817 7.32902 9.74226
280 1 21.7777 10.8788 6.71286
263 1 18.9303 10.0119 5.85631
264 1 18.9497 9.34113 5.11636
279 1 20.8582 10.543 7.43462
236 1 32.3887 6.0923 9.18976
234 1 31.0111 5.00679 9.05343
235 1 31.8756 5.40867 9.35227
233 1 30.9615 5.25707 9.99061
228 1 30.0413 8.31763 11.0614
232 1 30.8717 6.25844 9.84231
224 1 27.9574 7.70224 10.2039
223 1 28.7487 8.25331 10.8186
225 1 28.4773 7.8956 9.40957
222 1 29.4263 7.67731 10.4391
227 1 29.7658 8.90314 10.2868
226 1 28.8155 8.86333 9.92977
230 1 31.0323 7.53437 11.2081
229 1 30.9112 8.2293 10.4913
231 1 30.9885 6.6449 10.7876
106 1 46.8962 50.0602 10.4065
107 1 45.9209 50.0092 10.3273
108 1 45.6633 49.7306 9.39947
281 1 39.7 54.1176 11.1944
283 1 38.8658 53.2296 11.2746
284 1 38.5779 53.1184 10.3557
221 1 30.028 6.86361 10.2249
116 1 48.3804 50.5884 9.26581
104 1 47.5096 49.7812 9.39342
105 1 47.54 50.6483 9.96238
102 1 46.8352 50.0646 8.24979
115 1 48.6666 51.3125 8.85594
103 1 47.5096 50.4674 8.67334
110 1 46.6412 51.1881 9.27378
111 1 46.9028 51.4025 8.30122
109 1 46.5647 50.3023 9.35963
298 1 39.8949 56.3237 11.2886
299 1 40.6384 56.0294 11.7675
297 1 39.3255 55.5673 11.2569
296 1 39.4168 55.6414 10.2716
294 1 40.0098 54.776 10.4287
300 1 41.6124 56.1487 11.6657
293 1 40.5391 53.9011 10.4496
295 1 40.3473 55.6689 10.4007
292 1 40.0715 53.8217 9.63816
291 1 39.3244 53.9534 10.262
286 1 38.7725 54.79 10.0274
288 1 38.5921 54.5784 8.32596
287 1 39.088 55.0156 9.09414
285 1 38.44 54.1304 10.7729
282 1 39.7014 53.159 10.7713
117 1 48.6425 50.3654 8.36522
119 1 47.8227 49.9088 7.64213
118 1 48.7742 49.5068 7.83477
112 1 47.402 50.8379 7.64661
101 1 46.4315 49.2953 8.72937
113 1 47.9248 51.5904 8.08813
114 1 47.6866 51.3418 9.17003
289 1 38.2353 53.9904 8.94753
290 1 39.0351 53.689 9.36682
120 1 48.0645 49.511 8.61155
460 1 36.6564 56.2014 16.9654
444 1 36.0487 54.1822 17.1522
454 1 36.3315 53.3189 16.0197
453 1 36.8053 52.5348 16.2047
459 1 36.1405 55.509 17.5182
445 1 35.9587 53.6478 18.0331
458 1 37.0852 55.1581 17.0469
441 1 35.3204 52.9604 16.0324
457 1 36.3275 55.2991 16.4657
456 1 35.9052 54.3878 15.9102
447 1 35.3405 53.3728 17.128
446 1 36.4583 53.1609 17.1604
443 1 35.2974 54.6042 16.7734
452 1 36.3574 51.8957 16.8587
442 1 35.0415 53.874 16.193
455 1 36.7783 54.2179 16.4109
451 1 35.9531 52.2997 17.6523
450 1 34.9633 52.6634 17.6923
448 1 34.3746 53.8775 17.1534
449 1 34.4812 52.8579 16.8061
38 1 45.7555 4.4194 25.8449
39 1 46.4053 4.96904 26.4877
23 1 46.4978 3.59671 25.6156
24 1 46.3554 3.24557 24.5977
40 1 45.6993 5.64734 26.4004
29 1 45.1082 2.69197 24.4443
30 1 44.3953 3.43833 24.8354
31 1 44.3732 3.34136 25.7465
37 1 45.5148 4.63249 24.8732
25 1 47.2626 2.74207 24.5173
26 1 47.3761 2.19758 25.4168
27 1 46.8132 1.75672 24.7773
21 1 45.5097 3.35074 25.24
22 1 46.0966 2.71621 25.7901
35 1 44.5792 4.79953 26.2741
36 1 44.6921 4.46528 25.469
28 1 45.8733 2.12017 24.5345
33 1 45.2374 2.91454 26.2667
34 1 44.8972 3.89069 26.4241
32 1 44.7822 2.30103 25.7017
82 1 27.0902 15.1747 33.5369
81 1 26.6832 15.3736 34.3416
94 1 25.8625 12.2485 33.748
84 1 27.3761 14.4214 34.2418
83 1 27.3104 14.3466 33.0937
258 1 52.4326 14.9154 31.5114
252 1 52.5669 16.0749 31.2992
249 1 52.0777 17.4175 31.4908
243 1 50.345 15.4172 31.248
242 1 50.8965 15.0761 30.4507
248 1 51.3884 17.5707 30.8218
344 1 26.4593 11.6911 34.4538
95 1 25.057 11.9616 34.3905
96 1 24.299 12.4973 34.4798
98 1 24.0564 12.8178 35.8271
93 1 25.221 12.7892 33.8012
92 1 25.8531 13.4996 34.2674
86 1 26.5294 14.0285 33.7122
85 1 27.4313 13.5679 33.8078
97 1 24.0142 11.9832 35.3512
100 1 25.0158 12.632 35.2503
99 1 24.7575 13.5257 35.8883
87 1 25.9454 14.5523 34.4539
88 1 25.5919 14.6112 35.3464
260 1 50.9067 14.2696 31.2577
256 1 52.089 15.7499 32.2449
257 1 51.4813 15.4049 31.6064
259 1 51.7267 14.4692 30.9157
253 1 51.6273 16.4941 31.573
254 1 50.6528 16.5849 31.6328
244 1 50.6559 16.0531 30.5483
164 1 49.2615 16.7499 32.0757
167 1 50.0841 16.3271 32.9606
166 1 49.9741 15.7374 32.118
165 1 49.2045 15.9675 32.669
180 1 50.2886 17.8495 31.8421
250 1 52.1403 17.1899 32.4826
251 1 52.8756 16.6447 32.0878
177 1 51.5035 18.5788 31.8581
179 1 49.833 18.7737 32.1236
161 1 49.2671 18.0615 31.168
162 1 48.9431 17.1612 30.7361
245 1 50.658 17.0204 30.2826
247 1 50.6406 18.0482 30.4576
246 1 49.9079 17.5976 29.9936
178 1 50.5793 19.003 31.6081
241 1 49.8986 15.3135 30.249
481 1 8.36933 4.37975 37.3872
345 1 27.0486 12.1102 35.2643
346 1 27.8792 12.6448 35.5754
342 1 26.7182 12.8599 33.7485
341 1 26.6274 12.7043 32.7339
343 1 27.0932 12.1078 33.9033
353 1 25.104 11.6354 35.5386
91 1 25.9307 12.6203 34.781
352 1 26.0588 11.6034 35.6044
354 1 25.0579 12.4152 36.4207
89 1 26.2843 14.0292 35.504
90 1 26.6188 13.1924 35.089
173 1 50.3176 18.038 33.6808
255 1 51.049 16.0439 32.4964
174 1 51.0906 18.5456 33.4613
171 1 49.9148 17.2586 32.708
172 1 50.7849 17.7693 32.7526
175 1 51.838 17.9971 33.3063
176 1 52.1909 18.2256 32.3997
163 1 49.8421 17.0033 31.2773
169 1 49.0936 17.1977 33.3331
168 1 49.875 16.9509 33.8309
401 1 0.467487 49.3072 36.1051
6 1 16.1928 52.4367 41.0833
413 1 59.532 51.7264 35.9453
408 1 0.0410476 50.1654 36.8714
407 1 59.207 49.7872 36.4912
406 1 58.5434 49.9404 35.7438
402 1 59.7227 48.793 36.5827
473 1 59.6902 51.9822 34.8211
472 1 0.270671 52.6522 35.0182
474 1 0.0191465 50.9405 34.9398
478 1 1.94678 51.5838 35.4028
475 1 0.457927 51.0965 33.9359
418 1 58.3618 51.0197 37.0429
417 1 58.8738 50.4841 37.7954
471 1 1.01777 52.9084 35.8548
470 1 0.13074 53.188 36.2349
419 1 58.4488 52.0586 37.0829
489 1 9.84731 2.65734 35.2618
498 1 12.6357 2.23372 35.9072
487 1 10.429 2.81558 36.2827
488 1 10.8368 2.56724 35.3527
499 1 12.3955 1.38551 36.1566
500 1 11.5477 2.13576 35.9704
131 1 11.2037 4.55428 38.0821
130 1 10.9451 3.70829 38.4927
497 1 12.928 2.01419 36.7877
486 1 10.2155 2.67729 37.2927
485 1 9.56208 2.98154 36.6524
484 1 8.5797 3.27842 36.8828
133 1 9.69388 3.93422 37.5109
132 1 10.5751 4.13072 37.544
380 1 10.1964 5.29924 39.9318
378 1 10.4712 5.2907 37.8869
379 1 10.69 5.40993 38.965
328 1 7.12762 1.5894 38.9915
329 1 6.94784 0.55644 38.8607
482 1 7.90027 3.60837 37.7107
483 1 7.71044 3.86013 36.7423
377 1 9.85539 4.58594 38.2424
327 1 7.31361 1.69276 38.0952
326 1 8.21427 1.44259 38.4069
359 1 25.9457 12.948 36.7221
358 1 26.6973 12.7277 36.2889
348 1 28.2749 12.385 34.461
347 1 27.4468 12.8544 34.5365
356 1 26.2656 12.3889 37.6159
355 1 25.2081 12.1075 37.3735
357 1 26.3493 11.9076 36.6639
350 1 27.5045 11.1986 34.5746
351 1 26.7464 11.0092 35.295
349 1 28.185 11.7099 35.1016
170 1 49.0692 17.9038 32.5931
411 1 1.32059 51.6409 36.1931
7 1 16.3299 51.7759 40.2684
410 1 1.23972 50.858 35.658
414 1 59.3351 51.0175 36.5093
480 1 2.37823 50.9655 36.1895
409 1 0.405797 50.7039 36.0045
403 1 59.5535 48.8414 35.502
404 1 59.5146 49.9083 35.4431
8 1 15.9354 52.4475 39.6057
14 1 18.1484 51.5921 38.5182
5 1 17.07 52.2204 41.5859
4 1 17.2792 52.3117 40.5364
412 1 0.463643 51.7627 35.6713
415 1 0.0264066 51.2267 36.9827
479 1 2.85004 51.8548 35.9492
476 1 0.910515 51.4571 34.5288
477 1 1.25669 52.1547 35.0834
405 1 59.1166 50.6477 35.4072
17 1 18.9187 52.4469 38.7729
15 1 18.7702 51.2411 39.1203
16 1 19.4322 51.4566 38.5745
416 1 59.3551 51.4975 37.7436
469 1 0.667208 52.4209 36.7058
420 1 57.7731 52.7591 37.2094
122 1 12.0607 0.675817 36.7654
493 1 11.4142 1.1338 36.0874
492 1 10.479 0.736003 35.6414
491 1 10.2568 1.57054 35.1951
490 1 9.73972 1.94228 36.0477
495 1 11.4418 1.95464 37.0218
125 1 11.2362 0.734642 38.4484
124 1 12.2304 0.780248 38.2263
333 1 9.22508 1.41845 37.1213
334 1 8.97301 0.53107 36.9171
139 1 9.13495 2.16884 38.1278
496 1 12.2117 2.44569 37.3642
128 1 11.4194 2.87492 37.8952
129 1 11.9446 3.39742 38.671
126 1 11.0492 1.72186 38.0011
332 1 8.35955 1.87775 37.4299
330 1 7.71166 0.293143 38.1144
140 1 9.31941 2.37837 39.1496
331 1 7.93622 0.956553 37.248
134 1 9.9213 3.08934 38.1631
135 1 10.1517 3.00817 39.096
375 1 9.48128 4.42511 39.8155
372 1 11.1334 3.29209 39.7281
371 1 10.8028 2.44664 40.2102
374 1 10.4279 4.42115 39.3192
325 1 8.14963 2.44779 38.768
321 1 9.50965 3.3917 40.2384
322 1 8.7363 2.71554 39.9831
323 1 8.6372 3.55762 39.4452
324 1 8.64308 3.2826 38.4291
376 1 9.56302 3.93852 38.9403
360 1 25.6206 13.8608 36.3403
9 1 16.1461 52.5513 38.5024
462 1 1.12811 50.9442 38.2413
12 1 17.8338 53.1421 39.2188
11 1 16.9095 52.945 39.5842
13 1 17.3937 52.2401 38.7745
10 1 16.7411 53.3835 38.7295
20 1 16.6503 53.7434 36.9921
461 1 0.160488 51.0011 38.2679
465 1 1.99287 51.163 37.5844
463 1 1.10229 50.4937 37.3514
464 1 1.83084 50.152 37.8119
466 1 1.20007 51.8032 37.3754
19 1 17.5465 53.7512 37.7071
18 1 18.2138 52.8467 38.0602
3 1 17.2849 51.759 39.6709
2 1 18.1106 52.1658 39.7875
468 1 0.971179 52.861 37.414
467 1 0.289579 52.1202 37.645
121 1 12.2723 0.115584 36.1184
123 1 11.9665 1.22091 37.5537
338 1 10.0336 0.262308 37.4227
494 1 10.7352 1.57387 36.3465
364 1 10.8593 59.872 38.1578
335 1 8.91596 0.765892 37.9397
336 1 9.23652 1.27347 38.6805
337 1 9.87562 0.686941 38.4204
366 1 12.0783 59.7148 38.7176
365 1 11.5505 59.1408 38.1502
127 1 10.9955 2.61867 38.4765
136 1 10.6114 2.0673 39.3016
137 1 10.2267 1.65799 38.6586
138 1 9.97256 1.75405 37.745
373 1 10.6213 3.90783 40.2329
370 1 11.6776 2.10552 39.8796
369 1 11.7372 1.91213 38.8441
1 1 19.0358 51.9439 40.1844
340 1 11.1313 0.237307 37.1627
362 1 10.6453 59.3447 37.0185
361 1 10.7097 59.8289 36.3622
339 1 10.6516 1.02013 37.2537
363 1 10.4425 59.0004 37.823
367 1 12.1567 0.605859 39.2648
368 1 11.3695 1.27613 39.3886
50 1 36.6456 28.9012 42.4408
49 1 36.8244 28.7886 41.4899
41 1 37.1687 30.839 41.6553
43 1 37.7911 30.3023 40.7317
42 1 37.0039 30.9006 40.6313
44 1 38.3738 29.7949 41.2749
46 1 38.3972 28.5497 42.6692
52 1 37.3503 28.1163 42.5476
51 1 36.7024 28.3373 43.1861
54 1 37.8683 28.1215 41.2341
55 1 38.3866 27.9048 40.3439
56 1 38.9903 28.5503 40.5477
59 1 38.4238 27.0871 42.3758
60 1 38.4732 26.8665 41.4603
48 1 37.2778 29.5427 41.5949
45 1 38.5692 28.9831 41.6772
47 1 37.7203 29.1049 42.3856
53 1 37.334 27.4182 41.8117
57 1 39.2148 27.6691 41.1717
58 1 38.6702 27.8584 41.8462
187 1 42.4754 43.7087 43.6177
200 1 44.479 42.4234 46.8532
189 1 42.5089 44.151 44.864
188 1 43.1327 43.5286 44.3455
202 1 43.0358 42.5624 43.4339
186 1 42.2138 42.8866 44.2895
201 1 43.9784 43.0482 43.1314
199 1 43.8562 42.8501 46.1985
197 1 42.9348 43.5854 45.8588
191 1 41.4888 43.8722 44.4459
203 1 42.0937 42.2643 43.2423
213 1 44.1554 42.0204 44.8541
198 1 43.4305 42.8443 45.3105
192 1 42.0317 43.3043 45.2866
190 1 41.5742 44.342 45.3561
205 1 42.9334 40.8756 44.3277
214 1 43.4024 42.3314 44.3658
215 1 44.3934 42.3504 43.9513
217 1 44.8534 40.6004 43.373
218 1 44.002 41.2577 43.5321
219 1 43.7249 41.0298 42.5965
220 1 42.9511 41.3433 43.1211
184 1 41.275 42.4929 45.2879
185 1 41.5806 42.0773 44.4761
196 1 42.0694 43.6072 46.4062
195 1 42.5332 42.919 46.9637
182 1 41.1193 41.3923 45.0621
183 1 41.5523 41.7877 45.9713
181 1 40.2954 41.6047 45.5872
204 1 42.531 41.7588 44.0363
194 1 42.7964 42.3682 46.0732
210 1 42.6041 41.2606 46.0543
193 1 42.2631 42.3504 45.3177
211 1 43.027 41.7408 45.1347
209 1 42.7141 40.5578 45.2838
206 1 43.7666 41.1673 44.534
212 1 43.8358 41.9396 45.7253
208 1 43.6059 40.1034 45.4338
207 1 44.3686 40.8142 45.1655
216 1 45.0003 41.4801 43.9143
433 1 23.3592 43.1099 49.7307
434 1 22.9493 42.8015 50.3923
422 1 25.27 43.6422 50.1567
301 1 21.7686 44.4491 49.7061
436 1 24.0873 43.3227 50.9889
440 1 23.909 44.5116 52.3718
439 1 24.0029 44.2468 51.5674
438 1 24.6991 43.7704 51.6555
435 1 23.1666 42.954 51.3376
437 1 25.1363 43.1322 51.0091
423 1 25.8961 43.9578 49.4893
305 1 22.9327 44.3024 51.2959
431 1 24.8465 44.1822 49.2822
432 1 24.3693 43.306 49.6092
430 1 23.9823 44.5366 49.8039
303 1 22.3557 43.7903 50.6401
314 1 26.2001 46.4773 51.3889
421 1 25.4145 44.7312 50.1861
302 1 22.5893 43.8341 49.6631
304 1 23.4193 43.8801 50.4123
315 1 25.1781 46.5414 50.9552
318 1 22.9031 45.4197 51.6077
319 1 22.5094 45.3685 52.55
427 1 25.6844 44.9471 51.0837
425 1 26.1894 44.0659 50.7308
426 1 26.0079 44.4553 51.6992
424 1 26.5338 44.4962 49.864
306 1 23.6458 44.8497 50.8233
429 1 24.3936 45.368 49.8945
307 1 24.5505 44.559 50.7103
428 1 25.0189 45.6011 50.5875
311 1 26.4471 45.4044 51.7962
312 1 26.8608 44.8664 51.0383
313 1 26.6021 45.6945 50.7809
317 1 23.7272 45.7379 51.4584
316 1 24.3055 46.279 50.769
320 1 23.5015 45.4828 52.4985
308 1 24.7174 44.9777 51.5967
309 1 24.7198 45.9842 51.7342
310 1 25.613 45.6572 51.8472
149 1 55.4887 11.0578 1.69826
148 1 55.5332 9.98077 2.02126
146 1 55.0919 9.39145 0.975041
147 1 54.6859 9.70676 1.82056
142 1 53.2054 10.0916 0.453419
152 1 56.4712 10.3374 0.251307
154 1 55.2249 11.3279 0.700534
ITEM: TIMESTEP
38000
ITEM: NUMBER OF ATOMS
500
ITEM: BOX BOUNDS pp pp pp
0.0000000000000000e+00 6.0000000000000000e+01
0.0000000000000000e+00 6.0000000000000000e+01
0.0000000000000000e+00 6.0000000000000000e+01
ITEM: ATOMS id type x y z
143 1 58.7733 10.5231 1.49686
141 1 58.8731 10.1568 0.217404
146 1 57.1637 9.26524 2.49759
151 1 56.9482 10.5703 0.324359
158 1 55.8694 10.7627 0.814457
159 1 55.4883 9.82608 0.714286
142 1 59.4299 10.0648 0.867224
144 1 58.3242 9.59344 1.19129
145 1 57.9686 9.62195 2.0369
154 1 57.5783 10.7621 2.09711
150 1 57.6965 9.81955 0.183044
153 1 56.8487 10.971 1.31208
152 1 57.3468 10.1837 1.19283
71 1 20.1939 55.8543 58.9711
70 1 19.9309 55.7217 58.0084
68 1 20.0365 54.1288 58.8359
74 1 21.7963 56.4709 -0.00763164
73 1 21.0377 55.7697 59.8854
72 1 21.1602 55.3986 59.0721
69 1 19.5669 55.0871 58.7757
66 1 20.9985 55.5708 57.8758
80 1 19.4943 57.8917 58.7203
62 1 21.011 56.7718 57.7147
63 1 21.3921 56.3722 56.7639
64 1 22.2048 56.0776 56.9969
399 1 21.4742 7.39495 7.27746
398 1 21.7218 6.99584 6.36425
148 1 57.4093 8.4715 1.58442
147 1 56.6193 9.13083 1.63864
160 1 56.5196 9.55454 0.453062
149 1 57.4088 9.06388 0.848094
75 1 22.0678 56.2841 59.1463
76 1 21.9378 56.1243 58.2386
77 1 21.0458 56.2382 58.6978
61 1 20.2076 56.4895 57.1934
78 1 21.4726 57.1817 58.9723
67 1 20.4995 54.9219 58.4618
79 1 20.5094 57.7257 58.9613
397 1 22.6866 7.48943 6.37502
395 1 23.1038 6.97778 7.57379
400 1 21.2958 6.39501 7.28271
267 1 22.7522 7.18872 5.15556
265 1 21.5945 7.25065 4.55514
381 1 20.8761 10.8712 7.002
394 1 23.8102 7.58455 8.0234
393 1 23.5581 8.12664 7.10568
266 1 22.5581 7.20849 4.15702
391 1 23.2418 8.92487 5.5131
392 1 23.2485 8.18308 5.98418
270 1 21.7717 8.34993 6.86622
396 1 22.5738 6.50028 6.96846
269 1 22.1829 8.30714 5.93391
268 1 22.1687 8.10273 5.00451
264 1 21.0784 6.75487 5.27849
387 1 23.0806 9.91041 7.05345
382 1 21.3857 10.8386 7.68732
388 1 22.3641 10.2054 6.452
383 1 21.9874 9.96112 7.54944
390 1 22.5311 9.51027 5.06834
389 1 23.0771 10.1086 5.7633
384 1 21.3852 9.98737 6.8064
272 1 20.6252 9.8586 7.53764
271 1 21.3643 9.15637 7.50056
261 1 20.8438 8.56218 5.29057
262 1 21.3024 7.72981 5.61788
273 1 20.2846 8.90099 7.88575
386 1 22.6764 9.22923 6.4357
385 1 21.6855 9.2824 6.10389
263 1 20.5283 7.13371 5.86171
280 1 20.1402 9.26712 4.87101
237 1 31.597 5.70652 11.6709
275 1 20.6776 8.88932 6.62574
276 1 19.7634 9.23905 6.8135
274 1 20.634 8.20909 7.30228
278 1 19.3305 10.1686 6.31418
277 1 20.2038 9.9394 6.34152
279 1 19.1291 9.47403 5.33482
119 1 45.6405 49.948 6.22152
118 1 46.1163 49.5327 5.53769
102 1 46.1799 50.7737 8.36722
111 1 45.8595 50.7423 7.27822
112 1 45.8536 51.3943 6.52695
117 1 46.131 50.394 5.11234
113 1 46.7032 51.9342 6.49979
288 1 40.4524 55.9965 11.8546
234 1 30.5526 5.9074 10.7309
233 1 30.7547 6.79976 11.2354
235 1 31.2074 5.2145 10.5875
238 1 31.9718 6.70147 11.7405
232 1 31.1464 7.64531 11.6939
236 1 32.0204 5.83053 10.7719
225 1 31.9226 8.5357 11.6046
239 1 32.7319 7.18087 11.148
240 1 31.9157 6.87797 10.7792
226 1 31.3265 8.53624 12.488
108 1 47.4238 50.8073 6.49404
101 1 47.1969 50.8335 8.21424
104 1 46.0409 49.5062 7.24352
120 1 44.9423 50.1896 7.0112
110 1 46.6097 51.3455 7.3563
109 1 47.563 51.1897 7.33088
116 1 46.9988 49.9298 4.74268
105 1 46.8386 50.209 7.15561
103 1 45.9743 49.8515 8.11327
114 1 46.6658 51.2246 5.72834
115 1 47.087 50.2848 5.6288
289 1 39.9069 55.1175 11.9694
290 1 40.3961 55.0339 11.1158
292 1 40.2195 54.379 10.2998
287 1 39.6298 55.9054 11.2089
231 1 30.4665 7.26446 12.4029
221 1 30.3603 8.1978 10.0774
224 1 31.2207 9.00402 11.3201
223 1 31.5434 8.04467 10.801
222 1 31.2471 7.78595 9.9189
228 1 30.2738 8.51277 12.1314
230 1 29.8336 7.21611 11.7092
229 1 29.5169 7.8826 12.3716
227 1 30.6671 9.26458 12.8669
106 1 47.3482 49.6623 6.56403
107 1 48.0552 50.192 6.94106
285 1 39.0122 56.2153 10.1252
281 1 38.0973 54.9643 8.61461
283 1 39.3782 56.1736 9.00522
284 1 39.3325 57.0338 9.52819
291 1 40.2121 54.108 11.2317
282 1 38.9348 55.4369 8.83743
293 1 39.3801 54.6164 10.7253
297 1 39.0576 54.3934 8.68901
296 1 39.2895 54.7447 9.63151
286 1 39.7767 55.4994 10.2375
294 1 38.4231 54.9358 10.6475
295 1 38.3601 54.909 9.73691
298 1 38.5207 53.7377 9.14
299 1 38.14 53.1448 9.85172
300 1 38.7421 53.8653 10.2993
453 1 38.7615 55.0362 14.7787
452 1 39.6331 55.3229 14.5127
441 1 39.4046 54.754 16.8972
447 1 39.1176 55.3594 15.7514
442 1 39.0978 53.9822 16.2571
449 1 39.8143 56.2454 15.9657
444 1 38.0537 53.8172 16.8492
454 1 38.7999 54.2361 15.3255
455 1 37.9973 53.6226 15.617
443 1 39.0307 53.6252 17.049
458 1 39.5104 53.0061 16.3053
457 1 38.994 53.1454 15.4542
456 1 38.4227 52.9819 16.2194
460 1 40.776 54.1813 15.9085
450 1 40.1302 55.1893 16.2763
451 1 39.8745 54.7358 15.3467
448 1 38.9067 56.2518 16.317
445 1 37.8598 54.5107 16.2368
446 1 38.2053 55.4295 15.8706
459 1 40.1089 53.8414 16.5969
29 1 47.2398 3.3258 26.3592
32 1 46.4992 1.71834 27.3026
27 1 47.0464 4.37115 26.7857
28 1 46.4882 3.84956 26.1
25 1 46.2608 5.16777 27.0721
26 1 46.7941 5.20686 26.1407
30 1 46.7111 2.75092 25.8504
21 1 46.4675 2.92573 27.2455
23 1 45.3947 4.34508 27.1909
24 1 45.6917 4.7736 26.2793
37 1 45.7729 3.05456 26.3642
36 1 45.7154 2.3078 27.0608
22 1 46.3336 3.80187 27.5272
31 1 46.7401 2.03902 26.4099
33 1 46.052 1.18374 26.5472
34 1 45.1444 1.20168 26.9467
40 1 44.399 2.63867 24.999
35 1 44.9331 2.094 26.5249
38 1 44.9413 3.02552 25.8593
39 1 45.3185 2.26124 25.3063
246 1 50.8394 14.6906 28.1696
260 1 51.581 13.7753 29.1995
241 1 54.0207 14.7012 27.748
243 1 53.109 14.5455 29.3007
242 1 54.1524 14.525 28.8697
259 1 51.5122 14.6324 29.6501
163 1 50.2257 15.2693 29.9166
244 1 52.361 15.0348 28.7582
245 1 51.9013 14.4299 27.9802
252 1 52.1782 15.5163 29.7624
161 1 49.813 15.2661 28.4493
162 1 50.436 14.8065 29.1993
248 1 50.8815 16.1416 29.3401
247 1 51.3038 15.4092 28.8203
341 1 23.6017 13.2424 33.0736
166 1 48.8206 15.4185 31.0826
258 1 51.941 14.604 30.4198
257 1 51.1831 14.1811 31.0485
164 1 49.977 14.4776 30.4754
165 1 49.6153 14.8977 31.3566
254 1 51.4866 15.4842 31.0047
255 1 52.486 15.273 31.3342
256 1 51.759 14.6187 31.753
253 1 51.2432 15.5043 30.0589
251 1 52.1341 16.3853 30.2914
171 1 50.2052 16.4865 30.0606
170 1 50.4718 16.5711 31.0314
180 1 50.626 18.5142 29.2377
172 1 49.4277 17.1554 29.7106
249 1 51.056 17.2162 29.3939
250 1 51.2784 16.7831 30.1179
176 1 49.3266 18.5855 29.266
179 1 49.9453 18.3296 28.5223
178 1 49.6244 17.4774 28.746
177 1 48.9714 18.1977 28.4454
93 1 23.2353 12.1058 34.2888
94 1 23.8105 11.3713 34.5543
343 1 24.0716 12.7448 34.1605
92 1 23.7646 12.3524 35.0166
86 1 23.8639 14.2366 34.2661
342 1 24.4374 13.2121 33.5022
85 1 24.7382 13.7282 34.7353
82 1 24.5513 13.353 36.6177
83 1 23.8454 13.3008 35.8932
168 1 50.4611 15.4895 31.1241
167 1 49.6357 15.8643 30.7068
169 1 51.0882 16.1105 31.7515
173 1 49.0482 17.3244 30.6553
175 1 49.6345 18.3933 30.2636
174 1 50.0273 17.6055 30.7182
475 1 58.8542 49.2123 35.3752
492 1 9.88032 2.58097 36.3898
489 1 8.88013 1.37466 36.1263
488 1 8.67219 2.22092 36.5742
491 1 10.034 1.78311 35.784
351 1 25.0173 10.8366 35.3629
350 1 25.0486 10.6799 34.2723
96 1 23.0944 11.1671 36.5244
97 1 23.6987 10.8762 37.1908
95 1 23.6203 11.0283 35.5817
100 1 25.6865 11.3829 37.3837
353 1 26.0478 9.55879 36.1469
344 1 24.8251 12.457 34.5399
345 1 24.7383 12.8886 35.433
91 1 22.8498 11.952 35.5083
352 1 25.535 10.0678 35.4393
346 1 25.6394 13.1277 35.7796
348 1 25.5379 11.7863 34.9469
347 1 25.7186 12.749 34.9978
349 1 26.0186 10.9878 34.4741
89 1 23.1236 13.3349 34.3053
90 1 22.915 12.8484 35.1818
88 1 22.9536 14.1732 35.0259
81 1 24.9526 14.1523 36.3115
87 1 23.9064 14.4543 35.2527
84 1 23.8284 13.4642 35.0793
403 1 57.9571 48.4398 35.4063
404 1 57.2655 48.928 35.9629
410 1 58.8705 50.3327 37.0791
476 1 59.4087 49.8129 36.0454
474 1 58.907 50.0585 34.5851
405 1 57.9487 49.6724 36.2
472 1 59.1812 50.9423 36.1812
412 1 59.2989 51.8462 36.6848
477 1 0.0749341 49.3289 35.3713
478 1 59.8653 50.4024 35.1762
473 1 58.597 50.417 35.4802
333 1 9.07208 0.352956 36.6711
334 1 9.41943 0.373882 35.7472
493 1 9.15404 3.04718 35.8299
499 1 9.72754 4.30115 35.2431
122 1 11.8917 3.42269 37.4716
121 1 12.8222 3.58377 37.3231
490 1 9.72018 1.19816 36.5853
487 1 8.14021 2.99185 36.7
495 1 9.01476 3.58979 37.841
494 1 9.11827 3.3028 36.9195
498 1 9.68579 4.28521 36.316
500 1 9.33953 5.14469 35.4694
497 1 10.2449 4.10326 37.1122
483 1 7.28545 0.884507 36.913
485 1 7.34785 2.03892 37.4424
484 1 8.03329 1.43891 37.2819
98 1 24.1065 11.7278 37.0149
354 1 26.9059 9.51223 36.3675
358 1 25.0413 12.2508 36.138
357 1 25.832 11.9041 36.0633
99 1 24.9854 11.3451 36.5404
360 1 24.0613 12.1209 36.069
359 1 24.5171 11.7268 35.4879
401 1 56.9866 47.4072 34.2613
406 1 57.9251 50.6997 36.672
407 1 57.5059 50.9092 37.5444
402 1 57.8489 47.505 34.8444
409 1 59.2721 50.8509 37.8037
415 1 0.615743 51.3603 38.0062
480 1 59.1604 51.0499 34.2563
418 1 58.4181 51.7289 38.0072
408 1 58.2522 50.5035 37.9458
414 1 0.115082 51.3647 37.1014
411 1 58.613 51.3588 37.0706
469 1 1.54003 50.9803 35.9065
479 1 59.2722 51.1435 35.1566
419 1 59.0821 52.5 37.6865
413 1 0.136438 52.3126 36.5545
471 1 0.161805 51.1076 35.9029
470 1 0.797313 51.6991 36.0785
20 1 13.5703 51.5036 41.3733
362 1 11.855 2.61969 36.7735
361 1 12.4787 2.43909 37.6482
326 1 8.85402 59.834 38.0032
330 1 9.46233 58.6208 36.7485
331 1 9.50472 59.376 36.1327
335 1 10.236 0.172452 36.28
337 1 10.6637 1.29415 37.5831
125 1 10.5187 3.81023 39.0803
338 1 10.5123 2.10483 37.1514
340 1 10.1234 3.37348 37.8376
339 1 10.4463 2.4696 38.0717
124 1 11.0885 3.26931 38.4851
123 1 10.9816 3.15783 37.3581
327 1 8.26899 59.7707 37.2298
332 1 8.66676 59.653 36.2126
139 1 9.32212 0.95861 37.5619
138 1 9.20976 2.04351 37.3353
486 1 8.14137 2.52266 37.6172
126 1 10.2491 2.795 38.9758
127 1 9.4674 2.58216 38.3293
496 1 9.40706 4.2808 37.4362
482 1 8.13279 0.691148 36.4907
133 1 8.65555 1.76795 38.2698
134 1 8.56677 0.79897 38.4328
324 1 8.03645 0.0265437 39.2075
130 1 10.112 1.80976 39.6328
132 1 9.23182 1.40783 39.0164
128 1 9.2509 3.18655 39.0979
481 1 8.36932 0.283307 35.5072
377 1 9.29325 1.86336 40.5172
131 1 9.67937 0.931526 39.5569
378 1 9.03309 2.70305 40.5214
355 1 26.601 10.3926 35.9735
356 1 26.1356 11.2031 35.5397
462 1 0.251663 50.0634 38.3313
461 1 59.6102 50.5514 38.8221
463 1 0.37236 49.2566 37.5831
465 1 0.689335 50.1088 36.2382
464 1 0.0773945 49.3906 36.7227
417 1 59.1739 51.9217 38.6199
466 1 59.893 50.4036 36.6918
468 1 1.12273 50.9021 36.8785
467 1 0.659916 50.3342 37.3596
9 1 13.734 54.6125 40.154
14 1 14.213 54.087 42.08
18 1 14.7323 52.0409 41.4143
16 1 14.2245 52.9917 42.0738
420 1 58.2609 52.9404 37.2061
416 1 0.0421429 52.1884 38.1963
19 1 14.2648 51.5286 42.0767
364 1 11.8356 1.25742 36.9265
363 1 11.179 1.93297 36.4369
365 1 12.1121 1.35996 37.9439
329 1 9.28609 58.4906 37.6743
336 1 10.8837 0.705113 36.7858
368 1 10.5776 1.53517 38.6639
367 1 11.4169 1.93164 38.913
328 1 8.45477 58.8785 37.0764
325 1 7.8591 59.9056 38.3513
140 1 9.89294 0.273369 37.3261
136 1 9.88263 0.712192 38.384
137 1 9.76716 1.67393 38.0662
370 1 11.3549 1.00477 39.4946
369 1 11.019 0.607271 38.5649
323 1 8.30571 0.994209 39.3773
376 1 8.4419 1.60716 40.6908
135 1 9.16796 0.147361 38.8411
372 1 9.99522 0.00824637 40.1148
129 1 9.3925 2.30275 39.5249
375 1 9.14735 1.1692 41.2717
380 1 9.80651 2.11444 41.4419
379 1 9.96424 2.77377 40.8474
374 1 10.0393 0.83666 41.0162
15 1 14.4357 53.6646 41.3449
8 1 14.5437 54.9643 39.8188
13 1 13.3241 53.77 41.7445
3 1 14.9764 54.7872 41.8241
2 1 14.0161 54.7455 41.4189
17 1 14.9841 52.5962 42.2909
11 1 12.5318 53.4056 41.0241
10 1 13.4404 53.8969 40.7495
12 1 13.4194 53.0031 41.2382
366 1 11.3859 1.99329 37.9354
322 1 8.81281 0.578186 39.9616
371 1 10.8068 0.874835 40.3113
321 1 8.10216 0.395617 40.6322
373 1 9.27405 0.175857 40.8435
54 1 38.7469 29.5148 42.1268
55 1 37.7569 29.343 41.9242
56 1 37.4613 29.9463 41.1945
57 1 37.3862 30.4126 42.0487
44 1 40.8691 26.7013 42.1949
42 1 41.4193 27.9939 43.217
43 1 41.7051 27.1993 42.6449
6 1 15.691 53.8126 40.5379
7 1 15.48 54.7334 40.16
4 1 15.2607 53.8867 42.1274
1 1 12.9836 54.7636 41.2737
59 1 38.1498 31.2315 41.6857
60 1 38.2149 30.7428 40.8215
46 1 40.3112 28.0994 43.077
52 1 39.6217 29.8968 41.0741
53 1 39.2926 28.9892 41.4569
58 1 38.2409 30.3941 42.1127
50 1 40.6175 29.3358 42.4465
49 1 41.5391 29.0351 42.2371
48 1 40.975 28.3845 41.8794
45 1 40.2343 27.2649 42.5799
47 1 39.9617 28.3388 42.1506
41 1 40.9122 27.2964 43.7112
219 1 45.2339 44.9646 41.9773
5 1 15.4524 53.3061 41.1935
51 1 40.4513 29.6636 41.5036
205 1 44.2708 45.1806 43.6032
218 1 44.2424 45.3345 42.2067
220 1 44.5103 44.3754 41.6445
217 1 43.851 44.374 42.4079
203 1 45.0406 44.1393 42.7381
204 1 45.0593 45.0103 43.1502
202 1 45.9616 43.8927 42.8111
215 1 45.0091 43.1089 43.0806
216 1 44.274 43.8455 43.3152
187 1 46.3962 44.0877 43.9081
201 1 46.2113 43.3013 42.0983
209 1 44.3021 44.978 45.3846
206 1 44.4953 45.7924 44.3979
208 1 43.1638 44.9761 45.2542
207 1 43.4964 45.6337 44.6372
184 1 46.1723 45.0893 44.5532
182 1 44.9537 44.6734 46.1913
181 1 45.2363 43.6618 46.279
185 1 45.1735 44.9626 44.4682
193 1 45.6945 43.9249 44.7451
213 1 43.4434 43.0089 43.8981
198 1 44.4604 43.6899 44.4325
214 1 44.2614 42.7683 43.4767
211 1 43.4171 44.0257 44.0954
189 1 46.5803 42.6715 44.0399
186 1 45.6212 44.3142 43.7026
191 1 46.5054 42.9051 45.2945
192 1 46.1283 43.7865 45.5534
188 1 45.8903 43.1912 43.7342
190 1 47.2218 43.1454 44.5773
210 1 44.0395 44.6185 44.5375
183 1 45.7733 44.9491 45.464
194 1 44.9198 44.1657 45.2132
212 1 42.6646 43.4731 44.1856
200 1 44.2952 42.6145 45.3794
196 1 45.595 42.5144 44.7029
195 1 45.1904 43.0774 45.3024
199 1 43.7231 43.2664 44.9504
197 1 44.8424 42.8807 44.2785
302 1 22.1499 44.3871 52.6701
433 1 21.7684 44.7928 51.6871
431 1 20.7417 45.5614 51.1765
432 1 21.5517 45.7175 51.7577
423 1 23.2736 44.9752 50.9463
301 1 22.0827 43.3873 52.9798
430 1 21.5175 45.5828 50.4268
429 1 22.2938 45.4933 49.7831
424 1 23.7367 45.577 50.4744
434 1 22.7119 44.4129 51.6453
303 1 22.1046 44.7927 53.5823
436 1 24.5545 45.2005 51.8386
435 1 23.6679 44.8367 51.8778
304 1 22.9313 44.154 53.5079
422 1 22.2369 44.9929 50.7282
437 1 25.61 45.5078 51.9655
425 1 23.9817 46.2349 51.3097
305 1 22.9632 44.9696 52.992
306 1 22.5018 45.306 52.1979
421 1 21.5345 44.2595 50.6323
427 1 23.1199 46.6301 50.4784
307 1 23.1042 45.8428 51.6496
428 1 22.467 46.0666 50.7015
312 1 24.3609 47.558 52.506
313 1 23.9293 47.8713 53.3847
316 1 21.8066 46.5367 52.4692
315 1 22.4354 47.1987 52.8358
314 1 23.3848 47.4638 52.6793
439 1 25.1959 45.0357 52.801
438 1 24.8421 45.8872 52.5356
319 1 22.3477 47.0814 50.842
440 1 24.2371 44.8863 52.7959
318 1 21.3613 46.8059 51.2074
320 1 22.4525 48.0736 50.9446
308 1 23.6329 45.7383 52.3686
310 1 23.5181 46.353 53.1882
426 1 23.2659 46.9149 51.4671
311 1 24.1095 46.7222 52.2934
317 1 22.2461 46.5349 51.6851
309 1 22.7975 46.2468 52.5568
157 1 55.8838 10.2709 1.73901
155 1 56.8328 10.231 2.14553
156 1 55.967 10.1206 2.63866
65 1 21.8497 55.2573 57.2749
ITEM: TIMESTEP
39000
ITEM: NUMBER OF ATOMS
500
ITEM: BOX BOUNDS pp pp pp
0.0000000000000000e+00 6.0000000000000000e+01
0.0000000000000000e+00 6.0000000000000000e+01
0.0000000000000000e+00 6.0000000000000000e+01
ITEM: ATOMS id type x y z
159 1 59.563 10.4264 2.58058
160 1 59.0587 9.61009 3.08116
144 1 58.1676 9.58465 1.27127
150 1 58.7042 10.67 1.26026
149 1 58.5064 10.3003 2.12499
151 1 59.357 11.1059 1.79875
158 1 0.0817201 9.59045 2.39424
153 1 0.95361 10.8542 1.54608
152 1 0.165886 10.7149 1.51338
141 1 57.1805 9.20471 2.95269
142 1 57.3565 10.0974 2.51123
148 1 58.1288 9.38798 2.4091
147 1 58.8919 8.82261 1.93683
146 1 58.8357 8.5723 0.994247
145 1 58.8732 9.52974 0.669016
157 1 59.5209 9.74412 1.5425
155 1 0.535812 9.48876 0.647905
156 1 59.9269 8.88743 1.27103
154 1 1.17388 9.84444 1.31988
143 1 57.1476 9.59756 1.69345
266 1 23.4118 7.18406 8.91647
264 1 22.7586 7.1641 8.02549
261 1 23.6353 7.40266 5.61224
262 1 23.3721 6.79665 6.4109
267 1 22.4999 6.93239 9.04009
265 1 23.2032 6.26756 8.47178
268 1 21.7849 7.27837 8.54956
279 1 23.0058 8.59712 5.59715
280 1 23.7701 8.87796 6.02225
390 1 23.1326 8.27451 7.33766
391 1 23.1957 8.14434 8.38682
118 1 45.6812 50.5839 5.44706
116 1 43.885 50.6221 4.89893
117 1 44.8968 50.4393 4.70009
115 1 44.452 51.2637 5.3732
398 1 23.5648 9.02094 8.86839
396 1 24.4045 7.67829 9.71586
263 1 22.9214 7.31838 7.06119
397 1 24.4881 8.61651 9.26427
270 1 21.8926 6.38971 7.95664
269 1 21.1482 7.00561 7.73394
393 1 24.162 7.06628 8.01379
392 1 23.9654 8.05704 8.07351
276 1 22.7909 6.85592 5.37106
384 1 22.2048 8.50451 7.99886
275 1 22.4698 7.62477 6.03474
277 1 22.9466 7.09188 4.69126
386 1 22.8697 9.30958 7.06289
385 1 22.8835 9.23734 8.14546
387 1 23.5377 9.98897 6.69266
278 1 22.5587 7.91392 5.0083
381 1 21.8332 8.55619 6.27972
388 1 24.5888 9.5031 6.62045
389 1 24.133 8.89449 7.24807
119 1 44.7648 50.3399 5.77935
106 1 45.754 49.6812 4.81541
120 1 44.207 49.5189 6.22147
112 1 45.4757 51.3005 4.61804
114 1 44.8746 51.3697 6.22287
108 1 45.9547 50.1633 3.15103
107 1 45.8482 50.3756 4.12684
113 1 45.4028 51.8574 5.42748
400 1 22.9237 10.1512 9.18151
395 1 24.7563 7.4275 8.8944
274 1 21.6929 7.35078 6.41077
399 1 22.6165 9.14926 9.16435
394 1 25.1855 6.96178 8.18964
272 1 21.6514 5.91162 7.11147
271 1 22.5609 5.91279 7.49918
273 1 22.2795 6.59929 6.68288
383 1 22.2185 7.98373 6.99826
382 1 21.2349 8.27016 7.06054
104 1 46.4254 50.9908 4.84197
103 1 46.9854 50.8699 4.02674
102 1 47.1832 50.1761 3.3915
111 1 45.8839 51.4385 3.73755
110 1 46.6481 51.273 2.99297
105 1 46.7067 50.0189 4.67134
101 1 46.8096 49.2934 3.08761
109 1 46.6124 50.4286 2.45344
222 1 33.1442 8.90485 13.6517
298 1 40.2853 55.6918 9.69424
299 1 40.3244 56.3289 10.3901
281 1 40.2235 55.7098 11.255
295 1 39.4939 55.4387 10.4595
282 1 39.3723 56.0374 11.3903
297 1 40.6209 55.137 10.5102
296 1 39.7461 54.6155 10.8459
283 1 38.9406 55.1314 11.2471
284 1 38.4427 55.7211 10.7555
235 1 30.9836 6.15494 10.9493
234 1 31.2262 6.91754 11.5152
233 1 30.6978 7.68345 11.9825
236 1 30.9145 5.24202 11.6308
240 1 33.0728 6.94853 12.4296
221 1 32.4788 8.36999 14.1263
239 1 32.2022 6.65141 12.8993
223 1 33.3517 9.12294 14.5411
224 1 33.0183 9.92306 14.8475
300 1 40.1135 57.0208 9.69087
291 1 39.1939 55.9937 8.41309
294 1 39.156 56.1473 9.91093
293 1 39.1528 55.3412 9.45089
286 1 38.2464 54.3483 9.59382
290 1 38.2442 55.9904 9.02854
292 1 38.6861 55.0734 8.67226
287 1 37.3221 54.0218 9.28893
285 1 38.1886 55.2517 9.89682
237 1 30.5588 5.66444 12.4347
238 1 31.5266 5.95641 12.8041
230 1 31.2827 8.2263 12.9751
229 1 31.8476 7.67666 12.2674
232 1 30.7477 7.2816 12.8615
226 1 31.8713 9.10121 13.5298
231 1 30.3178 8.00288 13.2914
228 1 32.5356 7.69727 12.7956
225 1 32.482 9.59543 14.0827
289 1 37.6797 55.1729 8.7989
288 1 36.855 54.7107 8.71281
227 1 32.2248 8.66906 12.6351
455 1 43.4101 54.9833 16.017
454 1 42.9065 55.8067 15.9272
457 1 43.1187 56.1505 14.5366
453 1 42.1381 55.2108 15.544
452 1 42.1735 54.3805 16.0632
451 1 42.6856 54.349 15.2938
444 1 40.7937 55.1722 15.3687
456 1 43.1175 55.2413 15.0121
442 1 42.1148 56.6159 15.5508
443 1 41.3844 55.909 15.4672
458 1 42.1837 55.9703 14.7885
460 1 42.4404 55.2545 13.9453
459 1 42.1512 56.2997 13.7938
445 1 41.4862 55.1812 14.6284
446 1 41.777 54.3572 14.9952
441 1 42.2477 57.1193 14.6965
447 1 42.1713 53.4381 15.1544
450 1 43.5389 53.9103 15.6174
449 1 43.536 54.0233 14.5896
448 1 42.8639 53.3382 14.5305
40 1 46.5456 3.67557 26.4658
39 1 46.9744 3.51058 27.279
34 1 47.6211 1.96317 27.4256
33 1 47.9361 1.74465 28.3441
35 1 47.7302 2.8095 27.1312
30 1 46.358 4.10315 28.3428
36 1 46.8385 2.42199 26.815
31 1 46.8004 3.16679 28.587
38 1 46.0657 3.12054 27.3426
28 1 45.1234 3.43349 27.2646
37 1 46.5853 2.421 27.886
29 1 45.4324 3.82537 28.1957
24 1 45.8946 1.29452 27.3462
27 1 45.2329 2.57815 26.6019
25 1 45.9402 1.77067 26.5327
26 1 46.0267 2.72783 26.0721
32 1 47.4339 2.46792 28.944
21 1 45.8164 2.8893 28.3613
22 1 44.8579 2.76135 28.0455
23 1 45.5415 2.06522 27.7848
161 1 51.6242 13.5617 27.4932
246 1 51.3952 14.2834 28.263
245 1 52.132 13.5922 28.4416
241 1 53.3044 13.5339 26.367
179 1 49.5991 15.0839 26.2489
177 1 48.6493 14.8076 26.533
260 1 52.6856 16.2681 29.9069
163 1 50.7041 14.0572 26.7139
162 1 51.6338 13.9194 26.5489
247 1 51.2887 14.7608 27.3316
259 1 52.9489 16.5768 29.0556
244 1 52.5124 14.1007 27.513
252 1 52.319 15.1957 28.0474
243 1 52.9327 14.7253 26.8989
242 1 52.6435 14.17 26.3006
248 1 51.7993 15.1826 26.791
172 1 50.5777 15.776 27.5823
176 1 48.4551 14.7188 27.4698
178 1 49.462 14.1635 26.8042
180 1 50.3173 15.2208 26.8131
249 1 52.4304 15.9046 26.9899
257 1 51.325 16.6386 28.8863
166 1 50.9457 13.2851 28.1888
164 1 50.0881 13.2775 26.6542
165 1 50.2152 13.6428 27.6006
253 1 52.2156 14.7583 29.1195
168 1 49.3726 14.0719 29.1985
258 1 52.1379 15.9625 28.9928
254 1 51.3648 15.2541 28.7709
255 1 51.3232 15.0402 29.7597
167 1 50.1541 13.5759 28.6353
171 1 50.5009 15.7234 28.5037
170 1 50.0935 14.9384 28.0006
250 1 52.4224 16.1923 28.0175
251 1 51.5814 15.7948 27.7674
173 1 49.9108 16.1398 27.0618
175 1 49.2951 15.3158 27.3306
174 1 49.4443 16.0539 28.0005
256 1 51.2526 16.1095 29.7278
169 1 49.6408 15.0215 28.9129
93 1 22.2257 10.0146 35.8036
343 1 22.1607 12.7358 35.2836
341 1 20.2462 12.3133 35.0013
342 1 21.1885 12.714 35.0328
401 1 55.7274 52.239 37.899
480 1 58.503 47.7339 35.9734
481 1 10.218 0.30096 35.4714
499 1 7.4632 2.39436 39.5668
500 1 7.3385 3.18527 38.9176
94 1 21.6904 10.0337 36.7586
95 1 21.8033 9.66263 37.7597
351 1 24.0234 10.8135 33.9284
350 1 23.4489 11.1826 34.7683
352 1 24.2934 10.4365 34.9789
349 1 24.1805 11.7875 34.7726
356 1 24.9678 12.3216 36.1297
92 1 21.7866 10.6824 35.3243
91 1 22.5918 11.2641 35.3718
90 1 21.6877 11.731 35.5548
344 1 22.6908 12.1759 34.5072
345 1 23.2896 12.1943 35.333
348 1 24.4318 12.7282 34.6956
347 1 24.0169 13.2592 34.0574
359 1 24.2061 11.6062 36.8741
86 1 21.1703 12.1564 36.6417
89 1 20.7833 11.5198 35.6317
88 1 20.9161 10.6931 36.0215
84 1 22.4323 11.9513 36.2868
85 1 21.7677 12.7039 36.5789
87 1 21.0619 11.1433 36.8856
403 1 56.1696 50.486 37.5171
402 1 55.5668 51.4435 37.2624
477 1 57.4974 47.8792 35.1612
475 1 56.6276 48.9149 35.9617
474 1 57.2925 49.5146 36.4512
478 1 58.5004 48.3825 35.0536
473 1 57.8198 49.6983 35.6557
479 1 58.7602 47.406 34.9929
483 1 8.87253 0.24415 36.5664
482 1 9.56834 0.105382 36.1467
489 1 8.07281 1.10895 36.0319
333 1 9.66629 1.4769 35.5279
334 1 9.71056 1.98058 36.4216
490 1 8.5643 1.91455 36.1619
335 1 10.0732 2.73661 36.8506
336 1 10.3895 2.78498 37.7554
364 1 9.68418 3.70474 38.1785
492 1 8.20023 2.49569 37.3825
488 1 7.41429 0.562247 36.5397
491 1 8.62931 2.69798 36.5645
338 1 9.38075 2.80761 38.6775
363 1 9.25091 2.86787 37.6115
362 1 8.5097 3.19505 38.0983
487 1 6.58084 1.14947 36.7262
493 1 7.41466 2.76177 36.8972
494 1 7.5045 2.15784 36.1608
497 1 7.21253 2.53518 37.9371
498 1 7.17714 1.97506 38.7129
353 1 25.0835 11.0946 34.7833
354 1 24.9296 11.3194 35.6941
96 1 22.3275 9.1661 37.0042
99 1 23.1615 10.3191 35.5821
355 1 25.1081 12.0025 35.1719
98 1 23.8592 10.0271 36.1361
360 1 23.196 11.2687 36.9021
358 1 23.5168 12.2374 36.8003
357 1 24.1652 12.1533 35.904
83 1 22.0737 11.7011 37.3298
82 1 22.173 10.931 36.8501
346 1 23.3725 13.0903 34.7962
81 1 22.7018 10.5779 37.5562
464 1 59.2365 48.7616 36.2954
404 1 56.6136 51.0416 36.7538
405 1 57.2933 51.4299 37.5293
476 1 57.429 48.2646 36.1334
414 1 58.5271 51.43 38.046
471 1 59.2447 49.4454 35.4233
465 1 58.298 48.7551 36.0244
468 1 59.4207 49.9255 36.6067
469 1 59.729 50.399 35.8485
406 1 57.2523 50.586 37.6919
410 1 57.9687 49.7755 37.4596
472 1 58.4831 49.4958 34.9442
411 1 58.0204 50.4823 36.8937
466 1 58.3443 48.9193 36.9952
413 1 58.3179 51.6294 37.1049
470 1 0.153837 49.5935 35.7974
412 1 58.6616 50.8603 36.3915
328 1 10.2215 59.1698 37.5232
330 1 11.0791 0.575184 36.708
331 1 11.6702 1.26714 36.4751
332 1 10.7289 1.43072 35.7807
484 1 8.26255 0.214217 37.225
134 1 9.17771 59.8681 37.6094
139 1 9.65483 0.900233 36.7479
140 1 10.3777 1.60031 37.0106
136 1 10.3906 1.26911 38.0617
337 1 10.0076 2.21241 38.5254
369 1 11.4514 1.53133 39.0945
365 1 10.0997 3.52643 39.2198
485 1 7.35581 59.9419 37.5262
486 1 6.89046 0.874556 37.7007
138 1 8.75947 1.41263 37.0234
127 1 7.71056 0.26264 39.0167
133 1 9.1395 59.6044 38.6316
137 1 9.50423 1.6114 37.5847
339 1 8.86205 2.12128 38.2471
361 1 8.24348 3.92864 38.7189
366 1 9.74595 2.59765 39.703
495 1 7.48624 1.74951 37.0083
496 1 7.8905 1.66254 37.9762
340 1 8.39864 2.6659 39.0433
124 1 7.98605 1.66751 40.5719
123 1 8.49231 2.32386 40.0838
122 1 8.68325 3.34827 40.0437
121 1 7.72478 3.31633 40.0613
97 1 23.0353 9.73157 36.5838
100 1 23.833 11.0253 36.108
463 1 59.6206 48.0734 36.8275
415 1 59.2734 52.0207 37.6294
462 1 59.5759 48.7968 37.6323
467 1 58.5586 49.7291 36.4414
407 1 56.9026 49.6943 37.9647
408 1 57.6886 49.3471 38.4978
409 1 58.1026 50.3978 38.2821
416 1 59.5345 51.5747 36.7139
418 1 59.0104 50.7545 37.3507
419 1 59.0769 49.8861 37.7349
420 1 59.2321 50.5976 38.3249
329 1 10.426 60.0102 37.1067
327 1 9.62114 59.2218 36.7163
325 1 8.34744 58.05 36.3074
326 1 9.24316 58.5459 36.0147
323 1 7.45529 58.563 37.385
131 1 9.40591 1.03348 38.4648
135 1 9.83084 0.518134 37.734
322 1 8.19475 59.0665 37.8227
370 1 11.5958 0.555655 39.1938
132 1 9.5539 0.292037 39.2103
129 1 8.66113 1.11397 39.1412
126 1 7.85523 0.857285 39.9246
130 1 9.45547 1.67317 39.2733
368 1 11.0103 2.13718 39.5634
367 1 10.4138 1.88305 40.1214
128 1 8.54183 0.424778 38.4846
125 1 8.8738 1.22682 40.1956
461 1 0.098204 49.3815 37.244
417 1 59.9254 50.8817 37.2586
8 1 10.753 53.5835 43.9205
324 1 8.29989 58.0292 37.4233
321 1 9.18428 58.7535 37.6988
372 1 10.2625 59.7554 38.4084
375 1 9.05203 59.1199 39.4691
373 1 9.93222 58.8284 38.593
374 1 10.0622 59.1262 39.5977
371 1 11.1647 0.275199 38.3174
376 1 8.70896 59.49 40.2642
377 1 9.36963 0.203448 40.4178
378 1 9.90536 1.08232 40.4846
379 1 10.3073 0.984251 39.5706
56 1 43.2623 30.0646 42.5127
52 1 41.2851 29.4888 42.1986
60 1 44.4195 30.9625 41.8329
11 1 11.5273 53.4388 43.0803
10 1 10.9059 52.738 42.8453
12 1 11.4716 53.9867 42.2981
15 1 10.5184 54.4791 43.2266
6 1 11.738 54.5472 44.8292
5 1 11.8052 54.1928 43.8533
9 1 10.2126 53.2942 43.1888
2 1 11.3906 55.0909 42.4314
1 1 11.0712 56.0135 42.2778
7 1 11.0142 54.6424 44.1401
380 1 10.7349 0.23632 39.9648
44 1 40.4968 28.0629 43.1612
47 1 39.7742 28.7472 41.9256
48 1 39.5537 27.9183 41.4852
45 1 39.7003 28.7164 43.2453
43 1 40.7219 28.4066 44.0106
55 1 42.2721 29.7701 42.727
54 1 42.4184 29.7508 41.7034
53 1 42.1742 28.9231 42.1128
50 1 40.8791 28.494 42.2577
51 1 40.6183 29.3081 41.5729
49 1 40.4442 27.7743 41.9002
57 1 42.7641 30.8242 42.1284
59 1 43.9047 31.362 42.5967
58 1 43.1266 31.0906 43.0525
203 1 46.1911 47.289 42.5892
202 1 46.6362 48.0839 43.0777
201 1 46.4965 48.0819 42.0538
218 1 48.6947 45.9207 44.6279
217 1 48.3356 46.1036 43.8003
219 1 49.1497 46.7013 44.5753
220 1 49.3141 46.7226 43.6405
20 1 10.7967 56.2108 43.2325
19 1 11.1453 55.937 44.1531
18 1 10.5912 56.784 44.3636
17 1 10.0011 56.0485 44.1495
14 1 10.3396 55.0048 42.4281
16 1 10.0978 55.3269 43.5626
13 1 10.8007 54.3257 41.7852
4 1 12.0719 55.1355 44.037
3 1 11.4777 55.3426 43.312
42 1 41.553 28.2164 44.5234
46 1 40.1429 29.318 42.6321
41 1 41.5379 28.8168 43.6423
214 1 47.9231 46.7318 44.5881
189 1 45.0754 45.2479 44.1084
212 1 46.8469 45.971 44.9102
213 1 47.1418 46.8199 45.1617
211 1 47.4604 45.8153 44.2305
215 1 47.5328 47.3804 44.0617
216 1 47.7682 46.7121 43.3718
186 1 45.9933 44.9078 41.8809
197 1 45.4446 46.9959 44.4547
187 1 46.0987 45.6727 42.5195
188 1 45.3186 45.7501 43.224
205 1 48.0477 46.8159 42.284
204 1 47.1421 46.9877 42.4092
200 1 47.0006 45.9337 43.0898
196 1 46.3752 46.7495 44.4252
199 1 46.1505 46.3968 43.4105
193 1 46.5046 44.8314 43.3124
198 1 46.0693 47.3513 43.7008
194 1 46.4334 45.5634 43.913
195 1 45.7963 45.8981 44.621
191 1 45.4597 44.7223 43.1887
192 1 46.0989 44.0056 43.1714
190 1 45.5899 44.4249 44.2026
208 1 48.0922 44.2501 42.7371
207 1 48.6553 44.9279 42.8815
210 1 47.6785 45.2402 43.4867
209 1 47.5732 45.0686 42.6033
185 1 46.6258 44.2499 41.2765
184 1 46.9786 44.3202 42.2553
183 1 47.1561 44.1221 43.2068
206 1 48.2598 45.8848 42.7036
181 1 47.0806 44.7277 44.2895
182 1 46.9675 43.7448 44.1429
429 1 20.1189 46.3888 51.6048
431 1 20.4763 46.2433 53.4836
430 1 20.4608 46.3667 52.5494
422 1 22.6867 47.7567 50.8759
421 1 22.7822 47.8029 51.9126
423 1 22.0653 47.2637 51.4175
424 1 22.2012 46.4086 51.8568
318 1 19.8319 46.9856 53.6451
428 1 21.0417 46.193 51.6677
319 1 19.5884 47.1856 52.6614
425 1 22.0132 47.0952 52.4556
427 1 21.1977 46.9751 51.9752
426 1 21.3501 47.8272 52.4612
320 1 18.6714 46.8598 53.0953
302 1 22.2593 46.2673 54.2656
433 1 21.9608 46.7233 53.4429
434 1 21.4531 46.2871 52.8728
306 1 22.9006 46.6329 52.6036
435 1 21.6209 45.746 53.6565
436 1 22.388 45.6406 52.9701
437 1 21.9584 44.6752 52.836
439 1 21.9487 45.0986 51.7209
440 1 22.9646 45.119 52.0281
432 1 20.9862 47.1164 53.2496
316 1 19.8041 47.8771 54.3215
317 1 20.3183 47.1426 54.4958
309 1 22.1515 47.715 53.4999
307 1 23.0222 47.5455 52.962
308 1 22.434 48.3704 52.7118
311 1 20.6304 48.9711 53.4485
438 1 21.2338 45.3378 52.5111
314 1 19.7033 48.5963 52.8783
312 1 20.8911 48.7051 52.6258
301 1 21.5397 46.9984 54.3547
304 1 23.6482 47.1892 54.1125
303 1 22.6273 47.1446 54.374
305 1 23.1689 46.6019 53.6493
310 1 21.2897 48.2291 53.4375
315 1 19.0925 48.1308 53.44
313 1 20.2798 47.9122 52.853
63 1 19.5825 55.9417 56.8335
64 1 20.0857 55.8439 55.9715
70 1 21.065 55.2206 56.276
66 1 19.7132 54.7836 56.5708
67 1 20.1933 54.1111 57.131
65 1 19.5612 55.1749 55.5524
62 1 20.4809 56.2037 57.0502
61 1 20.8947 55.389 57.5548
76 1 21.4853 57.1412 56.0633
68 1 20.6048 54.0255 56.365
69 1 21.5519 54.4353 56.2838
72 1 20.7565 55.3018 55.0781
71 1 21.6865 55.1916 55.5796
73 1 20.1716 56.0226 54.9226
77 1 22.0302 57.7107 55.3868
74 1 21.1177 56.3009 54.6485
75 1 21.202 56.2454 55.5945
80 1 20.8633 56.8089 53.8054
78 1 21.6103 57.951 54.4286
79 1 21.7948 57.2193 53.7972
ITEM: TIMESTEP
40000
ITEM: NUMBER OF ATOMS
500
ITEM: BOX BOUNDS pp pp pp
0.0000000000000000e+00 6.0000000000000000e+01
0.0000000000000000e+00 6.0000000000000000e+01
0.0000000000000000e+00 6.0000000000000000e+01
ITEM: ATOMS id type x y z
146 1 0.647664 10.0595 3.30878
155 1 0.116968 10.71 1.61815
154 1 59.9219 10.3857 0.730949
144 1 1.90888 9.68238 3.78969
145 1 1.60703 10.5271 3.27223
156 1 0.170026 10.7032 2.61285
150 1 1.00846 8.61642 2.41219
158 1 0.419112 9.57419 2.27252
148 1 1.58828 8.79641 3.39526
143 1 2.43318 9.56265 2.9622
147 1 0.577035 9.09293 3.39741
157 1 1.03226 10.465 2.305
153 1 0.501808 9.58971 0.576768
152 1 1.31849 9.93815 1.21653
149 1 1.37345 9.59069 2.76094
142 1 1.99003 8.86621 2.3152
159 1 59.4251 9.571 1.9281
151 1 1.28897 9.01411 1.56018
109 1 43.3932 51.3374 2.88931
141 1 2.39157 9.34684 1.54165
160 1 59.5128 9.01783 1.04796
101 1 43.3594 50.182 2.3998
108 1 44.3135 51.0883 3.18413
107 1 43.9112 50.2548 3.49535
103 1 44.5189 51.321 1.22695
111 1 44.1403 51.8774 2.09936
110 1 43.1948 51.4517 1.91873
102 1 44.0018 50.5418 1.73098
276 1 26.114 7.15361 7.05877
277 1 25.3589 6.44735 7.35001
278 1 24.8347 7.11483 7.0219
261 1 25.4539 5.59755 10.1835
279 1 24.8667 7.87338 7.59461
106 1 44.3985 50.0867 2.60849
116 1 46.1236 50.7542 2.08954
118 1 45.5155 49.3894 3.09856
117 1 45.4918 50.1852 2.5678
115 1 46.8855 50.7535 1.56146
112 1 44.8984 51.1039 2.2047
104 1 45.2537 50.5549 1.40224
105 1 44.8905 49.7404 1.83637
113 1 45.5958 51.6904 1.70628
272 1 24.9223 5.28967 9.44325
273 1 25.4596 5.70921 8.67029
262 1 26.0811 5.84753 9.51247
382 1 22.6139 7.16293 7.34097
275 1 26.6348 6.88067 8.06328
381 1 22.937 6.4046 7.77427
274 1 26.2146 6.14043 8.51277
383 1 22.497 7.38042 6.39276
263 1 25.5943 6.72592 9.06474
280 1 24.777 8.67767 7.04053
386 1 23.5329 7.29186 6.64111
387 1 24.0933 6.29954 6.83457
388 1 24.3663 6.11281 7.81342
120 1 46.2713 50.3205 3.36456
119 1 45.3269 50.2506 3.60763
114 1 46.2247 51.1762 1.00123
269 1 23.7201 4.97532 9.63508
270 1 23.5908 5.98943 9.28494
271 1 24.3038 5.49914 8.74018
265 1 24.9735 6.55056 10.123
393 1 24.5375 8.41084 9.47031
394 1 23.7603 8.41619 10.1252
264 1 24.7653 6.29065 9.19513
268 1 24.2247 5.80446 10.1766
384 1 22.751 8.35223 6.77253
390 1 23.5363 6.97895 8.62605
391 1 24.431 7.00998 8.49558
392 1 25.0033 7.63429 9.09674
385 1 23.71 8.0582 7.28035
389 1 23.8506 7.09346 7.66304
291 1 37.9675 56.1427 10.6562
267 1 23.8573 6.6189 10.4667
266 1 24.1389 7.17393 9.67535
396 1 23.3101 7.99483 8.92574
395 1 23.0028 8.67048 9.80582
399 1 24.1037 8.06205 8.37696
398 1 23.5096 8.67628 8.16553
397 1 23.7292 9.07962 9.18243
400 1 24.5366 8.98882 8.4858
287 1 39.5369 56.6756 10.4339
288 1 39.1341 57.0459 11.2151
286 1 40.2192 57.3791 10.1277
285 1 39.4629 57.2543 9.47499
289 1 38.4521 57.1696 10.3958
293 1 39.1548 55.6122 9.95527
292 1 38.8762 55.9486 10.9307
298 1 38.1182 54.5356 9.65418
290 1 38.4527 56.3707 9.83955
294 1 38.7376 55.4684 9.11269
300 1 37.3336 55.183 10.4245
235 1 32.7915 8.3263 13.5899
284 1 39.288 56.402 9.14997
295 1 39.7634 55.2921 9.13632
296 1 39.2261 54.5784 9.50335
283 1 38.5131 56.1783 8.48067
281 1 37.9181 55.1493 8.41935
297 1 38.6008 54.3772 8.74085
282 1 38.8151 55.2425 8.07429
299 1 37.7683 55.5313 9.58944
236 1 31.9318 8.91643 13.6797
237 1 31.4207 8.29692 13.061
234 1 32.3623 7.55277 13.06
238 1 30.9084 7.46174 13.4698
240 1 31.8473 8.2995 14.6978
233 1 32.4192 6.82604 13.7193
229 1 33.0592 6.65577 14.6654
228 1 32.2676 7.17235 15.0856
227 1 32.305 8.08133 15.806
239 1 31.5801 7.42829 14.28
230 1 33.9908 7.05713 14.547
232 1 33.4742 7.14473 13.6173
231 1 34.0724 7.86855 14.1022
221 1 31.8179 9.18461 15.3435
226 1 32.986 8.69313 15.742
225 1 33.2125 7.73413 15.4413
222 1 32.5711 9.611 15.2695
460 1 46.8401 52.4435 14.7957
459 1 46.1559 52.9529 14.6063
223 1 32.7811 9.06965 14.6327
224 1 32.8657 8.07862 14.5782
447 1 45.9004 57.0178 15.2131
450 1 45.3183 57.1921 12.972
449 1 46.2094 57.4886 13.3473
448 1 46.3287 57.3387 14.3243
444 1 44.7825 55.9641 14.5984
453 1 45.9684 56.2847 13.8439
451 1 45.3022 57.9489 13.7105
445 1 45.688 55.8518 15.1824
446 1 46.3598 56.2793 14.7955
456 1 46.4915 55.2046 13.9758
443 1 44.0783 56.3503 14.1641
442 1 44.2851 55.5145 13.6411
458 1 46.5708 53.8105 15.0265
441 1 44.9204 56.1313 13.4074
457 1 45.9977 54.6053 14.6248
452 1 45.3755 57.0821 14.1095
455 1 45.8194 55.2511 13.1606
454 1 45.4365 55.4103 13.9997
27 1 47.4589 1.28099 28.5436
36 1 46.1294 2.92031 29.384
25 1 47.441 2.61827 28.022
26 1 47.1628 1.77416 27.6819
40 1 45.7961 3.35701 27.6151
178 1 50.3582 13.6385 25.4162
163 1 52.0006 12.405 25.4334
164 1 51.3191 11.8597 25.9052
162 1 51.7952 12.981 24.7093
242 1 52.8554 15.0585 24.701
241 1 53.3421 14.3514 24.1958
179 1 51.0226 12.8926 25.6622
177 1 50.0629 12.9598 25.0704
180 1 50.9897 12.2521 24.9306
248 1 53.0046 13.2772 25.7633
243 1 53.2953 14.3841 25.4011
173 1 50.6375 14.8887 25.5519
249 1 52.9041 13.1652 24.9301
24 1 48.2644 2.14425 28.4852
22 1 48.5786 1.05469 28.1391
23 1 48.9842 1.96661 27.8425
37 1 47.0818 3.11764 29.1446
34 1 44.4835 3.69926 28.8857
33 1 44.6423 2.82031 29.1335
35 1 45.4592 3.70581 29.1
28 1 47.1192 2.14401 28.9287
29 1 46.643 1.45174 29.4021
39 1 46.3358 2.86028 28.282
30 1 45.7163 1.83397 29.1989
38 1 46.8974 3.74876 28.3068
21 1 48.0849 0.634318 29.0533
166 1 50.6263 12.5186 26.5142
165 1 50.2792 12.0211 25.7225
161 1 51.3933 13.8046 24.939
245 1 52.6358 14.2748 27.014
244 1 53.4862 14.1148 26.305
176 1 50.6251 13.1484 24.3148
175 1 50.2637 13.9672 24.4603
246 1 52.0903 13.4781 27.0485
247 1 52.0443 13.6299 25.9294
171 1 50.9107 14.3596 27.1809
170 1 50.1549 14.0888 26.4225
252 1 51.7085 15.1505 25.5196
174 1 49.803 14.5594 25.0498
172 1 51.203 14.2946 26.1192
250 1 52.3837 14.1707 25.0918
251 1 51.7053 14.8263 24.6269
32 1 45.3114 2.54001 28.3248
31 1 45.9622 1.80134 28.1468
168 1 50.0147 13.1263 27.1282
167 1 50.9056 13.4796 26.6895
169 1 49.6901 13.1676 26.1447
254 1 51.9075 14.969 26.7062
255 1 50.9604 15.173 26.5925
253 1 52.3335 14.6009 25.9268
257 1 49.9003 15.8544 27.2251
256 1 50.3717 16.0325 26.4886
260 1 49.0767 14.4291 26.4384
258 1 49.7812 14.7265 27.2343
259 1 49.7514 15.1072 26.4099
351 1 21.3817 12.0954 36.1614
347 1 19.6582 11.5166 37.0191
481 1 9.99016 0.69132 35.7865
333 1 8.33656 3.17225 37.3772
92 1 21.3014 10.1078 35.8823
91 1 20.6992 10.8854 35.7196
350 1 20.7149 12.8886 36.6222
99 1 20.7466 9.8327 34.9443
352 1 21.2157 11.6516 35.2636
353 1 21.9269 12.1838 34.6331
341 1 20.1491 10.2368 34.1615
342 1 19.7407 10.4147 34.969
89 1 20.4217 9.7402 37.4681
343 1 19.6449 10.7966 35.9484
90 1 20.4115 10.1039 36.5177
344 1 19.7625 11.5297 35.2757
349 1 21.1267 12.139 37.1947
345 1 19.8623 12.1085 35.9685
348 1 20.2856 12.039 37.4661
355 1 23.2757 11.5899 35.4325
346 1 20.5156 11.6535 36.4493
477 1 56.8052 48.0101 36.3954
478 1 56.461 47.0996 36.3579
479 1 56.1111 47.5595 37.2332
473 1 56.2362 48.642 35.1418
472 1 57.0045 47.902 35.2716
471 1 57.4537 48.9517 35.3528
487 1 7.09378 59.8917 36.289
489 1 6.30274 1.35521 37.2244
488 1 6.3942 0.544424 36.6509
483 1 8.67569 1.31287 36.144
482 1 9.04383 0.893068 35.427
139 1 8.37428 2.15152 37.6557
138 1 7.43744 1.71722 37.997
330 1 10.4128 2.26589 36.4264
329 1 10.5319 2.05587 37.2337
331 1 9.3863 2.26695 36.6904
493 1 7.44054 2.69426 38.3529
494 1 7.07877 1.85966 38.9386
495 1 6.66192 1.12408 38.3423
334 1 8.85158 3.59343 38.1529
490 1 6.69361 2.19557 37.4328
491 1 7.50261 2.2481 36.995
335 1 9.04211 2.70637 38.1435
332 1 8.59603 2.91733 36.4121
140 1 8.98379 1.53818 38.177
96 1 22.2886 8.20847 35.5766
97 1 21.9356 8.63173 34.7189
88 1 20.0387 10.5855 37.4456
87 1 20.2951 10.4903 38.4548
93 1 21.2908 9.23021 36.3648
94 1 20.6906 8.46481 36.3
82 1 22.5238 9.38553 37.5793
98 1 21.6539 9.42608 34.9872
360 1 22.1039 11.3295 37.0525
100 1 21.3778 10.5062 34.7468
354 1 22.561 12.3413 35.3453
86 1 20.6756 11.2736 37.9914
84 1 21.7398 10.0209 37.0813
85 1 21.1773 10.6115 37.5167
359 1 21.4224 10.975 36.5306
358 1 22.2529 11.3349 35.8261
357 1 22.5535 12.0618 36.2934
356 1 23.6772 11.9326 36.3016
480 1 56.518 47.126 38.0837
476 1 55.8454 48.0227 36.0211
463 1 58.1325 47.0865 36.5056
470 1 57.6156 49.8499 35.2747
475 1 56.3607 48.873 36.164
474 1 56.5292 49.5037 35.3756
465 1 58.1364 48.9072 37.0279
466 1 59.0953 48.7246 36.78
464 1 58.4136 47.9883 36.9192
468 1 59.256 49.0525 35.7525
467 1 58.449 48.4774 35.9929
404 1 56.8442 50.9273 39.7202
411 1 56.914 49.6946 37.3161
469 1 58.3295 49.5493 35.9778
412 1 57.3022 49.1916 36.5226
413 1 56.9951 50.0168 36.187
416 1 56.9697 50.7157 37.7919
325 1 11.9985 59.8963 37.2038
327 1 10.2777 0.717844 37.248
326 1 11.0585 0.372109 37.4877
486 1 6.83352 0.245085 35.3424
484 1 7.7316 0.953406 36.024
128 1 8.44333 58.5919 38.7945
131 1 7.88344 59.4161 38.3685
135 1 9.15949 0.57493 36.5305
136 1 8.83349 1.21345 37.1612
371 1 8.92904 0.709192 39.0572
492 1 7.2879 3.09132 37.407
497 1 7.31514 59.5405 37.4579
496 1 7.07639 0.488284 37.6142
363 1 6.50196 59.277 39.9861
337 1 8.34791 2.2831 38.9398
137 1 7.91129 1.07138 37.5711
339 1 7.59508 0.878684 38.6253
336 1 9.33469 2.4764 39.052
362 1 5.98641 58.5437 40.3998
364 1 7.02496 59.9437 40.6322
95 1 21.2115 8.54598 35.4822
81 1 22.3077 8.32259 37.482
83 1 21.8559 10.0053 38.1181
461 1 56.6969 45.97 35.8434
407 1 56.5052 49.8103 38.2829
410 1 56.0527 49.196 37.2295
408 1 55.8337 50.112 37.6201
462 1 57.5706 46.3003 36.1131
419 1 57.8246 49.7459 37.7067
403 1 57.0167 50.885 38.9126
405 1 57.7003 50.2108 39.5906
414 1 56.7079 50.7587 36.6686
406 1 57.5043 49.8487 38.6563
409 1 55.9009 49.9559 36.5876
418 1 58.6211 50.0555 38.0681
420 1 58.3653 50.1016 36.9525
417 1 57.8519 50.7808 38.0684
402 1 57.943 51.2731 39.2245
401 1 58.6387 51.7283 38.8087
415 1 57.6024 50.7699 37.0261
323 1 12.457 59.0554 36.4232
324 1 11.761 59.7808 36.2147
485 1 6.82841 1.20881 35.774
322 1 12.8635 59.7908 35.9928
134 1 8.5494 0.00496181 36.0824
133 1 8.11753 59.3129 36.6688
321 1 13.771 59.8694 35.5856
328 1 9.9263 1.54574 37.6993
372 1 8.57746 0.533691 38.2266
127 1 8.65674 58.1241 39.6733
126 1 7.79536 58.1764 40.2981
132 1 8.47651 59.5998 37.6738
129 1 8.85062 58.5062 37.8236
379 1 9.84902 1.10535 40.2594
380 1 9.08759 1.11837 40.9286
370 1 9.76313 1.36922 39.043
499 1 6.98517 0.0514176 38.6308
498 1 6.63335 59.2432 38.0459
340 1 8.00066 0.140108 39.2324
366 1 7.76908 1.17871 40.7399
130 1 7.80722 58.6753 37.6759
368 1 8.38134 0.961306 39.8132
369 1 9.07929 1.5694 39.7142
500 1 6.50522 0.319391 39.4585
361 1 5.74683 59.468 40.6829
338 1 8.2207 1.46613 38.892
365 1 7.12754 0.752442 41.3703
375 1 10.4483 59.4919 38.4426
373 1 9.54297 0.607624 38.1016
374 1 10.2985 0.431188 38.3295
125 1 7.5795 59.0713 39.9515
377 1 9.55699 59.8383 38.884
378 1 9.85148 0.357804 39.6871
124 1 7.58742 59.0072 40.8453
123 1 8.54974 59.2185 40.5304
367 1 7.44764 0.842538 39.7876
121 1 8.09441 0.243538 40.4145
122 1 8.86622 59.8778 39.8323
185 1 49.6591 49.1234 41.7973
376 1 9.57764 59.5192 37.9348
48 1 42.9206 31.6447 43.5717
50 1 42.5925 30.2861 42.7588
49 1 42.6003 31.2579 42.7389
47 1 42.6213 31.4131 44.5638
52 1 44.2522 30.0111 41.7186
51 1 43.3738 30.2961 42.0965
46 1 42.1491 30.6655 45.0152
55 1 44.1398 28.2656 42.0879
54 1 45.1118 28.4705 41.7078
53 1 44.928 29.4267 42.0626
57 1 44.3074 27.1972 42.9053
56 1 44.6353 27.4581 41.9216
59 1 45.8213 27.7442 42.7173
60 1 45.6525 27.4141 41.8243
208 1 48.784 46.9268 42.3649
186 1 49.775 49.5739 42.8768
187 1 49.3117 49.44 43.7467
184 1 48.7861 48.7968 41.8521
209 1 48.2822 46.0139 42.4305
204 1 50 48.5564 42.8449
205 1 49.6156 47.719 42.5087
206 1 49.6299 47.8007 41.433
203 1 50.8268 48.1063 42.8721
201 1 50.2291 46.4519 43.3682
12 1 6.62155 55.833 45.4334
2 1 8.23434 55.7602 46.4476
14 1 7.70501 54.4141 44.7784
13 1 6.98441 55.2705 44.7234
1 1 7.92845 55.9639 47.3599
44 1 42.5381 30.5557 43.7591
43 1 41.8172 31.0337 43.9467
45 1 41.9324 29.9132 44.3278
41 1 40.6304 30.7454 43.9992
58 1 44.8206 28.1424 43.1873
192 1 48.1416 46.9775 44.2419
182 1 48.2961 49.54 42.4387
183 1 47.9854 48.6911 42.2895
189 1 48.1184 48.9704 43.9775
191 1 47.1929 47.2494 43.7972
190 1 47.696 48.076 44.0733
193 1 48.5744 47.8509 44.4515
194 1 48.8196 48.7745 44.7184
210 1 47.7097 46.6891 42.401
207 1 48.7614 47.767 41.8655
188 1 48.3848 49.8006 43.7256
200 1 48.3037 47.7946 43.0897
199 1 48.8972 48.653 42.9367
217 1 49.1996 46.7715 41.2006
211 1 48.1289 46.7955 43.1704
216 1 50.0016 46.3535 41.0958
220 1 49.4082 44.7946 39.0178
202 1 50.2555 47.4428 43.3965
198 1 49.4019 48.2659 43.6998
215 1 49.9906 46.6561 42.0033
10 1 6.95703 55.7463 46.6645
8 1 6.98072 57.2548 45.2866
9 1 7.19296 56.696 46.0623
11 1 6.25808 56.2449 46.1939
5 1 7.80227 56.387 45.0303
15 1 8.61799 54.7979 45.0413
7 1 6.60768 57.0075 44.3349
16 1 8.2483 55.3301 44.3382
4 1 7.74469 55.4374 45.427
3 1 8.41748 55.0148 46.1301
17 1 8.70534 56.2181 44.2257
20 1 8.39443 56.8106 46.0292
19 1 8.71145 56.0692 45.4555
42 1 41.3099 30.2931 43.4264
181 1 48.7167 50.3917 42.644
197 1 49.1647 47.2706 43.6501
212 1 48.6597 46.0759 43.7038
196 1 49.628 47.6082 44.4518
195 1 49.3318 48.1848 45.255
214 1 49.5185 45.8685 42.1245
213 1 49.3321 46.1788 43.0193
218 1 49.1556 46.3118 40.3368
219 1 49.1501 45.4118 39.8912
6 1 7.58374 56.9321 44.354
18 1 8.62184 56.9078 44.9101
422 1 21.6028 48.5584 51.8404
423 1 20.7673 48.0154 51.717
438 1 20.121 46.5953 54.035
439 1 20.3251 46.3043 53.115
440 1 20.2798 47.2701 52.7589
429 1 19.119 46.2269 53.3327
430 1 18.9925 46.7211 54.1794
428 1 19.2769 47.2714 53.1454
427 1 19.2138 47.0968 52.2414
424 1 19.948 47.7138 51.6597
425 1 19.8634 48.3976 52.4653
306 1 21.0982 49.4646 53.1983
319 1 18.8705 48.1687 56.2293
426 1 18.849 48.0416 52.2303
421 1 20.7727 49.0365 51.9867
308 1 19.9272 49.4899 52.7103
312 1 18.8388 48.0061 53.9084
436 1 21.7496 46.9134 54.5425
437 1 20.865 47.0299 54.4767
318 1 18.8112 48.7314 57.0194
320 1 19.4743 47.7311 55.681
431 1 19.6359 46.6022 54.8716
432 1 19.4934 47.6121 54.6279
433 1 20.1645 47.6308 53.8514
434 1 21.1725 47.6945 53.6329
435 1 21.8451 47.8485 54.268
305 1 20.6233 48.7436 53.7225
315 1 18.8144 48.5595 55.0517
310 1 19.0615 49.2278 54.1936
313 1 18.4115 47.4321 54.4993
309 1 19.7242 49.87 53.6093
307 1 20.6453 50.285 52.6919
304 1 20.1721 49.342 54.301
314 1 17.8754 48.4051 54.7844
311 1 19.5882 48.5401 53.5174
80 1 20.6983 56.9736 51.1231
79 1 20.7979 56.0901 50.9325
317 1 19.1755 49.4752 56.4689
302 1 20.6977 49.0802 55.2509
301 1 20.3153 49.5445 56.0602
303 1 19.9134 48.7205 54.8502
316 1 19.0268 49.1651 55.5863
65 1 21.3408 54.6092 54.6745
72 1 19.6857 55.3282 54.455
71 1 19.5991 54.8683 53.4303
73 1 19.7808 56.123 53.864
74 1 19.97 56.9534 53.0914
75 1 20.3348 57.0528 52.2151
77 1 20.4946 55.3156 51.5612
78 1 21.471 55.6017 51.6147
67 1 22.2576 54.6281 53.7997
68 1 21.4835 54.4875 53.3624
66 1 21.9455 55.4352 54.2621
70 1 20.4522 54.7663 53.5498
69 1 20.9141 55.1193 52.7574
63 1 20.8842 55.6752 53.8655
64 1 20.928 55.45 54.8827
62 1 21.0357 56.2817 52.9907
76 1 20.2591 56.075 51.9505
61 1 20.1606 55.8817 52.9578
ITEM: TIMESTEP
41000
ITEM: NUMBER OF ATOMS
500
ITEM: BOX BOUNDS pp pp pp
0.0000000000000000e+00 6.0000000000000000e+01
0.0000000000000000e+00 6.0000000000000000e+01
0.0000000000000000e+00 6.0000000000000000e+01
ITEM: ATOMS id type x y z
153 1 2.45693 10.7204 2.79399
152 1 1.6565 9.99755 3.0014
160 1 4.76399 9.18828 4.39014
154 1 3.50208 10.5557 2.62608
103 1 43.9989 50.3892 1.48173
104 1 43.1646 50.0032 1.27311
114 1 43.2344 50.923 0.719129
150 1 2.47054 8.73971 3.05796
158 1 3.62047 9.0095 3.62312
149 1 2.67846 9.61644 2.62343
151 1 1.95861 9.33639 3.72162
142 1 1.57228 8.07759 2.71196
141 1 1.50732 9.06224 2.63074
159 1 3.99698 9.74592 4.25191
155 1 4.23305 10.2062 2.12419
156 1 4.10694 9.92586 3.19163
157 1 3.13751 9.79059 3.52297
105 1 43.2306 49.3999 0.413449
101 1 43.5419 52.0826 0.666871
102 1 44.1741 51.3277 1.12629
106 1 43.7793 50.125 0.391033
117 1 43.5676 49.8691 59.3868
112 1 44.4252 50.9394 59.7392
116 1 42.9861 50.5223 59.7467
115 1 42.4599 50.4825 0.536367
111 1 44.6194 51.8172 59.6388
110 1 44.743 52.0621 0.570377
113 1 43.618 51.264 59.9593
147 1 2.92429 10.1787 1.72826
144 1 2.25588 8.8594 1.72857
148 1 3.4956 9.42456 2.11015
143 1 1.39122 8.30239 1.74164
146 1 2.40832 9.68244 1.02743
145 1 1.71721 9.80415 1.79988
118 1 44.4053 50.3319 58.841
109 1 45.4602 51.331 0.40881
107 1 44.6189 49.9668 59.8457
108 1 44.8099 50.4959 0.585964
119 1 44.8744 51.1222 58.3103
120 1 45.4729 51.6339 58.9323
387 1 26.4918 5.20963 8.20456
278 1 27.4247 6.43601 8.44774
383 1 26.4745 6.32903 8.14007
384 1 25.5149 6.30278 7.9207
386 1 26.0119 5.61982 8.9423
276 1 27.5447 6.24422 9.58173
280 1 27.2601 7.32327 7.89615
381 1 25.7473 5.24852 7.13132
389 1 24.9807 5.2106 9.08061
277 1 27.2221 5.65816 8.82325
388 1 25.3487 5.0888 8.22539
391 1 24.3163 6.09906 10.6073
275 1 26.709 6.7166 9.20449
274 1 26.0141 7.27285 8.95211
382 1 26.3742 6.01616 7.21882
385 1 25.3081 6.24695 8.94154
399 1 24.3921 7.01041 8.90544
279 1 27.9763 6.69066 7.70549
398 1 23.4856 6.65028 8.62929
400 1 24.1574 5.92408 8.62865
281 1 37.8631 56.2713 11.4707
282 1 37.7929 55.8873 10.5669
283 1 37.8444 55.0456 9.98732
269 1 26.4444 4.94505 10.9065
272 1 26.7524 7.38445 9.93497
271 1 26.9624 6.54262 10.3982
270 1 26.3343 5.87536 10.8622
390 1 24.4684 5.43003 9.94262
273 1 25.8901 6.9645 9.97056
263 1 25.8176 6.79977 11.8187
264 1 26.0158 7.07194 10.9938
262 1 25.3433 5.79015 11.8011
266 1 25.4334 5.41829 10.8515
396 1 23.3683 7.08342 10.3286
393 1 25.0257 7.37184 10.574
392 1 24.4424 6.96185 9.97606
395 1 23.7637 7.63131 9.67035
397 1 23.5609 6.38912 9.64599
298 1 38.7559 56.5198 9.56298
299 1 39.3006 57.3419 9.92771
293 1 38.9487 57.6336 8.88882
294 1 39.63 56.7871 8.80102
295 1 39.2405 55.8712 8.78046
296 1 39.6852 56.0665 9.70799
297 1 38.9476 55.9892 10.3319
290 1 37.6661 56.3653 9.59546
284 1 38.3604 55.4911 9.31644
285 1 38.4836 54.7279 8.80245
261 1 26.3102 5.63159 11.9458
268 1 26.5709 5.52213 9.98472
267 1 25.6448 5.73383 10.0166
265 1 25.3999 6.42847 10.7803
394 1 24.1462 7.73279 10.6163
300 1 40.1088 56.7849 10.2797
291 1 37.7194 57.3525 9.89541
287 1 38.3825 55.6595 8.10676
288 1 38.5413 56.6851 8.3974
292 1 38.0678 58.0814 9.32232
289 1 37.5897 56.4612 8.57932
286 1 37.5256 55.0551 8.36397
233 1 33.7547 6.93748 16.4503
232 1 33.4139 6.41854 15.5648
238 1 34.0889 9.47456 15.8384
235 1 33.8868 7.76523 14.8799
237 1 33.4385 9.1642 15.0798
234 1 34.2703 7.14099 15.681
231 1 32.4203 6.43204 15.4211
236 1 34.3709 8.74581 14.8123
442 1 49.612 57.5471 14.3635
454 1 49.2949 57.0968 13.4154
456 1 49.4447 55.9744 13.1912
455 1 50.1896 56.7697 13.2136
443 1 48.5008 57.4251 14.3154
441 1 49.196 58.4606 14.6971
452 1 49.7223 55.899 14.2651
453 1 48.9178 56.4412 14.1079
450 1 48.6674 54.323 14.0194
451 1 49.0228 55.1968 13.9312
449 1 48.0681 54.5485 13.3901
229 1 32.9719 7.53895 15.6749
230 1 32.0034 7.39547 15.2442
240 1 34.8226 8.11491 15.4705
228 1 32.4026 7.23254 16.3092
239 1 34.4128 8.55721 16.335
224 1 33.2405 9.08816 16.679
225 1 32.8316 8.60577 15.8228
221 1 33.0366 10.4948 16.4458
222 1 32.3569 10.0824 17.1456
223 1 32.3496 9.52799 16.3912
460 1 48.3505 56.0123 11.5127
459 1 48.7005 57.0112 11.5475
458 1 48.9922 57.6615 12.3085
457 1 49.3976 56.6812 12.3896
444 1 48.8528 58.0385 13.6369
445 1 48.3105 57.2258 13.1634
447 1 48.7731 55.4051 12.3673
446 1 48.5169 56.2628 12.7297
448 1 48.036 55.379 13.1462
227 1 32.5808 8.07127 16.8376
226 1 32.0063 8.26592 16.051
241 1 50.9964 13.8359 25.7918
180 1 51.5289 11.0529 24.0367
163 1 52.924 11.4038 24.0034
178 1 50.2276 11.025 23.1844
179 1 51.1436 11.3927 23.1613
177 1 49.8258 11.7693 23.7049
161 1 52.8097 12.1972 22.853
176 1 50.3622 12.1613 23.0829
175 1 49.7939 11.6987 22.2557
162 1 53.5818 12.071 23.5176
250 1 52.988 12.9493 23.4895
249 1 52.0495 12.9686 23.918
174 1 50.6242 12.2157 22.1665
173 1 51.2116 12.9338 21.9838
242 1 51.9012 14.395 25.8001
252 1 52.3885 14.8521 23.679
251 1 52.8348 13.865 23.3465
243 1 51.9072 15.0424 25.0177
164 1 52.8068 12.359 24.4878
166 1 51.9146 11.5285 25.2643
165 1 51.8464 11.945 24.4426
169 1 50.7825 11.3861 25.1286
170 1 50.7099 11.9184 24.4035
172 1 51.4072 12.6197 22.9032
167 1 51.2961 12.3138 25.4057
246 1 50.7241 14.4158 24.6117
247 1 51.581 13.9947 24.4003
248 1 52.6215 13.7125 24.3681
244 1 51.452 14.9421 24.0946
260 1 50.9791 13.2842 24.8594
259 1 50.4651 12.9587 24.1204
255 1 50.9845 14.222 22.1013
245 1 50.6751 14.755 23.722
254 1 51.6409 14.0813 22.7375
253 1 52.0994 14.8939 22.6913
256 1 50.4399 13.6982 22.4998
27 1 46.3971 2.82369 29.5948
22 1 47.8764 2.95118 31.8321
32 1 47.6426 0.308355 28.9775
31 1 47.7574 1.05834 29.6293
25 1 46.8149 3.24322 30.4983
26 1 46.3463 2.24384 30.4062
24 1 47.7099 3.69533 30.6913
23 1 47.5158 2.84844 31.1045
40 1 46.6972 2.1533 28.8151
39 1 46.7114 1.65365 28.0371
38 1 45.8586 1.78852 28.348
168 1 50.2574 12.1564 25.5448
258 1 51.1778 13.3928 23.5778
171 1 51.1905 12.3784 23.7941
257 1 50.2488 13.699 23.4744
21 1 47.6539 3.92291 31.6627
33 1 47.6035 1.1946 28.6027
28 1 47.2849 3.15869 29.0864
29 1 47.4701 2.524 29.7803
30 1 47.0468 1.59432 29.7685
34 1 46.8989 0.739156 28.125
35 1 46.4591 0.00740564 28.6353
36 1 46.5545 0.738958 29.2165
37 1 45.9619 1.64331 29.3907
341 1 18.3706 10.5711 35.4416
486 1 7.36403 59.6597 36.9607
482 1 7.09246 1.92286 38.3108
95 1 19.9796 9.32093 35.134
96 1 21.0757 9.06974 34.7811
99 1 19.2747 10.3876 36.0071
97 1 20.737 10.1106 34.7811
98 1 19.8869 10.5018 35.2076
342 1 18.3785 9.51281 35.4259
100 1 19.2823 9.42476 36.1298
344 1 19.1131 8.4034 36.5485
352 1 18.8776 10.5479 37.0428
353 1 18.1638 10.3326 36.7057
354 1 17.8341 10.7386 37.7009
355 1 17.7781 11.6074 38.0671
472 1 53.4798 48.7373 35.9338
473 1 54.2759 48.0828 35.51
474 1 54.8943 47.57 36.1645
471 1 54.278 49.2958 36.1526
470 1 54.9573 49.0943 35.5893
321 1 8.00216 2.84121 40.4802
488 1 6.17069 59.1381 37.3154
485 1 7.03359 0.327573 36.249
484 1 7.37697 0.752836 37.0794
481 1 6.31868 2.24144 37.73
483 1 7.83173 1.52544 37.7131
135 1 9.16747 0.957605 36.3187
491 1 6.18341 0.112218 38.3501
331 1 7.06533 3.0098 37.8372
330 1 7.26777 2.17425 37.255
332 1 7.27787 2.82786 38.848
94 1 20.0081 8.68996 36.0306
93 1 20.9244 8.76216 35.8357
343 1 18.3677 8.63047 35.9973
92 1 21.2267 9.63127 35.7447
91 1 20.3585 9.81667 35.9812
90 1 20.0113 10.4184 36.6565
360 1 19.3615 12.6977 36.3365
84 1 21.9596 9.09261 36.8941
359 1 19.9996 12.1642 37.108
358 1 19.224 11.4342 36.6041
347 1 18.3241 9.85024 37.985
345 1 18.9501 8.80356 37.3224
351 1 19.6941 11.0474 37.4339
346 1 18.3826 9.30924 37.1134
357 1 18.3697 11.5108 37.1367
356 1 17.4215 11.3948 37.0603
350 1 19.059 11.8341 37.8575
478 1 56.0152 48.6293 38.672
461 1 56.8391 46.7138 36.4112
463 1 56.4577 47.3328 37.0865
462 1 57.1148 46.5127 37.3135
477 1 55.295 48.1291 38.2365
476 1 55.5843 47.9945 37.2737
464 1 57.3473 47.6905 36.8193
467 1 56.5642 47.4777 35.5321
475 1 54.8277 48.4486 36.6794
409 1 56.103 50.0939 37.8863
465 1 57.7267 47.6251 35.9007
469 1 55.1282 48.6716 34.7484
412 1 56.8725 48.894 36.6716
466 1 57.3035 46.9451 35.3896
468 1 55.7187 48.2873 35.5255
413 1 56.4539 49.0192 35.7672
414 1 55.6939 49.0306 36.4471
420 1 58.4466 47.1632 37.302
415 1 56.2607 49.7931 36.698
487 1 6.88573 59.5811 37.6974
134 1 9.82627 0.183874 36.5859
133 1 9.53173 59.8712 37.2887
323 1 8.65592 3.25678 39.1291
324 1 9.099 2.47245 38.8636
322 1 8.39731 2.55804 39.6529
489 1 6.20808 0.0204455 36.9529
495 1 5.33427 0.117018 39.2632
496 1 6.1987 59.5488 39.4694
137 1 8.99817 1.35477 37.2216
136 1 9.87823 1.5575 36.7876
372 1 8.74843 59.7586 38.37
373 1 9.37131 0.225169 39.0195
327 1 9.89352 1.52582 37.9114
326 1 9.41817 1.41943 38.9428
374 1 9.98314 0.497296 38.3121
490 1 5.9059 0.648417 37.4412
139 1 8.38645 1.68806 38.5066
138 1 8.95495 0.931969 38.1133
493 1 5.49782 1.48443 38.6575
335 1 6.5097 1.3883 39.638
140 1 8.3897 1.47854 39.5132
328 1 9.07233 2.17971 37.8913
329 1 8.07035 2.59456 37.637
333 1 7.24556 3.14032 39.9904
492 1 6.34604 1.06807 38.2574
334 1 6.93898 2.22788 39.7335
81 1 20.0812 7.50827 36.3153
89 1 19.4813 9.69839 37.2864
82 1 20.8615 8.00115 36.514
88 1 19.954 8.79385 37.5532
87 1 20.2953 9.8116 38.0451
86 1 20.8877 10.119 37.2754
85 1 20.8678 9.26751 36.6721
83 1 21.2414 8.41947 37.1805
349 1 18.8576 10.9353 38.1186
348 1 19.3 10.1328 38.1462
480 1 55.3006 49.6552 38.6635
479 1 55.3666 48.8342 39.276
411 1 56.8068 49.204 37.5809
407 1 57.0235 50.1424 38.1847
410 1 55.8123 49.1174 37.6909
419 1 58.0566 48.0463 37.5063
416 1 57.2975 49.8678 36.8934
408 1 56.4322 50.9239 38.3943
417 1 57.8746 49.8419 37.7436
418 1 57.9151 48.9801 37.3592
129 1 9.54071 59.2146 35.6362
498 1 7.36697 58.7152 38.3164
131 1 8.1567 59.915 36.2694
497 1 6.49451 59.0865 38.6965
132 1 8.52261 0.0995926 37.1884
130 1 8.80939 59.3094 36.3298
376 1 10.2454 59.0953 38.9499
375 1 9.77273 59.4997 38.203
325 1 9.49292 2.07193 39.814
499 1 7.16353 57.9851 37.6971
500 1 6.64188 57.9967 38.6653
339 1 7.89966 59.5583 37.8456
340 1 8.00117 58.7286 37.4062
368 1 6.91636 0.455574 39.299
367 1 7.28477 59.7267 39.6698
371 1 8.22858 59.4252 39.1942
370 1 8.57531 59.9456 39.8962
378 1 9.29153 58.1036 39.0176
494 1 5.53215 1.06402 39.5885
337 1 8.01762 0.475729 38.9764
338 1 7.35875 0.493928 38.3226
336 1 7.43795 1.3756 39.1611
369 1 7.67192 0.586246 39.9961
220 1 49.1608 51.019 41.2108
219 1 49.54 50.1391 40.9711
406 1 56.4232 49.6109 38.8598
404 1 56.5776 48.5155 39.9785
403 1 56.9639 48.5779 38.9736
405 1 56.2599 49.3846 39.7793
402 1 57.7602 48.0575 38.5465
401 1 57.1797 47.4712 38.0251
127 1 10.2889 58.5448 35.5198
363 1 6.42783 57.0083 38.6479
128 1 10.2272 59.519 35.2972
125 1 9.74492 57.5902 37.0944
377 1 9.88966 58.5053 38.2876
122 1 8.74063 58.7477 38.3966
365 1 6.62043 58.3308 40.0344
366 1 7.16789 58.6671 39.3475
121 1 8.17384 57.903 38.0907
379 1 8.33173 58.1889 39.3525
380 1 8.65115 58.9499 39.9624
217 1 49.5703 49.0023 40.3209
218 1 49.9272 50.0424 40.0927
216 1 49.6603 49.1846 41.3288
362 1 6.63574 56.4487 39.4416
126 1 9.94389 58.4248 36.532
364 1 6.19346 57.5354 39.5056
361 1 7.28612 57.1991 39.3065
124 1 9.16709 57.9325 37.7829
123 1 9.10974 58.7993 37.4065
55 1 44.8697 27.686 44.0059
54 1 44.4132 28.4711 43.6639
56 1 45.6487 28.2991 43.7086
60 1 43.6154 27.719 42.7731
59 1 43.9825 28.6439 42.6844
53 1 44.2927 29.2728 43.6275
50 1 44.9783 30.0381 43.8606
49 1 44.3339 30.4954 43.3521
52 1 45.2241 29.2013 43.3361
51 1 45.2563 29.2858 44.3165
209 1 48.6977 50.4337 42.843
210 1 49.5906 50.0701 43.3589
208 1 49.3887 50.2009 42.2691
214 1 48.5887 49.5013 41.8136
215 1 48.6612 49.0121 40.9303
205 1 51.5197 49.4398 41.2017
206 1 50.7365 49.9644 41.0771
207 1 50.286 50.161 41.9562
204 1 51.6996 48.4625 40.9075
182 1 52.2075 48.7884 41.7283
183 1 52.9414 48.0944 41.6933
185 1 52.9855 48.205 42.9539
184 1 53.4915 47.3879 42.3618
181 1 52.0928 48.0781 42.3079
57 1 45.7878 28.4929 42.6461
58 1 44.905 28.1291 42.7464
41 1 45.2413 30.8675 44.5851
42 1 45.703 31.6869 44.1102
44 1 46.6362 32.0193 43.8842
43 1 46.3912 31.1355 43.7595
48 1 45.1579 31.1171 43.3599
192 1 51.1436 50.2701 43.3591
211 1 50.3543 49.3938 42.9435
212 1 49.6491 49.0136 43.3163
213 1 49.382 49.1586 42.3325
201 1 50.0106 48.143 41.7225
191 1 51.6812 50.955 43.8
190 1 52.335 50.8373 43.0623
200 1 51.216 50.9559 41.5763
198 1 51.3344 49.7843 42.2019
197 1 50.6305 49.1632 41.6967
203 1 50.9573 49.087 40.3866
202 1 50.4799 48.4106 40.844
189 1 52.9176 50.5644 43.6526
188 1 53.2842 50.1027 42.7324
186 1 52.7721 49.1199 42.75
187 1 53.7217 49.2472 43.0482
199 1 52.0864 50.1496 41.536
17 1 5.13791 56.9059 48.1998
45 1 46.4073 32.8111 43.2838
47 1 46.0172 31.0753 42.6398
46 1 45.9164 31.9246 42.99
193 1 51.9297 49.7847 43.1915
196 1 51.0804 48.3556 41.95
195 1 51.5641 48.872 42.7349
194 1 52.1541 48.8275 43.5288
13 1 4.15567 58.0885 46.8412
14 1 3.54499 57.95 47.4928
16 1 4.12784 56.7981 48.5185
4 1 4.47383 57.9881 48.0695
15 1 3.31465 57.0751 48.1342
12 1 3.27266 57.788 46.3961
7 1 5.21902 57.0752 46.9858
5 1 4.31068 57.1868 47.531
6 1 4.77655 56.2382 47.2446
19 1 5.00693 55.6614 49.4844
18 1 5.53708 56.0895 48.6222
8 1 4.72257 56.9404 46.059
3 1 5.10931 58.3068 47.4052
10 1 2.96091 56.4096 46.1066
11 1 3.27441 56.9161 46.8315
2 1 5.10181 58.82 46.5385
9 1 3.80121 56.7383 45.7107
20 1 5.83841 56.0803 49.7835
1 1 6.0685 58.7018 46.8481
80 1 18.7789 54.1063 48.8032
79 1 19.5092 54.827 48.6938
427 1 17.6888 47.2947 54.8322
424 1 17.4809 48.4579 54.4803
425 1 16.8609 47.6222 54.2116
426 1 17.3052 46.763 54.0474
423 1 17.5288 48.3793 53.383
440 1 19.8976 48.9925 54.4879
422 1 18.4738 48.3504 53.2635
308 1 18.2314 50.0016 55.0075
421 1 18.2187 49.3334 53.1345
307 1 17.5331 50.4181 55.3745
77 1 19.6928 53.8954 49.4581
69 1 21.2797 55.604 50.725
78 1 20.376 54.549 49.1
75 1 19.3099 55.8976 50.0326
76 1 19.525 54.8468 49.8775
429 1 18.1145 48.5409 55.3877
430 1 19.0761 48.1521 55.5303
438 1 19.2684 49.69 54.5282
439 1 19.8865 49.7219 55.1507
428 1 18.2774 47.5653 55.5369
312 1 16.397 49.9759 55.1611
311 1 17.144 49.68 54.7672
433 1 18.6536 48.7678 54.5535
434 1 19.201 49.0184 53.6876
435 1 19.6287 49.4017 52.9902
310 1 17.425 50.1508 54.0259
309 1 18.3097 49.7289 54.1286
306 1 17.9508 51.1345 54.9004
305 1 18.921 51.4252 55.006
71 1 20.5502 54.4824 51.7404
70 1 20.841 55.431 51.6002
63 1 22.4903 56.1516 51.8888
67 1 21.1975 54.8263 50.1365
68 1 20.5368 55.5562 50.1087
66 1 21.6914 55.6014 49.6874
73 1 20.163 55.9376 50.9669
74 1 19.2655 56.0025 51.0459
62 1 21.576 56.3188 51.4272
61 1 21.1712 56.7375 50.5218
431 1 18.709 48.4869 56.3742
437 1 19.7338 50.2003 53.9098
436 1 20.4219 49.4686 53.5714
313 1 16.2374 48.9313 55.1078
314 1 17.109 48.8624 55.4153
320 1 17.4009 48.7995 56.4749
432 1 18.9591 49.1295 55.4928
315 1 17.9153 49.5139 55.8366
303 1 19.6195 50.7025 54.805
316 1 18.2304 50.275 56.2327
304 1 18.9783 50.4958 55.3679
302 1 19.8495 50.8343 55.7924
72 1 19.8662 55.1393 51.5558
65 1 22.0691 56.323 50.1514
64 1 22.6714 56.2315 50.9605
319 1 17.4987 49.693 56.7808
318 1 18.2004 49.1939 57.2879
317 1 18.7822 49.5523 56.5816
301 1 19.1647 50.6786 56.4968
ITEM: TIMESTEP
42000
ITEM: NUMBER OF ATOMS
500
ITEM: BOX BOUNDS pp pp pp
0.0000000000000000e+00 6.0000000000000000e+01
0.0000000000000000e+00 6.0000000000000000e+01
0.0000000000000000e+00 6.0000000000000000e+01
ITEM: ATOMS id type x y z
146 1 3.65288 10.4956 3.3293
105 1 43.8873 50.2534 58.5457
115 1 43.8341 51.418 58.5112
104 1 44.2292 49.9111 57.6131
114 1 44.5019 51.1101 57.7318
102 1 44.1208 50.8728 56.5521
106 1 43.0323 50.3621 59.0554
109 1 42.2696 50.6866 57.1948
108 1 42.2631 49.7156 57.5652
101 1 44.2144 51.8357 56.8976
110 1 42.7172 51.6582 56.981
143 1 4.76393 8.63166 3.83329
142 1 5.64773 8.26075 3.54409
149 1 5.57003 9.4713 3.4696
141 1 5.74174 8.92127 4.33635
144 1 3.7514 8.64257 3.82031
145 1 3.69488 9.52374 3.62841
148 1 4.79198 9.56141 3.02741
153 1 5.72491 10.2817 2.76509
154 1 4.81268 10.6163 2.60233
155 1 4.75912 9.85859 1.96176
147 1 4.5249 10.2259 3.57874
103 1 44.8731 50.381 57.0392
150 1 5.77285 8.81711 2.73042
151 1 6.58992 9.0511 3.33094
158 1 3.37686 8.75449 2.7787
159 1 2.69858 9.07136 3.41847
156 1 3.89054 9.76016 2.61403
157 1 4.26799 8.86799 2.32989
152 1 6.48565 9.60324 2.56696
160 1 2.1613 8.90574 4.17591
381 1 28.4107 5.05569 10.2051
388 1 27.7516 4.31932 10.787
387 1 28.0346 4.17287 11.7889
384 1 26.6894 5.37293 11.1146
383 1 27.2275 5.10963 10.2036
382 1 27.9324 5.46238 9.661
278 1 29.9502 6.17732 11.8475
279 1 29.5539 5.22099 11.9575
280 1 29.1346 4.82093 11.1886
287 1 39.3182 56.5122 9.03649
286 1 39.6136 57.2321 9.74358
289 1 37.4411 56.9048 9.24735
288 1 38.4207 56.7493 9.24446
389 1 26.859 4.1281 10.4908
390 1 26.1584 3.75039 11.1641
386 1 27.0952 4.31771 11.5611
268 1 28.2455 6.6653 10.6887
277 1 30.0223 5.46497 11.1303
398 1 23.2675 4.18699 9.74631
400 1 24.6314 4.26397 10.2862
397 1 23.782 4.72435 9.17669
385 1 27.5817 5.21768 11.5392
399 1 24.0501 3.65896 10.2519
267 1 27.6376 5.86632 10.6793
275 1 28.8584 5.8639 9.85119
273 1 27.4812 6.67055 10.0847
276 1 29.1738 5.8545 10.939
395 1 25.6286 4.86611 9.1523
274 1 28.1882 6.40532 9.33876
272 1 26.6719 7.05874 9.75771
283 1 38.654 57.101 8.32526
284 1 38.834 57.6386 9.05893
285 1 38.9673 58.0698 9.87782
290 1 37.8808 57.1679 10.0866
298 1 38.3975 55.9974 8.50644
294 1 37.0836 56.0707 10.9213
295 1 36.9577 56.2812 9.98555
296 1 37.7712 55.828 9.31416
291 1 38.7611 57.1872 10.4901
292 1 38.2222 56.4017 10.74
299 1 38.0759 56.3578 7.66315
293 1 37.3625 56.838 10.9886
266 1 28.0661 6.16957 11.5325
269 1 28.3124 7.38084 11.4117
396 1 24.7364 5.12086 9.33173
391 1 25.7214 3.99357 10.3087
392 1 25.3096 4.37937 11.2306
265 1 26.9778 6.37702 11.4454
271 1 27.2653 7.78561 10.255
270 1 27.3895 7.39203 11.0244
264 1 26.2898 6.37207 10.6404
394 1 26.3497 4.75216 9.76096
393 1 25.7415 5.03071 10.4684
282 1 38.9465 57.8794 7.70661
297 1 37.4329 55.723 8.30914
300 1 37.8144 55.6271 7.08092
261 1 25.6035 7.35252 10.268
262 1 25.3911 7.23305 11.3343
263 1 26.3228 7.38894 10.9607
447 1 51.2695 58.3724 13.0153
281 1 39.5865 57.0986 7.70277
460 1 53.9305 56.1144 12.4914
446 1 52.2976 58.5726 13.3663
459 1 53.1957 56.0932 13.3261
457 1 52.7024 57.3095 13.0586
458 1 52.4317 56.5683 13.5864
450 1 51.8199 58.6595 11.6407
449 1 52.7159 58.4805 12.0719
448 1 52.0434 58.0112 12.4981
451 1 52.2716 57.8729 11.1165
454 1 52.3028 56.1674 11.3634
456 1 52.7436 57.194 11.9133
452 1 51.5562 57.5166 11.7011
453 1 51.7964 56.9169 10.854
455 1 52.586 56.195 12.2775
445 1 51.8886 57.6804 13.6427
444 1 51.5325 57.1907 12.8308
231 1 33.7002 6.95511 16.2516
232 1 33.8308 6.607 17.0764
230 1 33.5472 7.99803 16.1968
235 1 34.076 7.71879 17.2
229 1 32.6871 8.41421 16.7635
234 1 33.2033 7.51282 17.2496
240 1 35.8108 7.8197 17.4315
237 1 34.7146 9.3576 17.7297
236 1 34.6857 8.36502 17.5444
443 1 51.4687 56.5289 12.0892
442 1 51.6858 55.4784 12.0227
441 1 51.4266 55.7476 12.9593
233 1 32.8829 6.62337 17.0378
228 1 33.027 9.30464 16.5835
227 1 32.8381 9.59294 17.512
226 1 33.6277 9.1596 17.3432
239 1 35.6466 7.96445 18.2866
225 1 33.3989 8.31091 18.0273
223 1 33.57 9.92454 18.3261
238 1 35.6126 8.99999 18.1702
224 1 33.9395 8.95019 18.4076
221 1 34.4711 10.5618 17.4841
222 1 33.4633 10.5402 17.4249
175 1 51.7392 11.3366 19.9957
174 1 52.1825 11.9877 20.6301
161 1 53.3766 11.7327 22.5884
173 1 52.7919 12.7892 20.7616
255 1 50.3995 11.2694 20.8283
256 1 50.7015 10.3916 21.1805
254 1 50.9369 11.7748 21.4101
253 1 51.5148 12.4152 21.5162
178 1 53.4316 10.2744 21.4168
179 1 52.9319 10.9174 21.9808
180 1 52.679 9.92511 22.091
177 1 52.7341 10.759 21.05
176 1 52.4248 10.6288 20.0573
172 1 53.1365 12.6109 21.6896
171 1 52.3846 12.1365 22.0208
163 1 52.1364 11.1886 23.4362
162 1 53.0263 10.835 23.084
259 1 49.734 12.132 22.7156
258 1 50.6852 11.8014 22.4778
257 1 50.3914 11.1011 21.8862
249 1 51.6547 12.8755 22.5174
251 1 52.4941 13.9614 22.1679
250 1 52.7046 12.9727 22.6268
245 1 50.1301 12.4504 21.497
252 1 52.1536 13.15 21.4993
244 1 50.2827 12.784 20.4672
169 1 51.8372 10.3603 21.4789
170 1 51.9185 11.3402 21.5316
167 1 51.6629 11.4713 22.5634
168 1 51.1795 10.517 22.1861
164 1 52.4438 12.0988 23.2407
166 1 51.4262 12.1401 23.2128
165 1 51.8072 12.7956 23.7885
260 1 49.1036 12.5362 22.0557
247 1 50.0681 13.2093 22.7588
248 1 50.738 12.8518 22.1796
246 1 49.8356 13.3537 21.8018
243 1 51.026 13.1153 20.8316
241 1 51.0912 13.7332 21.7054
242 1 50.3469 13.8426 20.9692
34 1 48.7464 1.88647 31.014
39 1 47.1684 0.693045 29.6086
38 1 47.7515 0.81778 30.4439
36 1 49.4073 1.22404 29.777
32 1 47.7854 2.89817 30.6162
31 1 47.1666 2.7074 29.9043
33 1 48.8048 2.90628 30.669
27 1 47.5386 2.06243 31.429
40 1 46.9531 1.63534 29.7804
30 1 46.4722 2.49683 30.4991
37 1 48.3955 1.05057 29.7519
29 1 46.8213 1.73792 30.7895
28 1 47.8277 1.834 30.4584
35 1 49.5415 1.94255 30.4931
26 1 46.6561 1.89604 32.0188
23 1 46.408 0.588886 30.469
25 1 45.9713 1.21739 32.1953
24 1 46.5352 0.945108 31.3974
22 1 45.8765 1.38917 30.4366
21 1 45.1804 1.13919 31.1477
342 1 17.1695 7.61523 36.3522
95 1 17.0978 10.7276 36.9734
96 1 17.5152 10.0904 36.2501
92 1 18.5596 10.2182 36.7696
341 1 16.9543 8.08217 35.4458
98 1 17.2019 9.36145 35.3345
97 1 18.1345 9.85828 35.4014
466 1 54.4881 47.9314 35.9172
473 1 54.1412 48.5215 38.5492
467 1 54.3882 47.2928 36.6209
468 1 53.5271 47.9155 36.7546
470 1 53.9317 48.7319 36.2989
469 1 54.4644 48.2882 37.0335
127 1 10.1902 1.49317 37.1795
129 1 8.78922 0.722403 36.4956
128 1 9.54923 0.780856 37.3148
485 1 6.9255 1.19901 36.9929
489 1 5.41544 59.0523 37.4461
484 1 6.05046 1.51574 36.6818
135 1 7.62424 1.68118 38.0992
134 1 7.84787 2.22528 37.3774
136 1 6.84727 1.16317 38.4044
344 1 17.6828 8.84801 37.3822
81 1 18.0591 7.35481 35.9492
82 1 18.8817 7.9874 36.2731
343 1 17.8869 8.01158 36.8232
346 1 19.3104 8.81703 38.1435
100 1 18.0794 8.64561 35.5542
94 1 17.6061 11.3368 37.6255
93 1 18.3897 11.0589 36.9865
91 1 17.9776 10.1462 37.4726
85 1 19.375 9.44118 36.8823
84 1 18.4075 9.3101 36.4967
353 1 17.1617 8.2938 38.0272
356 1 16.4506 9.0661 36.8558
99 1 17.34 8.98588 36.2892
352 1 16.4337 8.90685 38.3445
90 1 18.528 9.50834 37.5602
357 1 16.4221 10.0998 36.5537
360 1 17.0709 10.6373 38.3777
358 1 15.6731 10.6647 37.1532
461 1 54.7475 46.6934 38.1663
474 1 54.9014 48.8212 38.8804
475 1 55.0486 47.8619 38.6726
463 1 55.5261 46.7542 36.9272
464 1 55.3098 46.7728 36.1057
465 1 55.3846 47.6483 36.4966
472 1 53.6953 48.6759 37.6826
471 1 53.1378 48.8717 36.9016
414 1 55.3787 49.3223 36.5679
412 1 56.4167 48.4934 36.3168
413 1 55.7211 48.5575 36.9784
415 1 54.7954 49.5412 35.8231
416 1 55.6592 49.493 35.5054
125 1 9.91291 0.624305 36.2459
126 1 9.72878 1.58819 36.364
486 1 6.59405 0.748679 36.2253
131 1 7.83271 0.256394 35.7864
130 1 8.6688 0.606155 35.4987
491 1 6.11878 59.1237 38.1939
490 1 5.75219 58.2204 37.8792
492 1 5.2518 58.7913 38.6759
132 1 7.84201 0.908536 36.4344
338 1 5.97913 0.21348 38.2446
137 1 7.43806 0.491699 38.7695
374 1 8.46958 1.00228 38.3787
138 1 7.90836 0.523964 39.6487
482 1 6.35547 1.66221 37.6966
481 1 6.55059 2.72482 38.1017
483 1 6.05963 0.728961 37.3264
330 1 5.53889 59.3723 40.6099
139 1 7.4803 1.35255 39.929
329 1 5.39472 0.247383 40.4445
327 1 5.65032 1.3772 40.0222
328 1 6.00097 0.426786 39.6609
331 1 4.68606 59.5431 40.2025
83 1 19.3434 8.80456 36.243
347 1 19.3991 9.89309 38.123
345 1 18.1959 8.45512 38.138
89 1 18.8727 8.59004 37.2808
88 1 18.97 7.62248 37.3641
87 1 19.8948 7.67226 36.8769
354 1 16.1933 8.07134 37.7088
351 1 16.9926 9.43873 37.7655
349 1 18.4649 10.2752 38.6766
348 1 18.8726 10.5814 37.884
86 1 20.0654 8.77016 37.0919
355 1 16.7566 8.24456 37.1619
359 1 16.2555 10.3314 38.0721
350 1 17.9539 9.42606 38.4937
462 1 55.139 47.3413 37.4459
477 1 55.2917 47.3265 40.0267
476 1 55.1252 48.1087 39.6377
420 1 56.3798 46.0234 34.3804
419 1 55.9253 46.4612 35.1068
402 1 56.4681 46.4852 39.107
401 1 55.704 46.8704 38.454
411 1 56.5806 49.3372 36.7257
410 1 56.7072 49.192 37.7643
417 1 55.7164 48.3617 35.5226
418 1 55.4419 47.3559 35.2276
409 1 56.883 48.3711 37.5247
407 1 56.2165 47.4835 37.6487
408 1 57.2362 47.6996 38.0572
499 1 8.55086 58.0081 37.4517
121 1 8.07345 59.7642 38.0732
377 1 10.4442 59.871 38.4499
124 1 10.462 59.8244 36.5871
488 1 5.39416 59.8739 36.8125
487 1 6.33224 59.9479 36.2487
498 1 8.37315 57.0934 37.2754
339 1 6.87593 0.213711 37.5697
340 1 7.58955 0.629431 37.7132
133 1 8.36216 1.28411 37.3119
372 1 8.80054 59.8844 39.7069
375 1 9.32774 1.17244 38.1877
122 1 8.63199 59.9584 37.3126
123 1 9.46447 59.6894 37.0353
495 1 6.51783 57.5093 38.3628
494 1 5.75845 56.8407 38.6403
335 1 6.28033 59.0014 39.7544
368 1 6.95285 58.4909 38.9706
337 1 6.67901 59.6526 38.9307
336 1 7.26699 59.4133 39.5432
369 1 7.63934 57.927 39.2408
373 1 8.93745 0.250677 38.7354
326 1 6.26485 0.783729 40.6228
493 1 5.65583 57.8753 38.8828
334 1 6.30368 58.0774 39.9855
332 1 5.44461 59.4772 39.5014
322 1 7.69057 59.4727 40.9956
140 1 6.58731 1.31618 39.3994
324 1 6.55738 59.6834 40.7849
325 1 6.96855 0.196392 40.1339
333 1 5.41423 58.5061 39.685
323 1 6.91169 58.7243 40.6688
404 1 56.3841 47.5627 38.8817
480 1 53.2042 48.0611 39.6236
479 1 54.065 48.3769 39.5595
478 1 54.3232 47.6143 40.0979
406 1 55.7331 48.3947 38.0886
403 1 56.315 47.0494 39.7142
405 1 56.5584 48.5657 38.7064
363 1 8.2215 56.1959 38.0224
362 1 7.3252 56.5103 38.134
500 1 8.7034 58.9164 37.7749
364 1 8.0155 57.021 38.7863
379 1 9.16398 59.0468 38.6472
361 1 7.13695 55.9813 37.2774
378 1 9.53543 59.7132 38.0611
496 1 6.55696 57.8664 37.3928
497 1 7.33528 57.301 37.3333
367 1 7.7196 59.0406 38.7125
371 1 8.41618 59.1175 39.426
370 1 7.70346 58.5712 40.0065
366 1 7.19759 58.8549 37.8798
380 1 8.58329 58.2253 38.75
376 1 9.95864 0.683045 38.7912
321 1 8.1792 0.21887 40.7543
202 1 52.0744 51.3232 42.1387
204 1 52.6636 51.0473 40.993
217 1 51.9232 54.7376 41.5213
216 1 52.5415 54.1397 42.089
215 1 52.6769 53.2912 41.6203
206 1 53.5042 52.3319 40.3554
203 1 51.6255 51.1604 41.1833
205 1 52.6926 51.8159 40.4608
220 1 53.4886 54.2639 42.5127
219 1 53.5424 53.9292 41.5342
218 1 52.7668 54.2143 40.9664
365 1 7.52644 57.8063 38.1508
60 1 46.4206 29.347 43.9241
58 1 46.1235 30.5034 43.5867
57 1 45.7915 31.4232 43.3534
59 1 45.9354 29.566 43.124
47 1 47.4568 29.7578 43.9652
201 1 51.733 52.2948 42.2921
196 1 53.4051 51.6373 41.4467
181 1 51.7896 50.0314 42.2133
183 1 52.3388 50.2602 40.5206
184 1 51.4989 50.4726 40.2402
214 1 53.4596 52.6324 41.5378
213 1 52.5674 52.2216 41.6415
198 1 54.0606 50.6474 41.2773
197 1 54.0973 51.4188 40.8054
182 1 51.7454 49.9628 41.343
186 1 52.3394 49.2619 40.6929
195 1 53.3627 50.9102 42.2609
209 1 54.9834 52.3662 40.8903
208 1 54.4367 53.1997 41.1826
207 1 53.515 53.3256 40.7236
200 1 54.3362 49.6697 40.6683
199 1 53.5033 50.3172 40.4848
188 1 53.2387 48.7797 40.9406
55 1 45.0891 31.3015 44.1943
54 1 46.1368 31.3049 44.5018
56 1 45.051 30.9406 43.2003
53 1 46.9182 30.8584 44.1494
52 1 47.1228 31.1774 43.2295
50 1 48.5564 30.4956 43.0731
49 1 48.3138 29.5061 42.8632
48 1 47.4571 30.0593 43.035
43 1 48.352 30.5132 44.9178
42 1 48.4089 29.619 44.342
44 1 47.2713 30.3554 45.1436
45 1 47.6883 29.4682 45.0102
46 1 47.1841 28.8471 44.3834
185 1 51.4874 49.4436 40.3942
212 1 53.1915 52.0401 42.3908
211 1 54.0856 51.7697 42.5027
193 1 53.7478 49.7498 41.9719
194 1 52.9245 50.2107 41.8133
187 1 52.697 49.1937 41.6893
210 1 54.4228 52.097 41.6712
192 1 54.1692 48.9618 41.5579
191 1 53.9616 48.1559 42.201
190 1 53.7701 47.5352 41.4477
189 1 53.1002 47.7948 40.6521
51 1 48.0036 30.8915 43.8522
41 1 48.3247 28.6084 44.5317
10 1 59.9416 57.984 49.8309
11 1 0.297554 57.9678 48.8757
9 1 0.177096 58.0422 50.9053
7 1 1.04924 57.9922 50.0584
8 1 0.895517 57.4011 50.9551
13 1 1.88361 58.609 48.3922
12 1 1.24798 58.108 49.0046
2 1 1.77893 56.9366 48.8152
1 1 0.860283 57.1274 49.2627
16 1 1.34476 59.8614 49.6282
15 1 1.70452 59.5833 48.7141
17 1 0.800968 59.1843 50.2408
6 1 1.93172 57.821 50.5962
14 1 2.64005 59.2154 48.9366
5 1 2.81146 58.218 50.244
4 1 2.2288 57.573 49.6329
3 1 1.69583 56.6761 49.805
80 1 18.5681 55.5621 48.4046
77 1 19.7693 55.636 48.5311
79 1 19.0455 54.8496 49.0183
76 1 19.3463 55.4116 47.5908
78 1 19.5919 55.6438 49.565
66 1 21.0185 56.2999 46.7846
19 1 0.599344 59.8016 48.5621
18 1 0.239756 59.3837 49.4343
20 1 0.702714 0.0654798 47.7129
69 1 20.5864 53.6323 46.7023
67 1 20.6068 55.4704 46.483
68 1 20.1854 54.6701 46.4236
75 1 19.7298 54.4185 47.3335
74 1 20.0767 54.643 48.2466
73 1 20.4654 55.1416 47.5934
61 1 21.8071 55.4583 47.0265
62 1 22.4601 55.9627 47.5716
65 1 21.446 56.6863 47.6066
64 1 21.0946 55.9583 48.097
72 1 21.2517 54.9862 48.0227
71 1 21.2346 54.0267 47.8947
70 1 20.3355 53.582 47.886
63 1 21.9981 56.1511 48.5466
426 1 15.9929 48.9642 57.0471
425 1 16.6466 48.9766 56.2772
423 1 15.9515 49.6685 56.0257
422 1 16.5172 49.1012 55.235
421 1 17.0636 48.9259 54.3199
309 1 15.5978 50.493 54.365
434 1 17.4279 50.7947 53.8449
435 1 17.4781 51.2713 54.5484
436 1 16.708 51.445 54.6503
310 1 15.108 51.1038 54.9436
437 1 16.7671 51.288 55.5521
427 1 16.6024 48.2997 57.0832
424 1 16.9106 49.8415 55.9316
429 1 17.5842 49.2588 56.5221
428 1 17.0092 49.2321 57.2375
430 1 17.6266 48.2047 56.4311
312 1 14.2632 49.9756 55.8761
311 1 14.765 50.6896 55.8434
313 1 14.4785 49.9237 56.865
314 1 15.5012 50.222 56.8897
440 1 18.4997 51.6915 56.744
438 1 17.5441 50.7636 55.4096
439 1 18.3204 51.0481 55.9731
433 1 17.4491 50.0776 54.574
432 1 17.9354 49.7932 55.396
308 1 16.0764 50.5102 55.3159
307 1 15.6625 51.2165 55.9153
306 1 15.7508 51.3078 56.9054
303 1 17.4364 51.9923 55.9481
304 1 17.0921 52.0734 56.7446
305 1 16.1663 52.0443 56.4378
431 1 17.5265 48.8438 55.4841
320 1 17.9399 52.6879 58.4991
315 1 16.4677 50.1978 56.8332
319 1 17.8884 52.2797 57.6185
317 1 17.357 51.0607 56.4634
316 1 17.4609 50.17 56.9335
302 1 18.2323 51.9634 55.3493
301 1 18.8452 51.7053 54.632
318 1 17.4539 51.36 57.459
119 1 41.8682 51.3911 57.9118
117 1 42.4504 51.1572 59.3095
107 1 42.8359 49.8223 58.2233
116 1 43.4125 51.3502 59.376
113 1 43.6304 50.8118 57.5077
112 1 42.9125 51.0392 58.0894
118 1 42.2984 51.8273 58.5624
111 1 43.243 51.8974 57.7838
120 1 41.9733 50.6282 58.4598
ITEM: TIMESTEP
43000
ITEM: NUMBER OF ATOMS
500
ITEM: BOX BOUNDS pp pp pp
0.0000000000000000e+00 6.0000000000000000e+01
0.0000000000000000e+00 6.0000000000000000e+01
0.0000000000000000e+00 6.0000000000000000e+01
ITEM: ATOMS id type x y z
158 1 7.28574 9.12293 4.80851
156 1 7.35647 10.0457 4.22132
155 1 6.54758 10.3397 3.59389
157 1 6.64541 9.9465 4.90028
150 1 5.80374 9.88961 4.14499
152 1 5.50411 10.7699 3.33211
154 1 6.39383 10.4703 2.59691
153 1 5.76748 9.82666 2.9831
142 1 5.43224 8.50674 3.59347
159 1 7.75511 8.93352 3.9909
160 1 7.28429 9.43819 3.13645
144 1 6.81558 8.32574 4.38933
145 1 7.66616 7.65821 4.03147
143 1 5.80936 8.64528 4.58635
149 1 6.32958 9.14035 3.67118
148 1 6.32813 8.8317 2.66156
151 1 5.47604 10.7136 4.3058
146 1 6.96314 7.75258 3.30955
147 1 6.94069 8.07448 2.30492
141 1 5.68991 7.96534 2.78887
300 1 39.1695 58.2463 9.77686
298 1 38.3498 57.5606 9.26028
299 1 39.3758 57.6553 8.99798
297 1 37.5258 57.9324 9.58834
283 1 38.1095 56.4932 9.7141
281 1 39.6495 56.5554 8.6935
282 1 38.8807 56.5242 9.24934
398 1 27.5935 4.41135 11.3294
397 1 28.464 4.13956 11.0479
395 1 28.7296 2.87216 10.5354
396 1 29.2211 3.64025 11.0578
394 1 28.1532 3.03363 11.3525
382 1 28.8358 4.79528 11.9554
272 1 29.7774 5.62326 10.471
274 1 29.9971 5.53565 12.5662
275 1 29.2336 5.73139 12.2505
295 1 39.0291 59.1206 9.19629
289 1 37.6706 57.1792 8.54917
288 1 37.4415 56.4073 8.8119
296 1 38.1563 58.7519 9.43626
287 1 36.8743 55.918 9.55327
286 1 36.2105 56.0711 8.84316
284 1 37.1728 56.9422 9.91804
285 1 36.3847 57.0512 9.25191
399 1 26.5466 4.25901 11.7115
400 1 26.9265 5.17756 11.5297
389 1 27.6457 3.00746 13.0955
390 1 28.3019 2.99793 12.4099
391 1 27.6404 3.5861 12.0324
392 1 26.842 3.31338 11.7109
384 1 27.3299 4.86714 12.7379
393 1 27.4632 3.37225 10.93
381 1 29.7726 4.40093 12.23
388 1 28.2587 3.35886 13.5631
383 1 27.9437 5.32007 12.235
280 1 26.8742 6.12228 12.378
277 1 28.4224 6.57127 13.0829
265 1 28.7553 5.56803 11.3422
264 1 29.1376 4.83984 10.6347
268 1 27.9294 6.24645 11.4242
267 1 28.8017 6.55321 11.8709
273 1 30.1331 5.35602 11.4693
276 1 28.6665 5.4681 13.036
261 1 27.9813 3.92814 8.98974
262 1 28.0719 3.43787 9.88101
263 1 28.7201 4.1804 10.0092
269 1 28.4033 6.63764 10.665
271 1 29.3235 5.26472 9.74416
270 1 28.5545 5.79436 9.98366
294 1 38.7735 58.3013 8.61998
290 1 36.9356 56.6834 8.00836
292 1 38.5725 56.4051 8.04225
293 1 38.6722 57.509 8.06266
454 1 54.8074 57.9044 12.0693
453 1 55.2945 57.688 12.8909
291 1 37.6368 56.0135 7.7634
451 1 56.3415 56.3801 12.127
387 1 28.9067 3.80571 12.9532
386 1 27.9646 4.07834 12.8197
385 1 26.9935 3.90634 13.094
279 1 27.519 5.98572 13.1064
266 1 29.488 6.5351 11.2345
278 1 27.6333 6.83921 12.7854
442 1 56.311 59.2893 11.2345
455 1 55.6482 58.3573 12.284
443 1 55.5614 59.3981 10.763
460 1 54.9291 57.6093 9.83517
449 1 54.8467 56.8757 12.3809
448 1 53.9079 57.1616 12.2673
456 1 56.1312 57.6433 11.672
452 1 56.0816 56.97 12.8273
450 1 55.4705 56.5122 11.6986
441 1 55.9617 59.6509 12.0165
458 1 56.4839 58.388 10.032
459 1 55.9098 57.5941 10.1311
447 1 54.2981 56.9085 11.3785
446 1 54.1653 57.723 10.8516
457 1 56.5149 58.1503 10.96
445 1 55.1435 57.4627 11.2326
444 1 55.4672 58.4186 11.1463
231 1 35.6371 7.39514 18.7621
232 1 35.858 8.08117 18.2963
233 1 35.0369 8.61148 17.7607
229 1 34.8796 8.26462 18.7648
230 1 34.9127 7.59168 18.0886
228 1 34.4533 9.18706 18.4295
235 1 33.6795 7.67228 18.5792
234 1 33.9612 8.27595 17.8853
225 1 34.5401 10.1536 18.1806
236 1 33.0796 8.36233 18.2908
239 1 34.081 7.45256 19.5611
240 1 33.7834 7.84988 20.4839
227 1 34.6952 9.32431 19.4127
226 1 34.0787 9.97473 19.091
223 1 35.3268 10.8583 19.6677
224 1 35.1845 10.2474 18.9179
237 1 33.0558 8.43426 19.428
238 1 34.0789 8.45504 19.4155
222 1 36.3725 10.628 19.6184
221 1 36.2226 9.53205 19.5596
175 1 53.3301 10.1682 18.625
176 1 54.1427 10.5483 19.0545
255 1 50.5825 9.94462 19.7589
256 1 50.7997 9.00623 20.0117
177 1 54.7481 11.2732 19.2219
244 1 49.8101 10.8441 19.071
174 1 52.6532 10.3123 19.2635
173 1 53.4453 10.7909 19.8442
243 1 49.9506 11.5152 18.3964
242 1 51.0194 11.3754 18.1649
180 1 54.2854 12.3313 20.5428
257 1 51.3184 8.63788 19.1376
168 1 52.309 10.8749 20.7629
169 1 53.1363 11.1285 21.2689
170 1 53.1372 11.6604 20.5327
167 1 51.9649 10.3071 21.5914
178 1 54.1831 12.1283 19.4875
179 1 54.2261 11.5198 20.1983
259 1 50.0169 9.10593 19.2305
260 1 49.6006 9.69602 18.5405
254 1 51.3754 10.0898 20.3336
258 1 50.4243 8.43712 18.7024
245 1 49.4198 11.28 19.8502
248 1 50.3768 11.9037 19.5644
253 1 51.0398 10.9681 20.1345
171 1 53.0575 11.9755 19.6378
161 1 52.4454 12.0213 21.2248
172 1 53.4118 11.1095 19.019
246 1 49.9407 11.2941 20.5049
247 1 50.0171 12.1654 20.568
241 1 50.8256 11.1691 19.0258
249 1 50.7565 12.424 18.8315
251 1 52.359 11.2925 18.9648
250 1 51.4972 11.7917 19.3573
252 1 51.9055 10.8348 19.7838
163 1 51.416 11.8444 20.7296
162 1 52.1946 12.2189 20.2235
166 1 51.5943 11.0745 21.5079
164 1 50.7872 12.106 21.5964
165 1 50.6365 11.1741 21.2758
39 1 47.9597 1.33462 31.7346
37 1 48.6814 2.30606 31.5362
36 1 47.6359 2.44312 31.7384
40 1 48.2102 1.83665 32.4231
31 1 45.9659 1.11385 32.315
21 1 49.2441 1.33406 32.4091
23 1 49.306 59.8336 32.069
22 1 49.7634 0.643549 31.7108
38 1 48.2658 1.74626 30.8543
30 1 45.643 1.22028 31.4842
29 1 46.0482 1.94823 30.8227
27 1 47.4457 0.734806 30.9039
28 1 47.0088 1.63452 30.8425
34 1 46.6314 2.62771 31.8125
35 1 47.1136 2.49299 32.6384
32 1 46.7942 0.719285 31.8099
33 1 46.9458 1.71209 32.0004
25 1 48.4336 0.40508 31.9553
24 1 48.3595 59.4591 31.7045
26 1 48.3509 0.243507 30.9936
130 1 6.9918 0.431958 36.5735
341 1 15.7918 7.83184 36.5418
98 1 14.8014 8.46164 36.9267
97 1 13.9566 9.05134 36.9364
100 1 15.0116 7.44617 37.4021
420 1 52.2099 44.665 34.4572
419 1 51.8014 45.6143 34.5105
417 1 52.296 46.248 35.4757
418 1 52.6462 46.1241 34.6182
416 1 52.4021 47.1946 35.1106
485 1 5.33189 0.106368 37.7468
486 1 5.85129 0.446246 36.9717
131 1 6.94616 0.574886 37.6059
132 1 7.03004 0.352441 38.419
129 1 7.52148 1.13894 36.5576
125 1 8.72155 1.048 37.2125
484 1 5.06618 0.259192 38.7533
126 1 8.56956 0.462081 36.437
355 1 15.8209 5.5616 37.3035
342 1 16.4586 8.1212 35.9261
81 1 14.4739 10.0831 36.5559
343 1 17.4187 8.3763 36.4208
82 1 15.5176 9.83629 36.3019
87 1 18.0071 9.71254 36.8481
356 1 15.8501 6.38063 37.9538
84 1 15.9543 9.10272 37.1645
99 1 15.3478 8.37465 37.6546
85 1 16.8492 9.11548 36.8739
83 1 16.0675 10.1369 37.1058
86 1 17.0588 10.0561 36.8613
358 1 15.6993 8.08253 38.5789
95 1 14.9656 9.47721 37.305
357 1 15.4453 7.15678 38.5599
96 1 14.3632 9.04376 37.8487
92 1 16.6734 10.1989 38.9524
93 1 15.9313 10.7925 38.4214
463 1 53.547 48.0224 38.5172
464 1 52.8559 48.1576 37.8519
468 1 54.0208 48.9301 38.0927
466 1 52.7429 49.4838 37.7592
467 1 53.2584 49.1522 38.5829
469 1 53.7616 49.1321 37.3294
465 1 52.8829 48.7169 37.0782
412 1 53.6648 47.8134 37.3106
470 1 54.4745 49.877 37.7484
471 1 54.9091 49.4542 38.5665
414 1 53.4564 47.0844 36.1964
415 1 53.2453 46.6337 35.3044
413 1 53.5293 47.881 36.3438
411 1 53.5605 46.9904 37.8223
488 1 5.94704 58.9744 36.1013
487 1 5.68327 0.0795833 36.0374
123 1 8.21605 0.584524 38.0763
124 1 9.02567 0.878769 38.0909
136 1 4.81243 59.6805 40.5296
338 1 4.3992 59.0486 37.8038
483 1 4.08792 0.31349 39.1795
339 1 5.52729 59.0472 37.8971
374 1 6.38917 59.7976 40.5207
340 1 6.51112 59.1325 38.1596
133 1 6.15756 0.306155 38.4951
128 1 8.13795 1.16067 35.7935
375 1 7.3777 0.0341113 40.5392
482 1 3.60633 59.9041 39.9777
481 1 4.02852 59.2588 39.2168
135 1 4.98711 59.6514 39.6952
134 1 5.77389 59.5907 39.0311
127 1 8.99349 1.41765 36.0438
354 1 16.7125 6.07326 37.3185
353 1 16.5772 6.98005 37.1078
345 1 18.2548 7.79517 36.2645
89 1 17.4647 8.63903 38.4258
88 1 18.1111 8.97224 37.6517
352 1 16.0413 7.6544 37.6002
351 1 16.5919 8.09713 37.1207
344 1 17.4144 7.27962 36.4594
90 1 17.2026 9.51308 37.8269
350 1 16.5112 8.64628 37.9684
346 1 18.0973 7.83654 37.3499
347 1 17.4192 7.73282 37.9007
360 1 14.1872 8.13844 38.8156
359 1 15.1685 8.08647 39.2931
94 1 15.4886 10.1141 37.9402
91 1 16.2705 9.59207 38.2228
348 1 16.856 7.76648 38.5952
461 1 54.0884 48.6099 39.6997
401 1 53.0867 48.439 39.3989
462 1 54.4759 48.0151 38.9335
409 1 54.6958 47.5524 38.0156
407 1 55.2907 46.9228 38.6705
406 1 55.6836 47.7921 38.6818
408 1 54.415 46.5858 38.4983
473 1 55.2461 49.4289 39.606
472 1 55.4464 50.106 38.8717
410 1 54.3629 46.7671 37.3729
498 1 8.33009 59.3602 36.5256
363 1 9.06255 58.3955 37.6858
362 1 8.31392 58.3812 37.1412
361 1 7.40328 58.5406 37.4523
490 1 5.28809 58.379 37.2369
495 1 7.27323 59.5147 36.0687
496 1 6.94092 59.4493 36.917
499 1 9.04205 59.3495 37.0436
497 1 7.74728 59.9558 37.1027
365 1 8.54455 59.2509 37.9909
489 1 5.85011 59.2216 37.0381
491 1 5.66779 57.4231 37.5256
121 1 8.22665 1.81267 38.3626
366 1 7.52748 59.6242 38.0718
122 1 7.75875 1.28585 37.5563
500 1 9.84883 59.3686 37.5031
378 1 8.64818 0.899063 39.0296
377 1 7.72449 1.31816 39.1706
328 1 6.58555 55.8361 39.0951
140 1 4.52535 58.1286 41.7039
137 1 4.72897 58.7708 40.1864
138 1 5.29936 58.7185 41.0069
139 1 5.30054 57.7627 41.1247
373 1 6.72709 0.727888 40.3481
376 1 7.77543 0.842855 40.0288
349 1 16.6219 8.65064 38.9662
402 1 53.4366 47.6869 39.73
403 1 54.2627 46.987 39.6408
480 1 54.4624 50.5809 38.6751
479 1 54.44 50.1379 39.6299
475 1 54.7116 48.7789 40.5202
476 1 53.6398 48.762 40.7668
404 1 54.7113 47.8652 39.9554
405 1 55.554 48.132 39.6503
474 1 54.9175 49.6825 40.5797
494 1 7.44726 58.6165 36.3048
364 1 8.52372 58.3061 38.3809
493 1 7.27602 57.6856 36.7058
333 1 6.32674 56.8875 38.5679
368 1 7.54585 58.0187 39.179
334 1 6.66433 57.7128 38.8168
369 1 8.4419 58.1698 39.5724
380 1 8.08446 0.0846204 39.174
492 1 6.19279 57.5495 36.6887
332 1 6.80996 57.1662 37.6331
335 1 5.76566 58.2899 38.656
337 1 4.87044 58.8005 38.699
336 1 5.02454 58.0621 39.3271
367 1 7.58282 58.7531 38.4884
371 1 7.56978 59.2425 39.5798
370 1 8.3173 59.0757 39.0356
372 1 6.86442 0.0719063 39.5509
379 1 9.17221 0.0275191 39.033
329 1 7.41312 56.3463 39.2277
327 1 6.18975 56.1404 39.9537
326 1 5.94259 56.9804 40.4816
325 1 6.76326 57.2422 39.83
321 1 5.98968 58.7595 39.7224
190 1 53.5153 50.2135 38.5618
189 1 53.3403 50.9621 38.0698
477 1 53.6678 49.5591 40.1118
478 1 54.0516 49.5169 39.2326
182 1 53.9394 51.2703 40.5812
186 1 52.0015 51.3328 40.244
185 1 52.8818 51.1478 40.5092
188 1 52.7973 51.2563 38.8526
200 1 56.8645 53.7753 38.9525
204 1 55.2483 51.8953 40.5821
203 1 55.3563 52.6251 41.2335
183 1 54.0308 52.1599 40.4665
184 1 53.0307 51.9024 40.0949
198 1 55.8492 52.7444 39.271
197 1 56.0077 51.8067 39.6879
199 1 55.77 53.666 39.0921
205 1 55.8234 52.7017 40.3129
206 1 55.7731 53.6883 40.8334
196 1 56.1874 50.8373 39.9869
209 1 57.1494 51.8201 39.7069
218 1 58.4364 52.9306 41.3176
207 1 56.5323 53.7004 40.0949
208 1 56.8646 52.7922 39.8073
330 1 7.69487 56.8927 38.4014
331 1 7.7749 57.5663 37.683
324 1 7.67165 57.2112 40.0007
323 1 7.16116 57.8968 40.5192
322 1 6.30591 58.3433 40.6325
191 1 53.0269 50.0342 39.5218
187 1 52.2471 50.8144 39.4403
193 1 54.3127 51.3661 39.514
192 1 53.5911 50.7591 39.5019
202 1 56.1394 52.0782 41.2901
181 1 53.5189 51.4851 41.487
195 1 55.1557 51.0713 39.9233
194 1 54.9331 52.0959 39.4433
201 1 56.83 51.4828 40.639
213 1 56.7414 53.1343 41.0027
214 1 56.4096 53.4292 41.9014
212 1 57.1735 52.2623 41.5779
211 1 57.5866 52.2944 40.6875
210 1 57.8904 52.2935 39.6302
216 1 57.5872 53.7816 42.0809
215 1 56.8063 54.1729 41.4781
220 1 57.6142 53.6627 40.9121
219 1 58.5297 53.6436 40.4694
217 1 57.8594 53.035 41.9757
60 1 50.4102 31.6588 44.3589
59 1 50.8604 30.9085 44.1821
47 1 49.8557 30.4013 44.4672
49 1 48.8392 31.7914 43.8462
55 1 49.1539 29.7843 43.5829
56 1 50.1658 29.7653 43.2778
58 1 50.2726 31.3483 43.399
53 1 48.5173 28.8583 44.2868
52 1 48.2201 29.5413 44.7656
48 1 49.242 31.1744 44.536
51 1 48.5192 30.4339 44.3132
50 1 48.57 30.9934 43.5393
57 1 49.6975 30.5951 43.337
42 1 47.0557 30.543 45.3258
45 1 48.5795 30.7884 45.3133
46 1 49.1435 30.1619 45.0751
41 1 47.4813 30.1674 44.544
54 1 49.5068 29.144 44.2728
43 1 46.8907 31.5559 45.3464
44 1 47.7415 31.1496 45.7295
69 1 19.831 53.2744 44.8898
67 1 19.3111 54.2346 46.2032
68 1 20.0689 53.6628 45.8807
61 1 21.2863 56.8127 44.8719
66 1 19.2681 54.5478 45.261
20 1 59.0958 58.5752 49.4912
71 1 19.8722 54.1669 43.3949
70 1 19.8058 53.908 44.3219
80 1 19.8826 56.2239 46.5201
77 1 20.9112 56.3636 45.8568
76 1 20.5413 55.357 46.0294
75 1 20.897 54.5292 45.6438
74 1 20.7341 54.1707 44.8875
73 1 20.9035 53.6593 43.9472
72 1 20.6915 54.5545 43.7546
65 1 20.0565 54.8894 45.2083
64 1 21.0325 55.3188 44.8942
62 1 21.836 56.1182 45.0356
63 1 21.9087 55.306 44.324
19 1 59.0038 59.3621 50.1471
13 1 57.1092 58.4719 52.2095
79 1 19.5676 56.2025 45.6328
78 1 20.2536 56.5824 45.2002
1 1 57.2022 0.568205 53.9407
2 1 57.1797 0.0846592 53.0488
3 1 58.1138 59.9784 53.0784
11 1 57.1855 59.1491 51.2729
12 1 57.0079 59.5231 52.1483
4 1 58.5655 59.9711 52.2216
10 1 57.2721 59.0378 50.2835
16 1 57.8735 58.2862 51.3746
18 1 59.1403 59.8245 51.0516
15 1 58.4763 58.3073 52.1301
14 1 57.9651 59.0294 52.348
9 1 57.432 0.13591 50.2534
7 1 57.7235 0.898454 50.8833
8 1 58.419 0.382601 50.3538
6 1 57.7372 0.206658 51.4563
5 1 58.4711 0.590473 51.6121
17 1 58.4254 59.1492 51.426
434 1 16.0389 51.39 55.6973
422 1 13.6353 50.1426 58.3122
421 1 13.9291 49.3552 57.8291
432 1 16.8265 51.2822 56.5898
431 1 16.9271 50.4497 56.2034
309 1 13.74 51.0851 55.8174
310 1 14.3868 50.9619 56.6965
437 1 15.2983 51.5237 56.4255
308 1 13.1914 51.5414 56.3508
435 1 15.9004 50.5563 56.0121
438 1 15.8858 51.6559 57.2327
433 1 16.2482 52.0979 56.3398
436 1 15.0348 50.8915 55.8114
302 1 16.3392 53.7317 56.1371
301 1 16.0112 53.8083 55.2341
427 1 17.615 51.3124 57.2304
430 1 17.1472 50.8112 55.3919
312 1 13.1704 51.1826 58.2516
313 1 13.4957 52.185 57.9972
426 1 17.1185 50.5308 57.3063
425 1 16.0357 50.6379 57.1256
423 1 14.3259 50.1796 57.5658
424 1 15.1274 50.7948 57.3855
429 1 17.5138 51.7259 55.6819
311 1 13.8606 51.1601 57.5377
314 1 13.798 52.0736 58.958
307 1 13.7719 52.2099 55.9277
306 1 13.7375 52.5462 56.958
315 1 14.4205 52.637 58.7143
439 1 16.2967 52.1581 57.9354
317 1 15.3936 52.1105 58.8402
316 1 15.1854 52.99 58.5005
102 1 40.6112 51.5176 55.7299
103 1 41.1215 50.5888 55.4598
304 1 14.9839 53.7929 57.0909
305 1 14.3794 53.0782 57.4661
440 1 16.6364 52.4797 57.1421
303 1 15.4378 54.0159 56.2138
110 1 42.3743 52.1036 57.2693
101 1 41.1362 51.5322 54.9345
428 1 17.8547 51.0416 56.3344
108 1 42.0401 51.0032 57.1528
107 1 42.9574 50.6424 56.8008
104 1 41.9012 49.8156 55.4772
318 1 14.8528 51.4523 58.4332
109 1 42.7941 51.3474 57.6611
119 1 43.373 51.2202 56.0694
120 1 44.1192 50.6447 55.765
105 1 41.8255 50.1953 56.3367
115 1 42.7427 50.9373 53.9154
113 1 42.2697 51.5381 54.8493
112 1 42.2335 50.9492 55.5996
114 1 41.8567 50.7907 54.265
320 1 15.236 52.5375 57.2614
319 1 14.6586 51.802 57.527
111 1 42.4432 51.7454 56.3497
117 1 43.3171 51.0854 55.0258
106 1 42.8463 50.1433 56.0606
116 1 42.6629 50.3983 54.7698
118 1 43.1943 51.9865 55.4138
ITEM: TIMESTEP
44000
ITEM: NUMBER OF ATOMS
500
ITEM: BOX BOUNDS pp pp pp
0.0000000000000000e+00 6.0000000000000000e+01
0.0000000000000000e+00 6.0000000000000000e+01
0.0000000000000000e+00 6.0000000000000000e+01
ITEM: ATOMS id type x y z
141 1 9.00351 8.18749 5.27086
147 1 8.11526 9.91174 5.74087
148 1 8.74913 9.74533 4.87917
154 1 9.044 9.25178 3.28074
142 1 8.66816 7.42608 4.8825
146 1 8.04684 10.6327 5.0542
145 1 7.64136 9.8247 4.71935
150 1 8.47896 8.41154 3.62888
153 1 9.42178 9.70499 4.05396
149 1 8.57842 8.96371 4.41424
159 1 7.71681 9.27887 3.68963
160 1 8.15819 10.0692 3.784
152 1 9.59883 8.88706 4.58928
155 1 8.77895 9.7549 2.65733
156 1 8.18517 8.99235 2.43985
144 1 7.58429 8.9443 5.15474
157 1 7.27334 8.50697 2.4703
143 1 8.03549 8.14545 4.54877
158 1 6.97471 8.77215 3.39175
151 1 9.21656 8.03241 4.30183
290 1 37.921 57.8163 10.0714
291 1 38.7164 57.9882 10.7702
292 1 39.1863 57.0774 10.4274
289 1 38.1457 58.4181 9.40833
293 1 38.9461 57.7344 9.6471
261 1 31.3486 2.89844 12.4763
262 1 31.1263 3.46186 11.8618
263 1 30.7455 4.34038 12.2191
271 1 30.2418 6.16071 11.4473
270 1 31.2145 6.39974 11.3172
287 1 37.1526 58.8068 8.32374
286 1 37.4473 57.9927 8.64438
285 1 37.6551 57.0841 8.24883
283 1 38.6685 58.1788 8.40531
288 1 38.0337 59.0378 8.67374
284 1 38.0716 57.8453 7.72771
281 1 38.6052 56.3835 7.88759
282 1 38.8845 57.2327 8.30467
298 1 36.7295 57.9548 7.90264
297 1 36.4468 57.0092 8.15851
300 1 36.3272 56.5755 7.09918
299 1 36.1326 57.475 7.29628
294 1 38.205 57.3771 9.15385
460 1 59.1636 59.5926 11.1218
296 1 36.7958 57.2879 9.00554
295 1 37.5215 56.7853 9.4427
395 1 30.3439 3.16232 13.4462
397 1 30.5532 1.88503 12.7879
394 1 29.7648 2.41027 13.4384
393 1 28.8703 2.0932 13.099
396 1 30.9618 2.42826 13.5244
398 1 29.9613 2.60104 12.3999
272 1 29.5647 5.46608 11.8366
265 1 31.5524 4.53371 11.3313
264 1 30.6434 4.83966 11.255
269 1 31.0915 5.70842 12.0396
266 1 31.7763 5.03562 12.135
447 1 58.2836 58.8648 11.6289
446 1 58.9959 58.496 11.3484
445 1 58.6996 57.573 11.4771
444 1 58.0561 56.8044 11.2504
458 1 59.746 58.4129 10.5476
459 1 59.9628 59.2362 10.9097
457 1 59.7795 57.6519 11.1108
443 1 58.0941 57.0954 10.3383
442 1 58.3967 56.2533 10.3284
399 1 29.7589 2.46678 11.4259
392 1 28.7928 1.97767 14.1274
390 1 28.847 3.48499 14.6737
391 1 29.0224 2.59429 14.694
386 1 27.194 4.44875 13.7468
400 1 30.1893 1.62125 11.5889
384 1 28.0738 2.9293 13.1808
383 1 28.962 3.13275 13.62
382 1 29.6828 3.96675 13.4525
274 1 28.9966 4.51082 12.9834
381 1 30.6666 4.4386 13.5065
273 1 29.6485 4.64916 12.4852
280 1 27.4075 5.73153 13.1661
268 1 31.8966 5.94384 12.5921
278 1 27.93 4.96913 11.8596
275 1 28.669 3.5566 12.7045
267 1 32.2165 5.81697 11.6413
449 1 58.3354 0.438207 10.5524
450 1 58.7937 0.797567 9.80086
451 1 58.1758 0.479362 9.08643
452 1 58.2998 59.7042 9.55434
448 1 58.1765 59.5946 10.9114
454 1 58.5416 58.2534 10.4416
455 1 58.8436 57.6954 9.57916
456 1 59.1491 57.153 10.3947
441 1 59.1004 56.4045 11.1578
385 1 27.8871 3.83496 13.407
389 1 29.5166 4.1083 14.5431
388 1 28.7222 4.34739 14.0067
387 1 27.9435 4.97481 13.9343
276 1 29.1758 3.71367 11.9474
277 1 28.2437 3.99444 11.5663
279 1 27.7337 4.78267 12.8935
453 1 58.929 59.1305 10.0567
234 1 35.3734 9.69604 19.4867
236 1 33.825 10.2732 18.9372
230 1 35.2131 8.90486 21.9035
232 1 34.6292 9.61286 20.6514
233 1 34.3947 10.0227 19.7584
228 1 35.0142 10.7918 21.182
260 1 52.3214 7.62758 17.7252
225 1 35.9454 9.12296 20.8703
242 1 51.082 8.4127 17.2336
243 1 51.7875 8.78043 17.8763
235 1 34.8893 10.0005 18.732
239 1 34.8891 8.11288 20.4536
237 1 33.9857 9.16225 19.1203
238 1 34.2722 8.73728 19.8983
231 1 34.6115 8.79079 21.1397
229 1 35.0909 9.98083 21.7097
258 1 51.443 7.60439 16.5191
227 1 35.8122 11.0488 20.9196
221 1 37.6074 6.61025 20.2347
255 1 49.9432 8.29428 17.709
256 1 49.6704 7.65399 17.317
257 1 50.5365 7.25806 17.0633
259 1 52.0265 7.02448 16.9812
226 1 35.9962 10.0872 20.7817
223 1 37.0117 7.32447 21.3196
224 1 36.5043 8.11307 21.1479
222 1 36.6518 6.96079 20.5403
244 1 51.4226 9.62633 17.5263
245 1 51.8331 9.30672 16.5999
241 1 51.0551 7.74112 17.9084
174 1 54.4185 11.0663 18.0689
251 1 51.7768 9.58999 18.6378
252 1 51.2934 9.17802 19.4103
175 1 54.1547 10.3913 17.4148
176 1 53.6073 10.4034 16.409
173 1 53.2717 11.0468 18.342
172 1 52.5779 11.4626 17.7058
177 1 53.1514 10.6641 17.3164
248 1 51.9819 10.494 17.0738
249 1 52.525 9.59684 17.369
250 1 52.4193 10.1311 18.1186
178 1 53.697 11.4242 17.2792
171 1 52.2021 12.4 17.9327
240 1 35.5219 8.72396 19.8469
246 1 52.1298 9.63247 15.6643
254 1 50.4926 9.11278 17.6778
253 1 50.6357 9.43699 18.6645
165 1 51.3709 10.5234 18.884
168 1 52.7005 11.3353 19.8365
169 1 52.3868 11.2939 18.964
247 1 52.4329 10.3231 16.2701
163 1 51.527 11.4413 18.0617
161 1 50.1647 11.4382 18.9031
162 1 51.1594 11.7498 18.7829
170 1 52.5664 12.1911 18.7381
179 1 52.9483 11.3171 16.5315
180 1 51.9695 11.4425 16.3717
167 1 51.5973 11.2413 19.8982
166 1 52.0228 10.2888 19.5006
164 1 50.8016 10.7916 18.1191
27 1 47.4845 1.81555 31.4674
26 1 48.438 1.951 31.8699
29 1 48.8422 0.579102 32.2563
28 1 48.0116 0.930608 31.8838
38 1 46.8142 0.494511 32.6547
30 1 49.3232 0.585341 33.1286
31 1 48.579 0.196446 33.5494
32 1 47.7937 0.404983 33.0558
39 1 46.6719 1.38659 33.2388
25 1 48.4032 1.52214 32.7541
21 1 47.998 2.41913 33.693
22 1 48.7799 2.68274 33.3998
34 1 48.4173 59.5927 31.8501
35 1 47.461 59.925 31.6523
33 1 48.1699 59.4835 32.871
36 1 46.9293 59.4887 32.4097
40 1 47.2094 1.46162 32.4013
37 1 47.0522 59.7668 33.2917
24 1 48.724 1.57814 33.758
23 1 49.57 2.17483 33.6342
420 1 51.8221 48.4263 38.1269
419 1 52.0189 47.7405 38.7291
417 1 50.9522 47.4457 40.0389
418 1 51.349 47.0213 39.2242
415 1 50.0573 48.6845 38.8926
416 1 50.6182 48.1496 39.4486
487 1 4.78352 0.275019 38.0362
130 1 4.12335 0.602641 39.7934
486 1 4.45282 59.2429 38.0422
129 1 4.82055 0.959179 39.2809
126 1 6.12064 0.507687 39.485
128 1 5.64126 0.81038 38.5501
127 1 6.69538 0.670345 38.636
353 1 14.1648 6.63643 37.0097
98 1 13.735 6.82401 38.0454
341 1 13.5153 8.25405 35.7512
342 1 13.9268 8.96524 36.1967
351 1 14.9221 7.3633 37.5575
343 1 13.8913 9.82485 35.7145
345 1 14.5039 8.18812 35.4425
344 1 14.1417 9.06113 35.0668
97 1 13.1904 7.56166 38.0275
82 1 12.833 7.79704 37.0794
85 1 14.1842 8.16579 38.2534
87 1 14.3158 9.21371 39.1141
81 1 13.8218 7.60636 37.2232
83 1 13.3054 8.65878 36.9327
86 1 13.6082 8.44076 39.0195
414 1 50.78 48.894 38.3123
413 1 51.2002 49.7109 38.6903
465 1 52.5169 50.8917 38.8297
492 1 7.07986 59.3101 36.5645
493 1 7.89562 59.823 36.1687
488 1 5.61371 59.9345 37.6906
496 1 6.65197 59.7237 37.5548
489 1 4.93392 59.4908 37.2032
498 1 8.153 0.62907 37.4999
495 1 6.34018 0.251046 36.991
497 1 7.5417 59.9392 37.2112
494 1 6.93385 0.35731 36.3148
499 1 7.51108 0.911423 38.1008
485 1 3.68823 58.8175 38.5482
131 1 4.59511 59.9187 39.2507
132 1 5.1026 59.1087 38.8052
133 1 4.63135 58.1713 38.4992
123 1 7.23607 59.838 38.5096
122 1 6.25673 59.7507 38.671
125 1 6.65479 0.00446418 39.936
124 1 7.42247 59.7929 39.4573
121 1 5.75774 59.6091 39.4304
355 1 15.3332 5.80596 38.1833
356 1 15.577 6.86908 38.3596
354 1 14.9418 6.19197 37.3606
100 1 14.6204 5.43119 38.9935
99 1 14.2764 6.21967 38.2906
357 1 16.0085 6.18234 39.0517
358 1 15.4032 5.64858 39.7182
352 1 14.9319 7.28686 36.5349
346 1 15.2708 8.82862 35.4884
347 1 15.4326 8.43865 36.3565
95 1 13.2852 7.46687 39.965
96 1 13.6115 7.41963 38.9667
84 1 13.3519 8.79806 37.9675
350 1 15.3167 8.28748 37.935
91 1 14.7913 8.8649 40.201
89 1 15.4798 9.76227 38.5749
88 1 14.7589 9.19049 38.2313
90 1 15.1995 9.44031 39.5346
94 1 14.2494 7.58984 39.7824
93 1 14.7191 7.35272 38.9925
411 1 51.4942 49.6756 39.7711
408 1 51.9983 48.3443 40.0427
410 1 51.1878 48.8742 39.27
463 1 52.1388 51.2761 39.9482
464 1 51.6272 51.0003 39.0608
412 1 52.0909 49.8534 38.8949
409 1 51.0306 48.6614 40.2303
466 1 52.9016 50.3598 38.3221
468 1 52.7073 49.1211 38.4868
467 1 52.6296 49.6603 37.812
469 1 53.6215 49.0697 38.2291
470 1 54.5739 49.4529 38.4763
471 1 55.3221 50.0706 38.4268
189 1 54.7944 53.1643 38.9857
333 1 8.01835 57.8487 37.6187
330 1 9.88547 57.5885 37.8591
490 1 5.21407 58.9755 36.5614
491 1 6.14484 59.1035 36.9074
332 1 8.7692 58.5102 37.9389
362 1 8.97117 59.2615 36.6347
364 1 8.42127 59.7176 37.9862
331 1 9.67487 58.6351 37.8841
363 1 9.26278 59.4302 37.5327
338 1 5.41773 58.8205 37.7157
339 1 6.11181 58.6103 38.3967
340 1 6.92285 58.8449 38.9641
361 1 8.1008 58.9836 37.2458
365 1 8.26799 59.3725 38.8006
366 1 7.86637 58.7435 38.2642
367 1 7.46704 57.9533 38.7934
500 1 8.16902 0.636381 38.863
483 1 3.95393 57.3346 39.5874
484 1 3.63377 57.9502 38.9731
372 1 6.03892 58.5844 39.6757
377 1 4.42042 58.2978 39.8271
380 1 2.31537 0.0196933 40.4314
378 1 3.86829 59.0405 40.1159
379 1 2.91582 58.99 40.538
360 1 14.3141 6.29601 40.0723
359 1 14.9832 6.548 39.4376
348 1 15.9001 7.92571 36.9213
349 1 16.0967 7.69241 37.7735
92 1 14.745 8.30255 39.4237
403 1 53.8419 50.3441 38.8135
407 1 52.4992 49.0457 39.4843
401 1 53.6569 51.3821 38.5741
402 1 54.0692 50.8006 37.9508
462 1 52.3479 50.2712 40.2039
406 1 53.4216 49.0817 39.6204
404 1 54.2136 49.6352 39.3413
405 1 53.6266 49.8633 40.2063
461 1 53.1563 50.4608 39.5886
478 1 55.5518 51.3134 38.1643
473 1 56.1925 49.6815 38.9445
188 1 54.8563 52.2689 38.5802
187 1 55.8033 52.4562 38.2451
190 1 54.6455 53.8821 38.3552
191 1 55.1282 53.3837 37.6462
192 1 55.7381 53.4936 38.3516
472 1 55.2675 49.5001 39.3053
480 1 56.1988 51.9665 36.4687
479 1 56.1246 51.4718 37.2782
193 1 55.6953 53.26 39.416
195 1 56.6436 51.7684 38.9435
196 1 56.9367 52.4069 39.5198
194 1 55.8156 52.308 39.2333
198 1 57.9885 51.6797 38.5949
197 1 57.8788 52.5802 38.974
208 1 57.5226 51.0234 39.5354
209 1 57.3515 50.6732 38.6413
210 1 57.6175 49.9576 38.0329
200 1 58.6699 50.4594 38.5709
199 1 58.7214 51.2454 39.0506
328 1 9.33689 56.8716 36.7965
327 1 8.5851 56.1355 36.8339
329 1 9.29062 57.9123 37.1504
336 1 6.2971 58.0849 37.2597
334 1 7.08067 57.7271 37.8169
335 1 6.91028 58.72 37.7322
325 1 7.58843 56.7909 37.2808
368 1 8.39602 57.921 38.9109
369 1 7.97138 57.6321 39.6454
482 1 3.97632 56.4142 39.7132
481 1 3.36111 56.7293 38.9368
135 1 5.31523 57.4826 38.8579
337 1 5.46682 57.8406 37.8238
134 1 4.42303 57.1342 38.5856
321 1 6.55144 57.2599 38.9456
371 1 7.071 58.1199 39.7481
370 1 8.03713 58.6042 39.7442
373 1 5.34987 58.0107 39.6467
376 1 4.96341 59.1563 39.9036
476 1 55.1665 51.2593 39.2592
477 1 56.0365 50.8748 38.8329
475 1 54.9328 50.4775 39.9036
474 1 55.7631 50.3149 39.6688
186 1 56.2883 52.5007 37.4169
182 1 56.7054 53.6578 37.5182
185 1 57.166 51.9717 37.2912
183 1 56.8901 52.8627 38.0816
184 1 57.4536 52.726 37.3323
204 1 56.7996 50.4427 40.3921
203 1 56.425 49.5991 40.1986
205 1 56.4987 51.1288 39.7281
202 1 57.0992 49.9688 39.5668
201 1 57.567 49.1547 40.1372
211 1 58.1808 49.4777 38.6455
206 1 56.79 51.7304 40.5087
207 1 57.6915 51.8146 39.9351
213 1 58.7375 50.3243 40.1106
218 1 59.7141 52.4867 38.5522
220 1 58.4774 52.6667 39.9081
219 1 59.0492 52.2834 39.1802
326 1 8.50113 56.8689 37.4725
139 1 4.5424 56.3278 41.3456
323 1 5.65482 56.9643 37.1842
322 1 6.23286 56.9528 38.0016
324 1 6.72369 57.0519 36.9154
136 1 5.50745 57.0448 39.8071
137 1 4.77855 56.3878 40.2658
138 1 5.54493 56.5445 40.8579
374 1 4.92996 57.6365 40.5929
375 1 4.86402 58.6534 40.7777
181 1 56.9012 53.9954 38.4768
212 1 58.2243 49.914 39.3979
214 1 59.5206 50.5485 39.5502
215 1 59.4415 51.4318 39.9272
216 1 -0.0392456 51.5407 39.0998
217 1 59.3105 51.6541 38.2911
140 1 4.03429 56.8748 41.8241
53 1 52.0781 31.0724 43.5045
55 1 51.0824 31.4432 43.7634
56 1 50.8483 30.8426 44.5853
50 1 51.6275 30.6497 45.4666
57 1 50.4409 30.0041 44.3653
59 1 50.3501 28.1704 44.0591
58 1 50.7303 29.0475 44.4907
49 1 50.9295 29.8154 45.5739
71 1 19.5675 54.5856 41.706
73 1 21.3948 54.035 41.7853
72 1 20.5662 54.5065 41.3755
63 1 19.398 55.0821 42.8414
52 1 52.738 30.5603 43.9521
54 1 51.8148 31.5329 44.3809
42 1 50.2918 33.5077 45.0667
51 1 52.0472 30.4128 44.6006
45 1 49.8589 31.6483 45.7818
41 1 50.5389 33.3834 45.9756
44 1 50.6467 32.2237 45.4083
47 1 50.6624 31.0436 45.531
48 1 49.9746 30.3103 45.4085
46 1 49.8702 31.3216 45.0053
43 1 49.8264 32.7063 45.661
60 1 49.8429 27.3493 44.125
69 1 20.6546 53.3958 42.5282
70 1 20.1408 53.9542 42.0735
74 1 21.537 54.881 42.2464
66 1 20.2786 54.8836 43.423
75 1 21.2188 55.4893 42.7933
65 1 19.8341 53.9788 43.1015
64 1 18.7936 54.2816 42.8184
79 1 21.0451 56.2043 40.7629
61 1 18.3113 55.4095 43.7466
78 1 20.8968 55.8882 41.5591
62 1 19.2164 54.9296 43.8887
67 1 20.8629 54.0268 43.3807
68 1 20.4921 52.985 43.5159
76 1 20.3811 55.2907 42.2692
80 1 22.0349 56.3348 40.4745
77 1 20.0575 55.3906 41.377
20 1 54.1103 58.954 56.0595
9 1 54.7484 59.7047 53.4206
7 1 54.8731 59.8891 54.4473
8 1 55.4422 59.2497 53.8029
16 1 53.9222 0.785114 54.0365
11 1 54.6212 0.81263 52.3381
10 1 54.0824 0.107993 52.9802
17 1 53.615 59.7826 53.8575
19 1 53.9694 59.6855 55.3368
18 1 53.087 0.0432933 54.7186
6 1 55.1146 0.701971 54.0396
5 1 55.6244 0.589717 53.1361
13 1 54.4816 2.01445 52.5619
15 1 54.3509 1.63814 54.3153
12 1 54.2485 1.2165 53.1339
4 1 55.8623 1.37652 53.4735
14 1 54.8722 2.03464 53.4594
2 1 55.3928 2.52362 52.68
1 1 55.3585 3.14127 51.812
115 1 40.4367 51.6313 54.1134
114 1 40.9322 52.2945 54.6995
3 1 55.5538 1.49447 52.6449
104 1 41.3349 50.4748 54.6178
434 1 13.9095 51.997 56.266
430 1 15.1848 51.893 56.5604
103 1 42.1554 50.455 54.133
112 1 41.5686 51.351 53.9546
116 1 40.7275 51.2138 53.1959
117 1 40.159 50.5986 53.7216
429 1 15.8398 52.4329 56.8255
101 1 42.7938 51.4958 54.4872
113 1 41.868 52.1367 54.5683
118 1 40.4522 50.3743 52.7047
301 1 13.954 54.2391 56.9044
309 1 12.75 51.6875 58.2066
310 1 13.1999 50.7323 58.2117
436 1 13.9565 53.3016 57.2021
432 1 14.2361 52.9164 55.4572
431 1 14.7571 52.649 56.318
435 1 13.2997 52.487 56.8858
425 1 14.8074 51.6596 57.7768
428 1 15.7323 51.9029 57.6456
105 1 41.127 50.3825 53.6983
107 1 41.5831 51.4121 52.5163
119 1 40.8864 49.4979 53.0117
120 1 41.4641 50.1243 52.2658
106 1 41.8226 50.7541 53.1172
308 1 12.1234 52.1516 58.9263
307 1 11.7583 53.0978 59.1826
306 1 11.5005 53.6603 58.321
437 1 14.6803 53.4582 57.8594
433 1 13.3345 52.7419 55.9053
102 1 42.8073 50.9835 53.556
111 1 41.4252 52.0598 53.3002
304 1 12.3493 53.4962 57.7405
303 1 12.521 53.3556 56.7888
302 1 12.9447 54.2997 57.2545
421 1 13.2483 53.2686 0.452823
422 1 14.0198 53.4287 59.688
312 1 14.2069 51.9224 59.2997
311 1 14.0226 51.3559 58.4429
423 1 14.7446 52.7263 59.3819
424 1 14.8116 52.4201 58.4752
426 1 14.1591 52.0171 57.3375
427 1 15.0858 52.5455 57.3696
108 1 42.5443 51.0554 52.3598
109 1 42.4416 51.9181 52.7312
313 1 13.6798 52.3784 0.0391065
318 1 13.9713 53.4216 58.6114
320 1 12.7714 52.7294 58.3386
319 1 13.6984 52.6624 58.0769
438 1 15.2 53.5451 58.7089
439 1 14.7179 54.1187 59.4095
440 1 13.8165 54.372 59.2127
110 1 42.3804 52.0482 53.7203
316 1 12.4125 54.2357 59.229
305 1 12.1122 54.3763 58.1635
314 1 13.3909 52.4992 59.0818
315 1 13.0443 53.4509 59.2153
317 1 13.2357 54.1987 58.4366
ITEM: TIMESTEP
45000
ITEM: NUMBER OF ATOMS
500
ITEM: BOX BOUNDS pp pp pp
0.0000000000000000e+00 6.0000000000000000e+01
0.0000000000000000e+00 6.0000000000000000e+01
0.0000000000000000e+00 6.0000000000000000e+01
ITEM: ATOMS id type x y z
313 1 13.3136 52.59 0.352481
421 1 13.3962 56.428 0.0665247
157 1 9.93073 9.17288 5.32439
156 1 10.2345 10.1311 5.15489
155 1 9.30835 10.3232 5.10685
150 1 9.72169 9.38163 4.23136
158 1 10.5837 9.14681 4.68218
159 1 10.8658 9.32294 3.87076
154 1 9.61795 10.4665 6.07704
153 1 9.08708 9.59988 6.23308
160 1 10.0858 9.48909 3.23893
143 1 11.1198 8.22017 5.06454
141 1 9.25611 7.64233 4.39977
142 1 10.0467 8.10762 4.95828
151 1 9.18952 8.68624 4.80654
145 1 11.8168 8.82255 4.32377
144 1 11.9457 7.81831 4.62418
148 1 10.6611 7.94685 4.15571
149 1 10.028 8.49003 4.03503
152 1 8.99804 8.81987 5.7218
146 1 11.9459 8.6189 3.41118
147 1 11.051 8.22453 3.32526
300 1 38.6937 59.3504 8.58501
297 1 39.557 58.4557 8.53247
285 1 36.2292 57.4141 9.35338
281 1 38.2623 58.5267 9.49518
298 1 39.4212 59.0984 7.77909
299 1 39.7365 59.4897 8.55782
284 1 36.8707 57.0985 9.99402
283 1 37.58 57.4835 9.44452
282 1 37.4728 58.2362 10.1009
287 1 36.572 56.6095 8.61624
451 1 2.3562 57.9966 10.964
450 1 2.59924 57.7762 10.0769
295 1 37.7935 58.3049 8.51838
296 1 38.6877 58.361 7.99418
289 1 36.1612 56.9417 7.54959
286 1 36.6882 57.65 8.53461
294 1 37.5156 57.503 7.96278
293 1 37.1505 58.4035 7.69062
455 1 3.16589 59.5404 10.7826
288 1 36.9637 56.4161 7.67412
452 1 2.14102 58.7732 10.3719
449 1 2.12735 57.5168 9.4164
264 1 31.4707 3.13846 12.5004
265 1 32.0835 4.06969 12.6106
270 1 31.5133 4.37694 15.0726
292 1 36.5392 59.0411 7.34541
444 1 1.66525 0.704796 9.81255
443 1 2.23666 1.02848 9.15449
442 1 3.1786 0.63025 8.73173
441 1 2.40405 59.923 8.89516
290 1 36.1469 57.9013 7.68008
291 1 36.4518 58.69 8.35816
454 1 2.27107 59.6224 11.2195
446 1 1.13638 58.7999 9.61364
458 1 2.92817 59.0196 8.66791
457 1 2.79928 59.1397 9.607
456 1 2.95165 0.215404 9.9331
448 1 1.31122 57.8249 9.89039
460 1 1.97904 58.5855 8.13356
459 1 1.9744 58.8643 9.01391
453 1 1.94845 59.745 10.2203
398 1 32.4583 2.84366 15.4485
399 1 33.1347 3.6741 15.5246
397 1 32.631 2.68288 14.4554
400 1 33.2384 3.44766 14.6187
277 1 30.6949 1.99179 11.5626
275 1 30.1873 3.516 12.4402
276 1 30.5598 2.48613 12.4173
261 1 31.629 0.8735 13.9752
262 1 32.1183 1.68902 13.3416
278 1 30.2407 1.51301 12.2606
272 1 30.9427 4.72415 13.8973
273 1 31.3841 4.7404 12.9475
263 1 31.4123 2.2609 12.9188
269 1 31.9533 3.57408 14.6096
266 1 31.9241 3.69272 13.5673
271 1 30.8953 5.15581 14.8098
268 1 32.5747 4.53716 14.6116
267 1 31.9365 4.59232 13.8726
445 1 1.28161 59.7589 9.41828
447 1 0.638954 57.9822 9.10773
394 1 30.8983 2.33563 15.461
393 1 30.6664 2.99402 16.3584
392 1 30.9258 3.45261 15.5488
396 1 31.7885 2.42568 14.1973
384 1 30.1626 2.80833 14.0403
385 1 29.6508 2.69921 13.1633
383 1 30.9356 2.87869 13.5533
382 1 30.5987 3.81017 13.7502
395 1 30.8496 2.09403 14.5181
386 1 29.2067 3.04807 12.5836
387 1 29.3919 3.77899 13.2547
279 1 31.1475 1.23498 12.5941
274 1 30.77 4.03069 12.6598
388 1 28.9391 4.4988 13.8019
381 1 30.984 3.31872 14.5141
280 1 30.7474 0.583536 13.0737
391 1 29.8845 3.75168 15.2845
390 1 29.6199 3.69363 14.3167
389 1 29.8475 4.63779 14.1933
246 1 52.2677 8.70467 15.9665
259 1 52.8036 7.27843 15.071
257 1 51.6549 6.58631 15.7869
258 1 51.8417 7.39964 15.1609
245 1 53.0418 8.5403 16.6956
248 1 52.2474 9.77164 15.7369
247 1 52.6541 9.00192 15.1576
176 1 53.4798 9.68422 15.571
179 1 52.9772 9.7541 14.1662
180 1 53.2342 10.2911 13.463
255 1 51.4791 7.38029 16.4658
256 1 51.2243 6.44655 16.7667
242 1 52.7531 6.87508 16.56
241 1 52.14 7.06962 17.2876
260 1 52.5522 6.44239 15.3578
244 1 53.2447 8.26973 15.6854
254 1 51.5927 8.37435 16.8071
243 1 52.5117 7.75565 16.2551
249 1 52.0054 10.7982 16.1587
164 1 51.061 8.50186 15.6875
250 1 51.1011 10.4897 16.4783
175 1 53.1553 9.67315 16.6044
173 1 53.448 10.7905 15.6999
177 1 54.0875 9.13947 15.0472
178 1 53.8183 10.0596 14.6033
174 1 53.0341 10.5082 16.3915
172 1 52.9002 10.3848 15.0673
171 1 52.1631 10.7415 14.5338
163 1 51.3642 8.7804 14.8485
237 1 37.3338 8.93171 20.5193
238 1 36.9382 8.4851 21.1052
234 1 35.5049 10.2572 21.2601
240 1 36.5459 10.2456 21.6845
252 1 51.5504 9.94229 17.1377
253 1 52.1114 9.12839 16.9074
251 1 51.546 10.9566 17.3418
236 1 36.3514 8.94913 20.2848
233 1 35.6354 10.3604 22.2816
235 1 36.3452 9.90574 20.7373
165 1 51.1701 9.42262 16.1443
161 1 51.7312 9.70198 14.4584
168 1 49.9808 8.76975 15.3233
169 1 50.6553 9.6349 15.2158
167 1 49.7278 9.0612 16.084
166 1 50.486 8.8837 16.6705
162 1 52.0473 8.88149 14.1485
170 1 51.3635 10.4654 15.1341
222 1 34.1604 8.63356 21.6403
221 1 35.1097 8.78753 21.4142
239 1 36.9668 9.28338 21.6341
223 1 34.4841 9.5675 21.7489
224 1 35.0819 9.00453 22.4833
232 1 35.9787 11.1502 22.9083
231 1 36.5554 10.6648 23.2609
225 1 36.0524 9.03227 22.2631
228 1 36.8673 8.77875 23.3919
227 1 36.9196 8.31002 22.5824
226 1 36.0055 7.98627 22.2767
230 1 36.6277 9.92845 22.6366
229 1 36.383 9.65568 23.5687
38 1 48.8657 0.28025 34.1046
28 1 47.5832 0.892218 32.7832
29 1 48.5532 0.481254 32.8618
27 1 47.4092 0.0219549 32.4262
26 1 47.3555 59.1794 32.9911
25 1 48.301 59.1166 32.8922
40 1 50.2269 59.9248 32.8987
36 1 49.1328 1.66705 34.2348
34 1 48.9558 0.870655 35.3677
35 1 49.5998 1.55134 35.12
39 1 49.5218 59.6326 33.5677
32 1 48.1009 1.30277 34.6048
30 1 48.4904 1.15103 33.6122
31 1 48.1788 1.9864 33.911
21 1 46.5412 1.18242 34.1101
22 1 47.4339 0.787203 34.0135
24 1 48.1778 59.0917 33.8987
23 1 47.9332 0.0760237 33.6864
37 1 49.4963 0.88275 33.7436
33 1 47.8178 0.863875 35.4748
345 1 11.5205 8.25424 38.7144
344 1 10.5936 8.59672 38.5039
346 1 11.5182 8.91149 37.942
495 1 5.41293 1.21794 38.3855
494 1 5.25358 0.547371 37.5501
353 1 13.8692 7.72285 38.6299
341 1 11.8092 7.16041 36.8778
82 1 12.7988 6.94483 38.0368
352 1 12.8581 7.96648 38.4201
347 1 11.9575 7.88298 37.6722
348 1 12.4414 8.67141 37.0347
342 1 11.1354 7.92849 37.0605
343 1 10.7231 7.88249 37.9708
83 1 11.9311 6.6791 37.9037
480 1 54.7185 50.393 38.604
323 1 6.82857 57.932 36.3744
324 1 7.25613 58.6347 35.809
328 1 8.4962 58.2951 36.7871
327 1 8.52452 59.224 36.707
490 1 4.85632 59.5357 37.7089
492 1 6.04246 59.7569 37.1888
491 1 5.78713 59.5682 38.1102
493 1 6.24889 0.585653 37.6673
362 1 7.05017 1.14041 38.5539
487 1 4.39461 58.8465 39.1635
498 1 5.48407 1.13752 40.0368
499 1 5.05377 0.741557 39.2334
98 1 12.7942 5.71471 38.0778
99 1 13.204 4.82708 37.7324
355 1 14.2629 6.39009 38.1715
356 1 14.449 6.07867 39.1238
354 1 13.8645 7.24886 37.7955
97 1 12.5822 4.94528 38.6421
85 1 10.9786 6.54868 38.2952
81 1 12.5759 6.45934 37.2219
351 1 13.178 8.13201 37.5427
350 1 13.9041 8.01934 36.7564
349 1 13.262 8.75796 36.7885
84 1 11.7199 6.27391 38.6924
89 1 12.0533 8.2158 39.6007
88 1 11.9336 7.2368 39.9641
420 1 54.1829 52.389 41.9451
414 1 52.4281 52.2906 39.973
468 1 53.2112 51.7162 38.7209
467 1 52.7388 51.233 39.2671
469 1 54.0513 51.7854 38.2194
470 1 54.4531 51.7606 39.2022
210 1 55.9693 49.9452 38.3351
466 1 53.573 51.6149 39.7681
401 1 54.606 52.5908 37.6622
402 1 55.2298 52.284 38.4881
471 1 55.401 51.7997 39.3403
478 1 56.1708 51.0084 37.9668
188 1 55.8671 52.5905 37.7301
187 1 56.4823 52.0346 37.8809
479 1 55.3794 51.0898 38.5984
186 1 56.0443 51.8841 37.0609
183 1 57.3529 52.7403 35.9877
185 1 55.8752 51.9247 36.0975
184 1 56.5154 52.4849 36.4434
218 1 58.4649 48.6715 37.8641
217 1 57.7189 47.9325 38.0529
190 1 57.0457 52.4038 38.6624
191 1 57.7911 52.3713 38.0924
192 1 58.4994 52.3054 37.2176
182 1 57.5098 52.8823 37.0019
181 1 57.7364 53.8234 36.7769
134 1 5.29704 57.0693 38.5752
322 1 7.8786 57.5833 36.1705
325 1 7.51638 59.7101 35.4586
326 1 7.77039 59.7143 36.3697
133 1 4.85368 56.6948 39.4058
337 1 4.73323 58.5724 37.0979
336 1 5.35993 58.3916 36.3369
334 1 6.60102 58.9883 36.6962
333 1 7.10581 59.5838 37.2483
330 1 6.89384 58.3036 37.7923
332 1 7.84208 59.3356 37.9248
329 1 7.57276 58.6521 37.0459
485 1 4.1988 57.6174 38.0515
486 1 4.71357 57.9545 38.7613
488 1 5.2182 58.8129 38.7753
489 1 4.36062 58.7554 38.0931
338 1 5.2163 58.2292 37.8789
496 1 6.09764 0.759013 38.7466
339 1 5.26108 57.3546 37.575
335 1 5.97726 58.2165 37.0989
497 1 6.355 1.29303 39.6193
123 1 4.43858 59.5078 39.9849
364 1 7.02299 59.8718 39.0367
361 1 7.79366 1.10866 37.8066
366 1 5.78678 59.71 39.2908
331 1 7.26856 58.8062 38.4907
363 1 7.41783 0.690789 39.2173
130 1 4.44682 57.4622 40.5313
129 1 5.25725 57.3377 40.9365
128 1 5.38802 58.1049 41.5417
126 1 5.59001 58.8239 40.9582
127 1 5.55084 59.018 41.9204
500 1 4.75299 59.9621 38.8065
100 1 13.5237 4.66038 38.6184
358 1 15.3511 5.06068 38.9573
359 1 14.417 4.97185 39.2465
357 1 14.3719 5.33925 38.2946
86 1 11.5772 7.31931 38.753
95 1 13.4513 6.24399 38.6374
96 1 13.33 5.56053 39.231
94 1 12.6604 6.75361 39.1308
93 1 13.4069 7.17069 39.5308
92 1 13.4779 8.18541 39.5553
87 1 11.1058 7.60046 39.5525
90 1 12.6544 8.86465 39.0273
418 1 52.9255 53.6388 42.4301
416 1 52.1519 52.6195 41.2643
419 1 53.5538 53.1014 41.9666
415 1 52.1017 53.0392 40.2615
413 1 53.2865 52.0979 40.6305
410 1 54.2415 53.9793 40.5661
411 1 53.3508 53.8565 40.061
412 1 53.0692 53.0765 40.6526
407 1 54.3551 52.7653 40.9729
406 1 54.1761 53.1196 40.0327
404 1 55.1657 52.7616 39.9389
472 1 55.8439 51.1151 39.973
473 1 56.3849 50.7237 39.0645
202 1 55.9035 48.4897 39.2815
211 1 56.4586 49.0695 38.5125
212 1 57.3057 48.9188 38.1925
465 1 53.3427 52.5751 39.5469
463 1 53.6366 53.2697 37.7964
464 1 53.6702 52.7301 38.6303
403 1 54.8307 52.87 39.0101
461 1 53.6286 53.8944 39.0222
476 1 57.6547 51.23 39.304
475 1 57.0303 51.026 40.0928
477 1 57.1362 51.1192 38.4169
474 1 57.172 50.3911 39.4513
205 1 57.51 48.8584 39.4304
208 1 56.9604 50.021 37.9365
209 1 56.0758 49.8399 37.3293
200 1 57.6725 49.0531 35.8203
199 1 58.3089 49.8959 35.767
214 1 56.8573 48.2731 37.406
215 1 56.4619 47.4745 37.7452
195 1 57.2141 51.6954 37.2438
196 1 56.9011 50.8892 36.8854
194 1 57.6952 50.8621 37.6238
198 1 58.6609 50.1492 36.7077
197 1 57.6907 50.2675 36.8383
207 1 57.8331 50.153 38.3197
220 1 58.1286 49.2598 36.8258
219 1 58.4455 49.6211 37.6935
216 1 56.9176 48.0793 38.6749
189 1 56.807 53.0038 37.8879
193 1 58.157 51.4078 37.0341
482 1 5.11827 55.3116 37.6457
481 1 4.30477 54.6767 37.1683
136 1 5.67807 55.5721 39.1103
483 1 4.59145 56.2694 37.5976
484 1 4.19824 56.7175 38.3183
377 1 3.86746 55.3575 37.6624
135 1 5.83754 56.3643 38.5063
373 1 5.63332 56.2002 40.1236
321 1 7.93223 57.3051 37.0313
371 1 6.23248 57.9349 40.0803
367 1 6.17997 58.9125 38.9047
368 1 6.04803 57.9755 38.5928
369 1 6.66686 57.5138 39.0764
131 1 4.27689 57.601 39.65
132 1 5.29989 57.5648 39.6035
376 1 4.26042 55.272 38.5044
122 1 5.06199 58.707 39.9184
125 1 6.04563 59.008 40.0587
121 1 4.42761 58.5534 40.6133
340 1 6.24552 57.2532 37.9191
372 1 6.18714 56.9753 39.8252
124 1 5.29538 59.8662 40.1677
365 1 6.45617 0.136969 39.7464
370 1 6.92366 58.461 39.5186
360 1 14.5006 4.15845 39.5043
91 1 13.7582 8.9043 38.9646
417 1 52.5421 52.6647 42.1343
408 1 55.0104 53.2369 41.5561
409 1 55.1729 53.6973 40.7881
405 1 54.4111 52.143 40.1164
203 1 56.1654 49.5919 39.4387
201 1 56.0725 48.2223 40.1692
462 1 53.1837 54.0788 38.1288
204 1 56.9814 49.376 39.9285
213 1 57.0297 49.1975 37.2864
206 1 58.129 49.3287 38.8137
72 1 20.1573 54.2722 39.2553
77 1 20.3944 56.0039 38.6526
139 1 5.33159 55.2292 40.7512
137 1 5.59594 54.7447 39.7744
138 1 4.87558 54.4442 40.2069
79 1 19.7417 55.0949 38.6915
80 1 19.1183 54.3544 38.9927
374 1 4.66348 55.9606 40.3336
380 1 3.09472 55.3471 39.3617
378 1 3.71852 54.4896 38.0826
379 1 3.00956 55.1361 38.4631
375 1 4.19498 55.7845 39.4327
64 1 19.0621 54.7645 39.9297
73 1 20.8535 54.246 38.6765
69 1 21.2907 54.0801 39.774
70 1 20.6738 53.2835 39.4851
71 1 19.6826 53.3748 39.1864
63 1 19.1015 55.1112 40.9558
75 1 20.3081 54.6185 37.8523
76 1 20.8465 55.2134 38.3079
74 1 20.1841 53.7661 38.2928
140 1 5.90263 54.6046 41.0986
78 1 20.036 55.5631 39.5707
60 1 53.596 33.3188 45.5425
59 1 53.8402 32.3513 45.616
53 1 52.5369 30.9574 46.0069
52 1 52.1389 30.28 45.37
55 1 53.3331 31.1425 45.0206
65 1 19.8552 54.205 40.1501
67 1 21.2345 54.414 40.889
68 1 21.7676 53.6865 40.4803
61 1 20.0975 54.7152 41.3682
62 1 19.5868 55.6082 41.7171
66 1 20.6729 54.7206 40.2665
58 1 53.1987 32.2024 44.8996
49 1 51.1701 30.9558 45.2477
48 1 51.2455 31.6543 45.9584
46 1 52.7129 32.1647 45.9993
56 1 52.8601 30.886 44.1835
57 1 52.4692 31.9208 44.2117
47 1 51.8602 32.0374 46.6918
50 1 51.6073 30.5974 44.4727
51 1 51.6508 29.6551 44.8136
43 1 53.7534 29.7804 45.5596
44 1 53.4473 30.5102 46.1392
54 1 52.2644 31.4821 45.2192
42 1 53.299 30.1818 44.7754
45 1 53.5135 31.5164 46.2506
41 1 53.9294 29.8573 44.1183
11 1 51.726 2.6765 55.1051
13 1 50.6881 1.83557 55.8136
2 1 52.252 0.876936 56.3752
3 1 53.0912 0.729214 56.8229
1 1 52.13 0.182842 56.9222
118 1 41.8126 51.4343 52.7991
107 1 40.015 51.3215 51.7509
120 1 40.704 51.9134 53.1419
108 1 39.7426 51.3099 50.7972
109 1 39.7468 52.2987 50.4268
16 1 50.4062 2.00119 54.0445
10 1 51.6546 2.73522 56.0782
12 1 51.003 2.00652 54.9132
6 1 51.7678 1.65612 55.6
5 1 52.5772 1.11484 55.3303
4 1 53.2385 1.44611 56.0698
14 1 49.7317 1.88367 55.6027
119 1 40.8634 51.0011 52.7989
116 1 41.0301 50.987 51.7336
117 1 41.3895 51.8642 52.0754
105 1 40.97 50.2003 50.9337
103 1 39.9857 50.4172 50.1724
112 1 41.3479 51.8971 50.5762
106 1 40.1887 50.4897 51.4061
102 1 39.8046 50.2903 49.214
115 1 41.4193 50.1646 52.0807
111 1 40.6427 52.0493 51.2946
110 1 40.0458 52.6947 51.2806
17 1 50.4993 2.83506 54.6721
9 1 51.6784 1.89928 56.6117
8 1 52.5364 2.26913 56.3988
18 1 49.726 2.95535 55.2372
15 1 49.7054 1.95057 54.6182
104 1 40.7075 51.0846 50.4887
114 1 42.087 50.8244 51.7699
101 1 39.3173 51.1095 49.5423
113 1 41.8416 51.0273 50.8692
432 1 12.0196 53.4598 58.1784
19 1 49.5047 3.69866 55.9207
7 1 52.6078 2.14019 55.4854
434 1 11.2307 54.3632 59.3525
435 1 11.1466 54.4284 58.3307
433 1 11.4375 53.5045 58.9794
430 1 13.7404 53.0674 58.4817
431 1 12.7741 53.0923 58.5951
429 1 13.0771 52.721 57.7607
303 1 10.3059 54.7109 59.3313
301 1 11.446 55.3607 59.0057
20 1 49.4173 3.55067 56.9866
310 1 11.6337 52.6069 59.4901
311 1 12.3568 52.4735 59.704
309 1 11.2351 52.9124 0.358435
320 1 11.6966 53.7827 0.0420967
426 1 13.1896 54.0493 58.8074
319 1 12.2742 53.9455 59.3247
425 1 13.952 54.7056 59.0772
424 1 13.4619 54.2891 59.7616
427 1 13.1405 54.487 57.9482
428 1 13.0791 53.6673 57.7121
306 1 10.5716 52.5989 58.5321
304 1 10.126 53.8893 58.9261
436 1 11.9198 54.5688 58.003
317 1 11.9715 55.2183 0.490759
437 1 12.4658 55.148 58.7016
305 1 10.3601 53.4536 58.1068
302 1 10.7449 55.5167 59.5202
308 1 10.5497 53.6317 59.9925
312 1 13.2919 52.2211 59.3384
314 1 13.1076 53.3068 59.7864
423 1 13.8304 55.304 59.8913
307 1 10.4115 52.9444 59.4655
316 1 12.5366 54.7271 1.09762
422 1 12.9197 55.699 59.7735
318 1 12.4553 54.7038 59.8013
315 1 12.6669 53.8341 0.475754
438 1 12.5057 55.4766 57.7844
439 1 11.9425 56.1303 57.3866
440 1 11.4019 55.6855 58.053
ITEM: TIMESTEP
46000
ITEM: NUMBER OF ATOMS
500
ITEM: BOX BOUNDS pp pp pp
0.0000000000000000e+00 6.0000000000000000e+01
0.0000000000000000e+00 6.0000000000000000e+01
0.0000000000000000e+00 6.0000000000000000e+01
ITEM: ATOMS id type x y z
313 1 12.4395 54.6362 0.832245
309 1 10.8635 53.8865 2.1809
308 1 10.3408 54.2983 1.57223
320 1 11.7301 55.7072 1.69211
315 1 11.6864 56.2852 0.777022
317 1 10.8534 56.783 1.46029
316 1 10.9179 56.7138 0.245788
421 1 10.1563 57.4304 59.5914
148 1 10.9786 8.64414 6.05448
149 1 11.9777 8.80454 6.15651
147 1 10.2706 9.33183 6.41287
150 1 12.7505 8.87429 5.39151
159 1 12.7268 8.86826 3.74534
160 1 11.7871 8.5058 3.91362
146 1 10.6654 9.73733 5.68237
141 1 12.7906 8.00746 5.93015
143 1 11.1907 8.28634 4.99517
142 1 11.8235 7.89568 5.639
144 1 11.4759 9.16229 5.1632
157 1 13.0591 9.51989 4.58781
151 1 12.3425 8.46181 4.83912
158 1 12.1258 9.38668 4.32018
145 1 10.4567 9.10928 4.88919
155 1 13.8034 9.15461 5.37356
156 1 13.515 10.0946 5.12802
153 1 12.9157 7.57639 4.98022
152 1 12.5095 7.78037 4.1327
154 1 13.4997 8.30059 4.93381
289 1 36.7967 58.9297 8.38901
288 1 37.298 59.1372 7.51481
290 1 37.3207 59.6425 8.4155
295 1 37.9137 57.6966 8.91653
294 1 38.1121 58.664 8.7334
293 1 37.5116 58.4949 9.41414
297 1 36.905 56.9675 7.7218
296 1 37.7796 57.2019 8.03384
460 1 6.44406 -0.00340196 9.47385
292 1 36.5794 58.8893 9.47339
291 1 37.0511 59.749 9.36759
298 1 35.9074 57.1293 7.51966
444 1 4.42662 59.4276 9.04046
443 1 5.0552 58.8378 9.34818
442 1 5.24213 58.5416 10.3577
456 1 5.81747 58.6534 7.67629
284 1 38.2117 58.6049 7.60611
287 1 38.0796 59.5265 6.94682
448 1 6.43623 0.883144 8.95202
447 1 5.92645 0.87156 9.8037
449 1 5.58588 1.27476 8.79765
285 1 38.5986 59.3735 8.10507
286 1 38.9937 59.8097 7.32259
281 1 35.8656 58.3516 8.57533
283 1 37.437 58.1812 8.08286
446 1 4.99563 0.696091 9.41624
445 1 4.17649 0.329787 8.84806
441 1 5.32848 59.3644 10.8909
457 1 6.01814 58.8466 8.62282
459 1 5.64407 59.805 8.94027
458 1 6.54873 59.6238 8.43037
300 1 36.7146 57.8443 8.77145
299 1 36.0234 57.2966 8.43132
451 1 4.86558 0.788208 8.16807
450 1 5.87358 0.686909 7.97047
282 1 36.436 58.1539 7.72604
452 1 5.19947 0.530173 7.32339
454 1 4.78129 59.0251 8.02833
453 1 5.40688 59.7302 7.84528
455 1 5.03098 58.9708 7.04295
279 1 32.2522 0.142307 12.7631
277 1 32.4618 0.834331 14.2595
276 1 33.2414 1.01753 14.7042
278 1 32.6341 0.979255 13.2396
386 1 31.4038 1.29544 13.2711
275 1 33.4106 1.67298 13.8809
274 1 32.6732 1.99724 13.2591
264 1 35.128 3.28327 15.295
265 1 35.0394 2.37479 15.813
280 1 32.7511 0.770311 12.0329
261 1 33.7717 4.34125 16.6629
385 1 31.4099 1.23687 14.298
384 1 30.906 0.871621 15.0915
262 1 33.4836 3.58032 16.0743
263 1 34.488 3.60507 15.9938
396 1 32.4154 3.6175 16.248
387 1 31.2599 2.15121 13.6165
383 1 31.3594 1.65015 15.5607
382 1 30.7596 1.95472 14.8979
266 1 34.1151 1.98117 15.8228
388 1 30.5735 2.68807 14.068
389 1 31.4586 3.26676 14.2007
272 1 33.2109 2.83153 13.3913
273 1 32.35 2.86615 12.7499
267 1 33.9286 2.99574 15.324
162 1 52.2961 7.53056 13.8057
179 1 53.5337 8.33127 12.1045
180 1 54.3812 8.1047 11.686
394 1 30.9306 3.65176 15.8208
395 1 31.8494 3.31613 15.4926
398 1 32.9817 3.33765 17.2366
397 1 32.8284 2.73176 16.5534
391 1 30.189 3.09697 15.3659
390 1 30.6276 3.6203 14.6035
392 1 30.4644 2.16945 15.8363
381 1 31.8784 2.13396 14.8447
269 1 32.9639 2.13918 14.6399
399 1 32.0314 3.13327 17.1293
400 1 31.0672 2.73713 17.138
271 1 33.3336 3.01333 14.2577
270 1 32.7591 2.78899 15.1435
268 1 34.0402 2.11796 14.5416
260 1 51.4643 6.75397 13.5069
164 1 52.0579 7.02965 12.6361
259 1 52.1622 6.62593 14.3735
258 1 51.2557 6.81997 14.7847
244 1 53.0482 8.20735 14.9533
168 1 52.0238 6.8644 10.9417
163 1 51.5472 7.6392 13.0764
169 1 52.4939 7.58068 11.497
247 1 51.9834 9.75607 14.7526
161 1 52.8846 7.02033 13.1453
176 1 52.4231 9.48611 13.5995
177 1 53.0302 8.72989 13.1453
170 1 52.4597 7.9663 12.5263
171 1 52.2352 8.85097 12.2184
173 1 51.0842 9.10934 12.4656
178 1 53.3992 7.94938 13.1843
172 1 51.8123 8.78218 13.1351
393 1 31.1088 2.77349 15.9627
256 1 52.5172 7.34417 15.4067
257 1 51.8629 7.50359 14.7163
242 1 54.1448 7.99237 15.1038
255 1 52.4293 7.35531 16.3676
254 1 53.095 8.11298 16.0963
243 1 53.7904 8.92173 15.0365
245 1 52.6241 8.61427 14.1597
167 1 51.2612 6.87364 11.6049
165 1 52.5905 6.31077 12.3009
166 1 51.6167 6.10933 12.3225
246 1 52.2996 9.00432 14.9864
248 1 51.1566 9.39526 14.2771
252 1 51.2979 7.61933 15.5488
253 1 52.1679 8.33126 15.7949
175 1 51.6519 9.9067 13.3924
250 1 51.4725 8.20238 13.9796
249 1 50.8364 8.8094 13.601
174 1 51.7905 9.70917 12.4871
241 1 53.5355 7.4416 15.5212
251 1 51.3988 8.36282 14.9287
238 1 38.4058 9.44342 24.3731
236 1 38.7812 9.56795 23.1127
235 1 37.9238 9.44069 22.6614
237 1 38.2098 8.85008 23.5835
234 1 37.6341 9.96825 23.4674
227 1 35.4761 9.97911 22.6883
226 1 35.2671 9.06032 22.7189
222 1 33.5783 8.33578 23.3869
221 1 33.0457 8.01848 22.4298
223 1 34.5592 8.62633 23.5113
224 1 35.3494 8.07555 23.4084
239 1 38.9078 10.1378 24.8534
225 1 35.6092 8.85942 23.8321
230 1 37.1638 11.0101 23.7621
233 1 37.8274 10.8684 23.0618
240 1 38.9963 9.14566 25.321
228 1 36.1586 10.6861 22.8278
229 1 36.4319 11.4842 23.3606
232 1 38.6749 10.6194 23.6
231 1 38.0522 11.4202 23.9143
28 1 49.8239 0.303952 33.4146
27 1 50.1057 1.01021 34.0052
29 1 49.4441 0.2781 34.4198
21 1 49.7791 58.5133 35.6368
30 1 48.4137 0.157017 34.4442
22 1 49.1894 59.2643 35.3747
23 1 49.3643 0.163742 35.6776
38 1 47.6604 0.997916 34.7144
37 1 46.7984 0.851129 34.1689
31 1 48.2883 59.108 34.1922
36 1 46.7593 0.191626 34.9185
26 1 49.8706 1.04989 35.049
25 1 50.5876 0.403114 34.7737
24 1 50.3105 59.8647 35.5498
39 1 48.5429 1.37948 34.4531
40 1 48.2098 2.1802 34.7912
32 1 48.1051 58.9641 35.205
33 1 48.345 59.6173 35.977
34 1 47.3668 59.7368 35.7026
35 1 47.5198 59.6172 34.7252
325 1 6.6167 59.9079 37.9234
342 1 9.51656 6.5956 39.7999
341 1 9.58077 5.62752 40.221
350 1 10.4442 7.01974 37.6927
348 1 9.76079 6.36447 38.8023
349 1 9.60108 6.79471 37.9023
200 1 55.2212 48.0782 36.6718
199 1 55.6018 49.0468 37.102
220 1 53.5216 49.3119 36.987
196 1 55.0958 49.554 36.061
197 1 55.727 48.7969 36.1712
193 1 55.9951 51.3673 36.0027
198 1 56.4683 49.2746 36.6418
186 1 55.473 51.7011 39.1287
185 1 56.0965 52.6687 38.8897
184 1 55.5978 52.4661 37.9314
183 1 55.3745 52.6756 37.0524
182 1 54.6873 51.9697 36.7999
181 1 55.4793 51.5769 37.0931
481 1 7.31905 57.7911 36.6686
337 1 5.23388 57.9117 36.9232
336 1 4.72269 58.8471 37.1682
323 1 6.50294 59.7107 36.9433
335 1 4.72571 59.0366 36.1537
328 1 5.4438 59.6845 39.0221
322 1 5.56846 59.6651 37.3466
321 1 5.60446 58.9059 37.9939
334 1 3.95186 58.3678 36.2046
324 1 6.26383 0.571849 37.3665
327 1 5.86941 0.623793 39.0504
326 1 5.62638 0.257393 38.2106
329 1 4.7338 59.1348 38.4371
495 1 5.12279 58.3048 40.9218
494 1 4.284 58.906 40.5895
493 1 4.02709 59.679 40.8243
362 1 6.25037 59.117 39.7201
361 1 5.65213 59.818 40.2093
99 1 12.9273 5.46485 37.3294
357 1 13.7227 5.84897 37.868
85 1 11.3525 5.7696 39.1247
82 1 9.86397 5.57378 37.9114
83 1 10.6145 4.9407 37.679
98 1 12.7402 5.48089 38.3284
81 1 10.2289 6.04899 37.2573
355 1 13.0945 5.89636 39.3184
343 1 8.50647 6.93193 39.4088
352 1 11.9585 7.44601 38.4889
347 1 10.2026 7.45983 38.8766
354 1 12.4225 6.41969 39.6256
351 1 11.0423 7.4653 38.1887
344 1 8.88351 7.89123 39.3877
346 1 9.84003 8.41537 38.7327
214 1 54.5878 47.9606 38.1208
215 1 55.1871 48.6754 38.691
217 1 54.4606 49.2453 38.0482
210 1 53.9596 50.2387 37.958
208 1 55.3293 51.1439 38.1327
209 1 54.7417 50.4846 38.5639
213 1 53.8309 48.4706 38.0165
218 1 54.434 48.887 37.1993
212 1 53.2389 49.2457 38.2048
219 1 53.7757 48.3098 36.7322
478 1 54.8157 50.8304 39.8027
477 1 55.624 50.4648 39.8802
194 1 54.9666 51.4283 35.9696
207 1 54.7342 50.7231 37.5264
469 1 56.9672 53.088 40.4183
401 1 57.9601 53.3381 40.402
402 1 58.77 53.8791 40.7718
188 1 57.156 50.9691 38.4393
187 1 56.4302 51.7306 38.5498
191 1 55.6789 50.4596 36.8698
192 1 56.5507 50.861 36.5272
195 1 54.81 50.5603 36.2453
74 1 18.6677 54.3091 36.002
463 1 57.771 53.6365 37.2759
462 1 58.155 53.8048 38.2943
189 1 56.2851 50.6421 38.6322
377 1 4.76873 55.1141 37.5733
378 1 4.04401 55.541 37.8405
379 1 4.56178 55.4643 38.5874
482 1 7.08739 57.3598 37.4732
376 1 5.56593 55.5793 38.1556
75 1 18.278 54.8651 36.6997
76 1 18.6926 55.5427 37.1894
484 1 5.38988 56.7661 36.8872
134 1 5.78047 56.7239 38.1417
483 1 6.31064 57.0683 36.8643
135 1 6.54546 56.4703 37.7026
485 1 4.81493 56.322 37.5563
338 1 5.73429 58.7993 36.7744
339 1 6.43853 58.1197 36.2198
330 1 3.82513 59.1807 38.1168
340 1 5.99115 58.8189 35.7149
490 1 3.60057 58.518 39.0953
489 1 3.27201 58.3464 38.1691
492 1 4.57661 59.7694 39.9475
491 1 3.94957 59.2407 39.6099
333 1 3.69764 59.0916 35.7214
332 1 3.92851 59.703 36.4705
331 1 4.2283 59.7909 37.4426
499 1 2.77196 57.8757 40.991
496 1 4.39037 57.6062 40.8454
497 1 3.8767 58.1127 40.1978
365 1 5.22238 58.9268 39.8583
363 1 5.98225 58.743 38.989
360 1 13.7545 4.74706 37.2298
97 1 12.2833 6.22045 37.9044
100 1 11.9874 5.24709 37.5041
96 1 11.3621 6.34283 37.7026
358 1 13.7528 6.00787 37.0824
359 1 14.4608 5.30215 36.8811
84 1 10.9341 5.04658 38.5345
94 1 10.543 6.39176 39.5225
95 1 10.8265 6.46461 38.5591
356 1 13.5617 6.20109 38.6672
87 1 10.5857 4.48153 39.9569
345 1 9.2579 7.83067 38.5375
89 1 10.5415 6.0285 40.8617
88 1 10.2273 5.02712 40.6498
86 1 10.8099 5.49835 39.9749
353 1 11.7399 6.90174 39.1709
93 1 11.2515 6.66058 40.2585
92 1 10.4279 7.08771 40.2725
90 1 9.55747 6.6145 40.8185
91 1 10.0891 7.35952 41.2817
202 1 56.4833 48.3301 37.3135
216 1 54.1827 48.8641 38.9006
211 1 53.4738 49.833 38.7752
203 1 56.1626 48.948 38.1047
204 1 56.4116 49.8647 37.8973
205 1 55.5804 49.8731 37.9207
206 1 54.871 49.8464 37.2289
467 1 57.2869 52.4717 38.9319
480 1 54.2725 51.5966 39.3488
479 1 54.0051 50.5891 39.4585
472 1 57.4569 51.5009 40.5435
473 1 58.0658 51.4742 39.8208
476 1 56.2621 51.0166 39.6148
474 1 57.4294 50.7341 39.8837
468 1 57.5784 52.4873 39.9797
466 1 56.9567 53.2803 39.1686
465 1 57.0331 53.925 38.4409
464 1 57.3567 53.0397 38.0027
470 1 56.5164 52.4204 39.8838
471 1 56.5473 51.9247 40.8684
404 1 58.0754 53.1972 39.2175
190 1 56.2489 50.9102 37.5784
71 1 20.8566 53.1638 36.2935
72 1 19.8105 53.4065 36.1885
73 1 19.3103 53.9848 36.761
69 1 21.3698 53.0815 37.1738
70 1 21.2623 52.2787 36.6164
461 1 57.9268 54.6843 37.929
403 1 58.7973 53.5108 39.8039
380 1 4.81264 56.3961 38.793
136 1 7.19459 56.0923 38.3424
137 1 7.77837 56.7887 38.9098
79 1 19.5227 53.5812 37.8177
80 1 20.2287 53.0496 37.2356
64 1 21.2461 55.6169 37.345
78 1 19.6806 54.5553 37.9972
375 1 5.21241 54.7275 38.7093
133 1 5.73021 57.2468 39.0244
372 1 6.13745 56.7225 39.9654
77 1 19.4958 55.4842 37.923
131 1 5.28197 55.6601 39.3011
486 1 4.92732 57.26 37.6508
132 1 5.99778 56.1826 38.9464
368 1 5.28198 57.8714 38.4104
369 1 5.96528 57.8431 37.7347
370 1 6.52741 57.815 38.6021
487 1 4.00317 57.0641 37.9058
488 1 3.77047 57.888 37.3855
123 1 3.79717 56.2824 38.868
500 1 2.27142 58.898 40.8357
122 1 4.171 57.1335 39.3248
364 1 5.59753 58.1165 39.7782
366 1 4.69852 58.1632 39.4321
367 1 4.36687 57.7672 38.5702
498 1 3.45749 57.28 40.579
201 1 55.6678 47.8996 37.6747
475 1 57.0263 51.5156 39.5067
414 1 57.1289 55.0986 40.6505
416 1 57.9615 56.1341 40.7294
413 1 57.2651 54.9072 39.709
407 1 58.0206 55.6705 38.6229
405 1 57.7162 54.1319 39.3025
65 1 21.3712 54.6661 37.5658
68 1 21.5163 53.9205 36.6939
415 1 57.1333 55.9222 40.2132
411 1 56.9007 55.6138 38.2579
412 1 56.8526 55.7402 39.2544
406 1 58.2278 54.7868 38.9897
410 1 57.3404 56.5372 38.4433
409 1 57.8065 57.0677 37.7695
139 1 7.83603 57.075 40.7613
138 1 7.50484 56.529 39.8726
140 1 8.28732 56.2418 40.5133
63 1 20.7675 56.1083 36.6521
67 1 20.5225 54.1752 36.73
61 1 19.7612 54.541 36.0924
66 1 20.4468 54.9677 37.3251
373 1 6.44646 55.8504 39.8568
374 1 6.07198 54.9602 39.2186
130 1 4.85987 55.8741 40.2075
129 1 5.14364 54.9176 40.5956
121 1 4.90613 57.1818 40.0124
371 1 6.77115 56.9398 39.1155
126 1 2.84916 55.4347 40.6969
124 1 3.68784 55.7287 39.815
125 1 2.906 54.9708 39.7285
417 1 58.439 55.5738 39.9437
420 1 59.0879 56.3253 40.3405
418 1 58.8594 56.0363 39.2397
419 1 58.622 56.882 39.549
408 1 58.5906 56.4709 38.2394
62 1 19.8966 55.4832 36.5412
128 1 4.56631 55.2298 41.557
127 1 3.59641 54.9711 41.1577
41 1 52.2741 32.4347 45.9599
56 1 53.5871 31.7907 44.6806
57 1 54.2507 31.047 44.8455
51 1 55.9619 31.3017 46.1525
43 1 53.7454 31.9473 46.2723
49 1 55.7169 30.5645 46.9728
52 1 55.9005 31.4488 45.1617
50 1 56.0874 30.3428 45.9979
55 1 54.1457 32.6001 44.77
42 1 53.2687 32.435 45.5893
54 1 54.8878 31.955 44.9482
59 1 53.5142 30.3446 44.9656
58 1 54.0101 30.8197 45.7376
60 1 54.3597 29.9278 45.0052
53 1 55.0108 31.3911 45.6315
44 1 54.7374 32.4035 45.9189
48 1 55.0271 30.4168 46.2067
46 1 55.3478 32.1513 47.0231
47 1 54.8547 31.3439 46.6816
45 1 54.9116 33.0155 46.7076
102 1 39.2212 51.2075 50.1091
101 1 39.0799 51.666 51.0404
108 1 39.8782 52.165 50.2668
103 1 38.3601 51.6447 50.0622
105 1 38.9527 50.3769 49.4066
106 1 39.808 50.7837 49.3692
104 1 38.1806 51.0407 49.3189
113 1 39.7127 50.6496 47.8083
109 1 39.9967 52.5038 49.3312
112 1 39.1188 51.0326 48.5129
111 1 39.1533 51.7364 49.0748
110 1 39.0037 52.548 49.6494
107 1 40.3698 51.5085 49.7245
119 1 41.5192 51.3143 47.9524
116 1 40.1959 51.4715 48.525
115 1 40.9242 50.9999 48.8103
118 1 40.7001 50.7798 47.5707
114 1 40.3886 50.2155 48.3861
117 1 40.2497 51.6405 47.481
16 1 47.2699 3.07468 57.3938
120 1 42.0758 51.1535 48.6806
5 1 47.8694 3.92565 58.275
14 1 46.6551 3.5704 57.9945
15 1 47.2544 4.18859 57.5245
12 1 47.2416 2.25932 58.0223
17 1 47.8547 2.783 56.8138
11 1 47.821 2.08534 58.7829
6 1 48.3663 3.0273 58.5407
7 1 49.3481 3.36843 58.1643
18 1 48.8047 2.63636 56.4541
2 1 47.2204 5.15622 58.1634
1 1 48.0085 5.01886 57.5525
3 1 47.3563 4.90716 59.1134
13 1 47.3415 3.07195 58.4012
10 1 48.0512 1.89178 57.7754
9 1 48.9706 2.21651 57.6048
8 1 48.6334 3.28564 57.3564
4 1 47.2124 4.03325 58.9117
19 1 49.3275 1.8715 56.0365
20 1 49.8032 2.08847 56.9132
306 1 9.55829 54.0744 0.147792
429 1 10.6899 53.7929 0.319601
305 1 8.8419 54.7757 59.8478
432 1 11.1058 54.9405 59.5702
430 1 11.7636 53.7 0.274993
428 1 10.382 53.7081 59.3136
435 1 9.28774 56.6823 59.164
436 1 9.60535 56.0106 58.4052
438 1 10.3558 55.8916 0.0396286
427 1 10.652 54.3803 58.4067
440 1 8.84373 57.1884 59.8733
439 1 9.54912 56.4876 0.149547
310 1 11.489 54.0418 1.44308
311 1 12.4815 53.8512 1.68777
312 1 12.1819 54.817 1.77892
433 1 10.2392 55.0644 59.2455
304 1 8.59666 55.0912 0.87736
307 1 9.66976 53.8934 1.04918
431 1 11.4352 54.5231 0.428594
319 1 11.2599 55.2342 1.27947
426 1 10.8499 55.0198 57.5347
314 1 12.2971 55.5033 0.793965
434 1 9.27042 55.6967 59.4213
303 1 9.34956 54.9436 1.37648
302 1 9.58868 55.1941 0.405369
301 1 10.4407 54.7951 0.430991
437 1 10.1894 56.21 59.1268
318 1 10.7167 55.8909 1.03384
425 1 11.2577 55.2765 58.4989
424 1 11.2869 55.9245 59.2881
423 1 11.3071 56.771 58.9776
422 1 10.4046 57.1124 58.6489
ITEM: TIMESTEP
47000
ITEM: NUMBER OF ATOMS
500
ITEM: BOX BOUNDS pp pp pp
0.0000000000000000e+00 6.0000000000000000e+01
0.0000000000000000e+00 6.0000000000000000e+01
0.0000000000000000e+00 6.0000000000000000e+01
ITEM: ATOMS id type x y z
306 1 9.5685 56.5427 2.40853
307 1 9.74527 55.6768 2.81124
429 1 9.60069 54.4835 59.8199
430 1 9.68967 55.1341 0.491956
304 1 8.7501 57.4692 3.17305
303 1 7.97316 56.934 3.03647
302 1 8.77507 56.2971 2.95972
319 1 10.3769 58.0136 1.06339
301 1 8.66817 55.837 2.09023
313 1 10.2106 56.6631 1.37067
431 1 9.59021 56.2206 0.496529
314 1 9.34497 56.9391 1.49178
439 1 7.36155 57.424 2.16941
316 1 8.10925 57.8033 1.51414
438 1 7.89171 56.6329 2.04876
318 1 9.4882 58.0908 1.72874
315 1 8.79873 57.3122 2.09994
309 1 10.1748 54.7362 2.19448
310 1 10.8748 55.2728 2.65386
311 1 10.6828 56.2814 2.60938
308 1 9.67204 55.5828 1.84187
320 1 9.97947 57.2944 0.432862
312 1 10.49 57.1196 2.07983
317 1 8.86756 57.8058 1.06835
160 1 14.0365 10.2255 5.75431
152 1 13.4247 8.35365 5.86597
159 1 13.4715 9.44948 5.6924
143 1 14.6586 9.52403 5.29269
142 1 14.2914 8.91212 6.04795
151 1 14.0236 8.10832 5.19652
153 1 12.5165 8.02036 5.7557
154 1 12.4887 8.81043 6.36371
146 1 15.5381 7.38333 5.18393
145 1 15.0228 8.23901 4.95808
150 1 14.3449 7.1899 5.23669
144 1 15.5727 9.12911 5.1555
158 1 13.842 9.04991 4.81758
157 1 12.8916 9.51296 4.7123
155 1 12.3595 8.99934 5.3891
156 1 12.9539 8.53626 4.74187
141 1 13.6285 9.39012 6.76298
148 1 15.0444 8.02483 6.8055
147 1 15.5695 7.92495 6.03933
149 1 14.4249 7.76812 6.08878
455 1 8.42389 1.92802 8.98621
287 1 35.4185 57.6542 8.53336
451 1 9.26493 0.409277 8.36291
452 1 10.0925 0.0727252 8.91199
450 1 9.28196 59.5432 7.8617
297 1 38.3462 58.589 8.14006
298 1 37.506 58.5438 8.80676
299 1 38.3299 58.9575 9.2184
282 1 37.8973 59.5458 8.42198
296 1 38.0732 59.2023 7.37952
283 1 36.9101 59.3005 8.10513
454 1 9.23956 1.41296 9.10351
453 1 9.29974 0.547794 9.47245
456 1 8.81562 1.6732 8.11908
458 1 9.46183 0.45043 7.32716
289 1 35.6237 58.4365 7.73349
288 1 36.1783 58.3361 8.62501
290 1 36.1202 59.1566 7.24915
284 1 37.2158 58.3895 7.80191
285 1 36.6858 57.5049 7.98686
286 1 35.7177 57.2443 7.69245
445 1 8.43422 0.6758 7.70178
449 1 9.21763 59.4649 8.8662
446 1 8.41869 0.899191 8.67324
448 1 8.36489 59.7072 9.42353
447 1 8.35443 59.8838 8.49573
281 1 37.1668 59.8755 8.94236
300 1 39.3026 59.0436 9.15472
295 1 37.2606 58.9428 6.9824
293 1 37.3872 0.161037 7.32387
444 1 7.90557 0.8023 6.90733
443 1 7.77864 60.0043 6.37971
459 1 8.90392 0.456906 6.64379
460 1 9.23088 59.3818 6.76315
457 1 9.17506 1.45659 7.26323
292 1 36.3737 0.316512 7.70211
291 1 35.8884 59.5081 8.09107
294 1 37.1397 59.6668 6.4434
168 1 52.9167 5.23326 10.6127
442 1 7.26171 0.875412 6.0736
441 1 8.06112 0.770261 5.45631
279 1 32.9241 59.5992 14.7747
280 1 33.2165 59.076 15.6323
273 1 34.2178 0.928896 16.4939
167 1 53.77 5.10497 10.3226
164 1 53.2732 5.70425 11.76
165 1 53.6684 5.88368 10.9348
166 1 53.8122 6.23005 10.0392
169 1 52.1517 5.46039 10.0869
170 1 52.8045 6.21429 10.2751
179 1 53.911 9.12969 11.5371
180 1 53.3325 9.18388 10.7239
173 1 51.6872 6.72069 10.2495
171 1 52.9087 6.91434 10.9766
174 1 52.0286 7.48742 10.6814
386 1 33.1161 0.217409 15.9002
277 1 34.0877 59.9603 13.907
278 1 33.8444 59.1412 14.6398
387 1 33.6969 0.945562 15.4236
388 1 33.7662 0.0909753 15.0374
274 1 34.3943 0.0437154 16.1633
275 1 34.8316 0.563728 15.4557
272 1 34.7002 1.74299 16.8236
389 1 34.0898 0.966407 14.4888
271 1 35.1249 2.54426 16.3845
260 1 51.4969 6.67544 13.3855
161 1 54.3747 6.18772 11.9516
162 1 53.6488 6.85848 11.7709
163 1 52.9093 6.47455 12.2117
250 1 51.8669 6.37879 12.0156
178 1 53.9588 8.22368 10.7946
248 1 50.3887 6.70929 11.7806
249 1 50.9094 5.97414 12.1555
176 1 53.3373 7.09158 9.99886
172 1 52.2213 6.27564 11.0354
245 1 51.6391 7.93739 11.7087
175 1 52.7692 7.78205 10.112
177 1 53.8638 7.35947 10.7981
385 1 32.631 0.67344 15.2583
384 1 32.623 1.63592 15.7093
276 1 34.8614 0.251797 14.3312
383 1 32.6393 0.995569 16.4504
382 1 33.1439 0.26538 17.092
381 1 33.9237 59.6952 17.0366
270 1 34.614 2.76236 17.2018
269 1 34.2548 3.56085 17.388
268 1 33.4478 4.01312 17.3192
391 1 32.957 1.61882 14.2348
390 1 33.2473 0.699088 13.9573
395 1 33.5743 1.72267 17.1207
267 1 32.875 3.62048 16.6304
264 1 33.4862 3.81568 15.7844
258 1 51.5343 6.66005 14.4126
259 1 52.121 6.15421 13.9282
252 1 51.0409 7.95665 12.9337
251 1 51.2649 7.0423 12.3424
256 1 52.3357 7.20887 13.9287
257 1 51.2994 7.55498 14.0718
244 1 52.3064 7.32387 11.8557
242 1 52.6025 8.629 11.7485
241 1 52.7374 8.63906 12.7069
247 1 51.2334 6.57154 11.1172
246 1 50.8361 7.50921 11.1585
243 1 52.9244 7.90307 11.1803
392 1 33.4485 1.92812 15.0758
400 1 33.2037 2.69343 15.8916
393 1 34.4364 2.2186 15.5714
397 1 32.9622 2.28701 17.76
266 1 33.5876 2.894 16.9784
265 1 34.1677 3.20041 16.0985
394 1 33.8817 1.85937 16.1733
396 1 33.931 2.11104 18.0086
399 1 32.6848 2.21969 16.6314
262 1 35.2126 3.93186 16.0658
263 1 34.1492 4.16886 16.4627
261 1 35.1804 3.25157 15.3166
255 1 52.4227 6.81957 12.9542
253 1 51.7214 8.65878 12.9823
254 1 52.0448 7.6657 12.8729
398 1 32.3338 1.74008 17.4767
221 1 35.8989 10.0883 23.0736
227 1 37.0507 10.3595 24.8417
226 1 37.4392 10.5843 24.0611
235 1 37.7702 9.25942 25.5058
228 1 37.6949 10.8861 25.4799
222 1 35.7104 9.78347 24.0989
224 1 37.0406 9.17436 24.3333
223 1 36.0211 8.84512 24.2659
225 1 36.8491 9.84487 23.7421
237 1 38.2173 9.94082 26.5563
234 1 38.2726 10.0607 25.4482
236 1 37.3001 9.96504 26.0457
230 1 38.1969 11.3933 24.6733
233 1 38.0871 9.93775 24.5375
231 1 38.693 10.8257 23.9166
232 1 38.4423 9.78246 23.6411
229 1 37.3119 11.5215 24.9554
238 1 37.5781 9.20488 26.7141
240 1 38.0927 8.82885 27.6189
239 1 38.6931 9.03097 26.776
37 1 49.2995 58.6405 35.7237
28 1 49.6855 0.510703 35.8567
27 1 48.9138 0.653677 36.393
31 1 50.2055 59.5328 36.2119
36 1 48.4344 59.1823 35.5649
30 1 49.5591 58.9943 36.7768
38 1 49.9187 58.0443 35.1477
39 1 49.4904 57.5935 35.9521
29 1 49.078 59.6674 36.0817
23 1 48.724 1.72266 36.9312
26 1 48.8103 1.19477 35.6212
25 1 47.9089 1.14699 35.2938
40 1 48.767 57.3857 35.365
21 1 49.4289 0.487283 37.5211
32 1 50.1575 59.2476 35.2589
34 1 48.9962 0.473834 34.5367
35 1 48.3773 0.148652 35.3144
22 1 48.4677 0.828173 37.391
24 1 47.981 1.27967 36.3746
359 1 11.0998 6.39706 38.1913
358 1 10.3242 7.19571 38.3627
219 1 52.8956 52.892 39.3586
200 1 52.6836 52.6183 37.902
220 1 53.4333 53.2638 38.5908
199 1 52.0594 51.9487 37.7048
196 1 53.7648 52.4055 37.3161
197 1 53.7832 51.6501 36.8274
198 1 52.9452 51.2843 37.3438
194 1 54.4083 53.8142 37.9123
191 1 55.2905 52.5065 37.2195
195 1 54.4734 52.7041 37.9559
193 1 55.3344 53.7577 37.8046
192 1 56.0017 53.1331 37.2653
70 1 19.785 52.8232 33.7283
183 1 56.6418 53.6071 37.9349
182 1 55.9378 53.3131 38.6338
181 1 55.8889 53.2983 39.4969
72 1 18.8964 53.0218 34.5504
73 1 19.7381 52.6284 34.9317
71 1 18.9441 52.923 33.4783
67 1 21.1632 54.0555 33.2048
68 1 20.2763 53.8134 33.7569
75 1 19.2716 54.4659 35.2804
74 1 19.7935 53.643 35.2655
61 1 19.4636 54.0924 34.3198
62 1 18.8076 54.877 34.342
484 1 5.34327 59.4935 37.6112
483 1 5.74318 0.283457 37.5529
63 1 19.3752 54.7272 33.4508
334 1 2.7575 58.472 37.3685
337 1 4.24879 59.4072 36.4286
339 1 4.14831 58.0208 35.3456
481 1 4.4213 0.0358708 37.2607
333 1 3.52614 59.0075 37.663
332 1 3.65318 58.6944 38.6552
335 1 3.09346 58.8495 36.4935
323 1 4.96299 57.8545 41.4415
338 1 4.63156 58.5955 35.978
340 1 4.97976 57.5507 35.6195
33 1 49.1397 59.5743 34.9187
326 1 2.63144 57.0213 40.2784
324 1 4.12086 57.3216 41.3946
82 1 8.60136 4.96074 37.3181
83 1 9.39515 5.18244 37.7835
84 1 8.63034 5.02964 38.4324
98 1 9.99653 6.24335 37.8869
100 1 10.6138 5.55154 37.0713
99 1 10.562 5.45335 37.9251
360 1 11.2836 6.90956 39.0654
349 1 7.85344 5.69362 37.8993
350 1 7.65448 6.41904 38.3974
81 1 9.13513 5.37687 36.6576
96 1 9.77854 5.58617 38.829
95 1 9.0944 5.62401 39.4409
97 1 9.16104 6.03132 38.4211
357 1 10.2457 6.47082 38.815
345 1 8.56259 5.38395 41.2242
351 1 8.36037 6.4999 38.9943
352 1 9.40476 6.82875 39.1506
213 1 52.8473 50.4085 39.6951
214 1 52.4839 51.1067 38.9588
201 1 54.4366 51.6468 37.7246
202 1 54.6936 50.6407 37.9194
212 1 53.5499 50.7806 39.0617
217 1 53.6109 52.2676 38.6793
218 1 53.2311 51.9092 39.4374
205 1 54.5375 51.143 38.8641
206 1 54.7257 52.1184 38.9612
203 1 54.4803 50.1063 38.5507
204 1 55.0426 50.5308 39.3303
210 1 54.0593 51.0909 39.9904
208 1 55.024 52.7393 40.0176
209 1 54.3329 52.0193 40.0647
207 1 54.8988 53.0485 39.0695
190 1 55.4283 52.3138 38.1989
188 1 55.7347 50.8094 37.7787
184 1 56.8562 53.8786 38.8959
187 1 56.5792 51.42 37.772
79 1 20.584 54.3937 34.9464
69 1 20.7111 52.9977 33.2895
80 1 21.059 53.58 34.5354
465 1 57.5688 51.8513 36.609
463 1 58.463 51.2364 37.1772
462 1 59.007 51.5611 37.9227
464 1 57.5954 51.0095 37.277
378 1 6.07344 57.0142 37.3313
377 1 5.80673 57.8593 36.8624
376 1 6.29236 58.4163 37.4564
76 1 19.7544 55.1139 34.6752
78 1 20.8611 55.3053 34.9052
77 1 20.0456 55.474 35.5127
64 1 20.2324 54.7879 32.9494
65 1 20.5266 55.0232 33.7518
66 1 21.4396 54.6893 33.9297
411 1 0.372673 53.807 36.5795
461 1 58.7775 52.1482 38.7449
487 1 4.53962 57.6865 37.1879
485 1 4.48778 58.8644 37.7925
134 1 5.37097 57.9446 37.8263
135 1 5.6388 58.627 38.4784
136 1 6.15483 57.9967 39.0402
410 1 1.05337 53.0481 36.4922
409 1 1.18238 52.37 37.1591
408 1 0.213834 52.5578 37.3078
489 1 3.23478 57.3188 38.3114
488 1 3.58501 57.6238 37.4517
486 1 5.04275 58.596 37.0698
368 1 4.36021 57.8755 38.3823
482 1 4.82882 0.525576 37.8954
369 1 4.68187 58.1673 39.1784
330 1 2.84447 58.1579 39.3277
331 1 2.65078 58.457 38.4424
336 1 3.96997 58.5024 36.8713
322 1 5.306 58.4875 40.7688
321 1 5.92312 59.0226 40.1057
329 1 3.23045 57.9131 40.1083
325 1 3.16851 57.1885 41.0191
327 1 3.09612 57.1283 39.3815
87 1 9.81112 3.59917 39.0435
86 1 10.3351 4.43403 38.6373
343 1 8.60227 3.84115 41.0355
342 1 8.17555 4.29326 40.3323
348 1 7.70096 5.42789 38.8798
85 1 9.38549 4.56748 38.6619
94 1 9.30926 5.59889 40.443
354 1 10.8071 6.54742 40.2488
353 1 9.9385 6.5015 39.8673
355 1 11.5928 5.98257 39.8554
356 1 10.7678 5.92096 39.3069
344 1 8.16196 4.48605 41.5712
346 1 7.78371 5.41569 40.6414
347 1 7.33045 5.69623 39.8603
216 1 53.1679 51.4284 38.3146
211 1 53.8573 49.9658 39.6456
215 1 52.9375 50.4695 38.4251
479 1 55.8699 50.7686 40.1562
478 1 55.2267 51.532 39.7379
477 1 55.889 52.0879 39.3748
189 1 55.5323 51.422 38.581
476 1 56.4921 51.301 38.9307
474 1 57.8161 52.6535 38.6318
480 1 54.8885 50.6798 40.4119
186 1 56.3984 52.2604 38.4275
185 1 56.8886 52.851 39.0444
470 1 58.7132 53.2123 37.4147
475 1 57.3781 51.6386 38.7429
467 1 58.2875 52.2872 37.5823
473 1 57.7858 53.4756 37.9939
468 1 59.2259 52.4198 37.1101
466 1 57.5129 52.752 37.1349
404 1 1.58052 53.2813 39.1878
405 1 0.719507 53.0366 39.1058
403 1 1.38869 54.1315 39.7423
125 1 3.57995 55.3583 38.0989
379 1 5.49844 56.2478 37.607
375 1 6.47004 57.5997 38.0749
131 1 4.60076 55.7027 38.4208
374 1 7.09991 56.8571 38.2028
413 1 59.8032 54.2349 37.9061
407 1 0.731507 52.7828 38.0992
406 1 0.904739 53.8301 38.5397
417 1 1.57668 55.5653 38.2215
123 1 3.26157 54.0064 38.7233
122 1 3.11477 53.6545 37.8663
124 1 3.09498 54.6374 37.939
380 1 4.62169 55.9395 37.399
372 1 5.79652 57.0465 39.6496
132 1 5.16233 56.4371 38.5954
373 1 6.30949 56.8181 38.8181
371 1 5.92627 57.2623 40.5843
137 1 6.8066 57.9019 39.8798
138 1 7.25051 57.484 39.0081
412 1 0.574016 53.6655 37.5215
418 1 1.88394 54.7744 37.8856
419 1 2.18989 53.976 38.4633
490 1 3.67392 56.4811 38.8198
364 1 4.80254 56.7777 40.7724
366 1 4.45344 57.1695 39.1101
367 1 4.29169 56.932 38.1381
133 1 5.33044 57.3645 38.6322
370 1 5.41424 57.9764 39.9051
491 1 2.91807 56.1336 38.3345
328 1 3.72154 57.8422 39.3105
492 1 2.8707 55.9076 39.2224
365 1 4.79761 56.6588 39.8027
362 1 3.76762 56.2957 39.8569
363 1 4.08755 57.3017 40.2131
341 1 8.63597 4.72454 39.7517
88 1 9.40347 3.74996 39.9389
90 1 10.4692 4.63625 40.454
89 1 9.83484 4.74689 39.7024
93 1 8.65572 6.34572 40.758
92 1 9.7236 6.39052 40.8595
91 1 10.3444 5.63509 40.8626
471 1 58.7969 54.1601 37.642
472 1 58.4941 53.8547 38.4374
469 1 58.5142 52.8453 36.5615
401 1 1.67224 55.0908 39.4476
402 1 2.37136 54.3688 39.45
126 1 4.21257 54.8097 38.4204
127 1 4.64837 54.7783 39.2249
129 1 5.48405 55.9861 39.3772
414 1 0.48857 54.8743 37.7253
130 1 4.49169 55.7287 39.3477
139 1 6.8426 56.7408 39.637
140 1 7.79987 56.6082 39.209
415 1 1.20564 54.4752 37.2169
416 1 1.38591 55.4247 37.2508
420 1 1.56791 53.641 37.6929
499 1 3.65021 55.2187 39.2652
497 1 3.58289 55.1619 41.0993
498 1 3.97225 55.277 40.1809
495 1 2.2996 55.7954 40.9549
496 1 2.56622 54.874 40.9589
121 1 4.05293 53.9328 37.9675
500 1 2.73556 55.0152 38.7558
494 1 1.86624 55.8117 40.0247
493 1 2.66445 55.2513 39.9484
361 1 3.47307 56.2375 40.6806
128 1 5.49571 55.0777 39.6245
60 1 55.981 33.0552 45.745
57 1 56.9091 32.4985 45.2302
59 1 56.5505 33.8166 46.2646
53 1 56.4944 31.5756 45.868
56 1 57.2841 32.3193 46.0788
55 1 57.66 31.4963 45.5498
42 1 56.67 29.8205 45.8985
54 1 56.8661 31.3965 44.9765
52 1 55.5998 31.3135 46.2435
58 1 56.9608 33.416 45.4577
48 1 56.4336 33.1056 47.2906
47 1 56.3004 32.4235 46.5721
51 1 55.1926 32.1776 45.9949
49 1 55.653 33.2653 46.8128
50 1 55.1423 32.3512 46.9035
41 1 56.6728 28.9801 45.5986
43 1 56.787 29.6512 46.9508
44 1 57.3594 30.364 46.7484
46 1 55.8855 31.7496 47.3403
45 1 56.6387 31.1807 46.9017
113 1 38.2158 50.8522 48.1596
112 1 37.8871 51.6618 47.7252
118 1 38.3591 52.5366 46.1936
114 1 38.2247 50.3538 47.3692
119 1 37.4805 52.0666 46.53
116 1 38.7163 51.4699 46.1714
117 1 38.7141 52.1798 45.4249
104 1 39.7088 50.9867 48.0084
105 1 39.5631 50.2034 47.344
106 1 39.0371 50.9098 47.0916
115 1 38.0544 50.9261 46.7036
120 1 37.7082 51.5177 45.7811
109 1 39.4259 52.1596 46.4798
111 1 38.6211 52.0301 47.1027
110 1 39.5564 52.0847 47.4083
107 1 39.1909 50.3639 46.2668
102 1 40.6697 52.0537 47.2711
103 1 40.2644 51.1696 47.1092
101 1 40.8562 51.8135 46.3443
108 1 39.7416 51.1729 46.2058
17 1 44.7431 4.20283 0.739001
18 1 43.8321 4.30412 1.15275
19 1 44.4837 4.30892 1.85957
20 1 44.7331 3.37269 1.5355
12 1 42.9664 4.23387 0.097567
10 1 43.8685 4.79792 0.195452
9 1 44.6594 5.22517 0.655661
14 1 43.8585 5.05853 58.814
16 1 45.0666 4.44051 59.9329
5 1 46.751 4.2543 59.7817
15 1 44.6728 4.64439 59.037
6 1 45.9499 4.63338 59.0447
13 1 42.9916 4.76974 59.3054
7 1 45.5693 5.29327 59.6823
8 1 45.6416 5.30216 0.577544
2 1 45.2741 4.06178 58.2301
1 1 44.3444 4.37078 57.9384
427 1 9.26987 55.4406 59.4219
426 1 10.1669 55.5881 59.7059
425 1 9.99318 56.5523 59.3764
436 1 7.43312 56.5683 0.181857
11 1 43.7556 3.95292 59.8787
4 1 45.9954 3.68833 59.6975
3 1 45.2482 3.73503 59.1218
428 1 8.52719 54.8307 59.8308
305 1 9.56647 56.952 3.39213
434 1 7.80101 55.9188 59.5161
432 1 8.71551 55.8977 0.923892
433 1 8.62267 56.1759 59.8977
435 1 7.47755 55.5254 0.394313
437 1 7.81034 56.7294 1.10476
424 1 9.18499 56.9288 59.168
423 1 9.07537 57.1713 0.0918473
422 1 8.26389 57.3403 0.173161
440 1 7.04903 57.8818 2.87735
421 1 8.09618 57.0255 59.1832
ITEM: TIMESTEP
48000
ITEM: NUMBER OF ATOMS
500
ITEM: BOX BOUNDS pp pp pp
0.0000000000000000e+00 6.0000000000000000e+01
0.0000000000000000e+00 6.0000000000000000e+01
0.0000000000000000e+00 6.0000000000000000e+01
ITEM: ATOMS id type x y z
12 1 41.5806 5.9794 0.765563
17 1 41.0587 5.95355 1.77177
18 1 41.3053 6.48089 2.60468
10 1 42.9023 6.01564 0.508331
9 1 42.7112 5.14208 0.757993
8 1 42.2871 5.62813 1.40406
435 1 7.16027 56.5303 2.81963
430 1 8.67538 57.4129 0.461883
436 1 6.27975 56.9293 3.07733
437 1 5.47425 56.8043 2.63108
431 1 8.73153 56.7209 0.976715
432 1 8.59014 56.0768 1.66181
313 1 8.94034 58.178 1.338
422 1 6.42749 58.3533 1.60233
320 1 7.79794 59.8987 1.7009
317 1 6.44261 58.1577 2.74932
423 1 7.37392 58.2487 1.2751
319 1 7.15117 59.1928 1.82293
20 1 42.4206 7.38287 2.10477
19 1 42.096 7.03691 2.93582
307 1 8.44574 58.4068 2.87204
308 1 9.15963 57.5935 2.80604
309 1 9.45665 56.6908 2.42204
310 1 10.0853 57.0825 2.83014
438 1 4.81846 57.4506 2.11464
306 1 8.09357 59.2374 2.86265
301 1 7.59499 57.8864 3.89512
314 1 8.20267 57.8636 2.06856
311 1 10.1732 57.592 2.05971
312 1 9.38168 57.3672 1.57178
439 1 5.3798 58.4103 2.26991
316 1 7.02428 57.6767 3.12979
318 1 7.33628 58.3907 2.31452
315 1 7.94764 57.4177 2.99961
303 1 7.14365 58.8497 3.42827
302 1 7.37748 58.6455 4.40979
305 1 7.91258 59.5145 3.74681
440 1 5.12643 57.8354 2.98789
304 1 7.05798 59.6478 3.08342
441 1 13.8805 1.89619 8.75478
151 1 15.6438 8.52357 5.88645
156 1 16.4206 8.97158 8.08089
146 1 14.6849 9.13962 5.96479
145 1 15.4784 9.42386 5.36078
150 1 15.5154 8.92477 6.7449
155 1 16.7191 8.40046 7.12772
159 1 17.3985 9.33055 6.04223
158 1 16.4975 9.29063 6.42247
157 1 16.3274 9.61874 7.3316
143 1 15.6135 7.91611 4.8742
144 1 15.728 8.86747 4.58922
444 1 12.6147 1.70404 8.55969
443 1 12.678 2.13366 7.67025
442 1 13.6266 2.23263 7.76952
459 1 12.8438 1.1038 7.1085
153 1 16.7866 7.72194 5.23559
152 1 15.9493 7.48244 5.8646
148 1 14.888 7.52422 6.55799
147 1 14.5808 8.47586 6.4762
149 1 15.7826 8.01852 6.97258
154 1 16.7065 8.16551 6.15237
141 1 14.1747 7.53201 4.82376
142 1 14.9721 7.3917 5.47396
160 1 16.8169 8.94942 5.25068
460 1 12.5222 1.88289 6.52574
294 1 36.8468 59.2679 9.22395
295 1 36.6301 58.271 8.87486
445 1 12.1022 1.21128 7.93786
451 1 11.602 1.68159 5.95475
458 1 12.2907 0.268495 7.52113
292 1 36.0078 59.817 8.36277
293 1 36.8794 0.133786 8.77977
456 1 11.0245 59.4011 7.79725
457 1 12.0837 59.2291 7.69888
287 1 38.362 1.11592 7.34298
289 1 37.1317 0.699241 7.06658
285 1 37.7538 0.439486 8.04092
286 1 38.4156 0.923949 8.4517
284 1 37.3282 59.5403 8.03953
447 1 10.8597 1.47198 6.65313
450 1 11.6185 2.59441 5.63201
283 1 37.6406 59.696 7.1127
290 1 36.6311 0.108051 7.48347
291 1 35.8925 59.3605 7.48467
297 1 36.5753 57.7058 7.8014
282 1 36.9105 59.1394 6.77165
296 1 36.6289 58.675 8.06439
446 1 11.7673 1.13631 6.94371
454 1 11.0206 0.487413 6.35856
453 1 11.9365 0.528458 5.742
452 1 12.4119 1.37779 5.67974
455 1 11.4001 59.8908 7.11753
176 1 53.9922 6.20919 7.84284
288 1 37.8987 0.722731 6.46916
298 1 35.6718 58.0226 8.09444
448 1 10.6289 1.1935 5.75091
449 1 10.7402 2.21276 5.84936
299 1 34.9952 57.2672 8.01849
281 1 36.2447 58.4304 7.0586
300 1 35.2176 57.57 7.16726
169 1 54.6295 6.74212 9.94532
168 1 54.4901 6.11843 10.6714
167 1 53.9303 5.57516 9.96896
247 1 50.7588 6.22788 9.47954
170 1 53.6657 6.61292 10.2994
173 1 53.1576 6.05095 8.52741
172 1 52.6668 5.64778 9.35764
165 1 53.7256 5.33803 11.0182
166 1 53.2716 5.07517 10.0634
171 1 52.9025 6.5039 9.64485
246 1 51.4397 6.76967 9.94397
174 1 53.778 6.20487 9.21527
175 1 54.4372 6.80313 8.58767
178 1 53.202 6.2587 6.95577
177 1 53.253 5.454 7.31565
243 1 51.7785 6.54685 8.43438
180 1 52.3882 6.20995 5.73746
164 1 52.8984 5.69985 10.9515
248 1 51.5581 5.69501 9.168
249 1 52.1446 4.98495 9.85149
251 1 51.0397 5.33045 10.2289
250 1 51.9801 5.83298 10.2522
162 1 53.5099 7.27083 11.1681
163 1 53.4246 6.26251 11.5851
161 1 53.0532 7.47314 10.2751
245 1 52.1361 7.36356 9.47434
244 1 52.5957 7.14614 8.5745
242 1 51.5591 6.06731 7.44677
241 1 50.9542 5.74204 8.21108
179 1 52.6952 5.54677 6.37987
390 1 36.4527 0.679027 15.2204
391 1 35.6792 1.21209 15.1328
260 1 52.493 4.11262 10.6025
259 1 52.2841 4.85936 11.0207
255 1 51.9391 6.81251 11.7154
252 1 50.8745 5.64782 11.323
257 1 52.6507 5.41603 11.9745
256 1 52.2388 6.28074 12.5017
254 1 52.2686 6.65204 10.8532
253 1 51.1877 6.52506 10.8887
277 1 36.9502 0.530677 19.3113
385 1 35.1533 59.5539 17.0816
387 1 35.5927 0.401736 16.3486
388 1 36.4641 0.281345 16.2096
389 1 36.1882 59.7225 15.5358
275 1 35.8048 0.0911789 18.1011
276 1 36.7401 0.143795 18.4561
392 1 35.2925 2.01222 14.7289
393 1 34.9931 1.81845 15.7669
261 1 33.9812 1.90631 14.4692
258 1 51.9195 5.76228 11.4586
279 1 36.0589 0.185041 19.3716
280 1 36.2164 59.3404 19.0845
278 1 36.1975 1.07349 18.9559
383 1 34.7175 59.6921 16.1225
273 1 34.5596 0.235726 18.6813
386 1 36.0272 59.6564 16.9772
382 1 34.5775 0.453988 15.6782
274 1 35.2296 59.6333 18.4591
384 1 35.0417 58.822 16.4036
399 1 32.4976 1.17756 17.1606
395 1 34.4471 0.570474 17.0171
400 1 32.9369 2.05215 17.0433
394 1 34.4778 1.21934 16.366
272 1 34.8505 0.985242 18.3047
271 1 34.7387 1.43563 17.4645
267 1 35.7082 2.01659 18.415
264 1 34.2428 2.37217 16.8364
266 1 35.4692 2.22904 17.5131
265 1 35.2216 2.40697 16.5958
263 1 33.7273 2.11769 16.2316
262 1 34.0548 2.27282 15.3906
381 1 34.3562 1.13263 15.1411
398 1 32.4865 1.31578 18.2539
397 1 33.2898 0.540434 18.4327
396 1 34.0995 0.563072 17.8123
270 1 35.515 1.36765 16.9761
269 1 36.1636 0.776752 17.2008
268 1 35.9595 1.25896 17.9746
222 1 37.6757 9.6218 25.5421
223 1 38.3234 10.3252 25.0367
225 1 39.1799 10.7237 25.4904
232 1 37.9066 10.1822 26.4418
221 1 37.179 10.4329 25.5478
226 1 39.1103 11.4638 26.0941
231 1 38.2039 9.35712 26.5328
224 1 38.8134 9.78998 25.6128
235 1 36.8854 10.3097 27.528
233 1 38.206 11.1916 26.8054
227 1 40.1229 11.5287 26.0694
228 1 40.0341 10.7731 26.4014
234 1 37.2496 11.0125 27.0157
230 1 39.177 9.40599 26.5757
229 1 39.2133 10.3293 26.5961
237 1 36.9666 9.41849 26.7678
236 1 36.1227 9.90314 27.1195
238 1 37.5001 9.27576 27.625
239 1 37.8362 9.89012 27.7714
240 1 38.6339 9.9715 27.4247
70 1 19.2297 53.5136 32.3763
71 1 19.1627 52.5748 32.6387
67 1 20.1815 53.3875 30.4574
68 1 19.5712 52.6061 30.7218
69 1 19.5884 53.2485 31.6358
63 1 19.7956 54.6459 31.8065
64 1 18.9397 54.2294 31.6207
65 1 19.1893 53.831 30.7773
66 1 19.4223 53.7463 29.8503
25 1 49.0338 59.445 36.239
35 1 50.6332 0.117547 36.6361
26 1 48.3284 -0.0142082 36.7245
34 1 49.7732 59.864 36.8834
73 1 19.9902 52.8844 33.3219
72 1 20.128 52.4135 32.5761
74 1 20.2255 53.7825 32.8903
61 1 20.5332 54.7886 32.5476
80 1 19.4672 55.0208 30.3691
75 1 21.0459 53.4788 32.4459
62 1 20.1166 55.5892 32.0818
76 1 20.8056 53.9233 31.4703
79 1 20.4769 55.2618 30.3447
78 1 20.228 54.4134 30.7305
77 1 20.7005 54.8504 31.3418
339 1 3.88197 58.3766 37.3639
340 1 3.83089 57.7658 36.606
38 1 49.7265 58.8291 37.2319
40 1 50.2189 57.8013 36.364
36 1 50.961 59.5007 37.0755
33 1 49.1933 0.70838 36.5888
32 1 48.8013 1.5186 36.6145
24 1 48.9206 58.4741 36.2283
28 1 49.0757 59.6374 37.785
27 1 48.5614 59.0583 37.1151
23 1 48.1881 58.1851 36.7541
81 1 6.54862 4.13796 38.6707
100 1 6.37226 4.33449 40.2037
197 1 55.4519 55.3082 39.4529
465 1 57.9706 52.85 39.1568
466 1 58.6267 52.324 38.5326
469 1 59.2256 52.065 37.5555
468 1 59.2244 53.1014 37.2804
411 1 1.06178 53.4705 36.3785
410 1 1.01296 52.5329 36.6064
336 1 2.63486 58.9642 37.3463
377 1 4.90729 58.4252 38.1318
39 1 50.4012 58.7675 36.4507
337 1 3.06523 59.3181 38.0966
335 1 2.60853 58.4933 36.4431
338 1 3.1303 58.1776 38.0548
486 1 2.40892 57.2692 37.9924
37 1 50.3027 59.5398 37.7163
30 1 50.2174 1.05508 37.8532
29 1 49.3198 0.490064 37.6818
31 1 49.4693 1.49909 37.3367
481 1 1.73654 58.919 39.8344
482 1 2.23395 58.8295 39.0403
483 1 3.09942 58.2783 39.1131
22 1 48.9167 57.5388 36.8763
21 1 48.0025 57.1189 36.6391
349 1 6.71952 5.90215 41.0082
82 1 6.70196 3.69701 37.7338
83 1 7.53821 4.23108 38.1421
84 1 7.83587 3.45691 37.9874
99 1 6.95999 4.94654 39.6376
350 1 7.50518 5.66417 40.7324
98 1 6.82768 5.80134 39.3322
97 1 7.013 6.26651 38.3861
359 1 5.84944 6.24111 39.4406
358 1 6.5778 6.5004 40.0693
198 1 54.5992 54.7552 39.5275
215 1 54.6213 54.1221 40.8103
202 1 53.3033 53.9725 39.3966
203 1 54.0271 54.258 38.6934
188 1 56.3586 53.9133 37.7186
187 1 57.3694 53.87 37.4686
463 1 59.6211 52.4685 38.7428
464 1 58.9221 53.2314 38.8488
409 1 0.460945 51.8547 36.4736
408 1 1.21347 51.5225 37.0086
407 1 1.92666 51.97 37.5208
200 1 53.2857 55.3624 39.2498
199 1 53.7385 54.8247 39.7632
196 1 54.6633 55.9425 38.9698
216 1 55.1539 54.8367 40.5645
191 1 55.7949 54.9083 37.4058
195 1 55.3345 55.5431 38.3524
201 1 53.4567 53.2433 39.9905
190 1 56.391 54.7382 36.5732
186 1 57.0886 54.7618 37.737
467 1 58.351 52.6261 37.5747
462 1 59.1297 51.4782 38.6827
406 1 1.87178 51.5362 38.289
412 1 2.07858 53.4808 36.5841
419 1 2.6756 52.579 37.9706
420 1 2.71839 52.0045 38.7124
122 1 4.43404 52.4108 37.2017
121 1 3.84546 52.9349 37.741
194 1 55.8366 54.6053 38.4188
193 1 56.4444 55.2856 38.5402
192 1 56.3979 55.8348 37.8088
183 1 57.2324 55.228 39.335
473 1 59.5849 54.2104 37.1462
472 1 0.0763955 53.4778 36.8063
470 1 0.211584 52.36 37.475
413 1 2.63148 52.892 36.0714
471 1 0.125743 53.3055 37.9305
414 1 2.61389 53.5854 35.3879
415 1 2.69395 54.3265 36.1489
416 1 3.20577 53.6017 36.5726
417 1 3.08975 54.0909 37.4882
418 1 2.3642 53.4375 37.5664
125 1 4.18474 53.4589 36.918
124 1 4.73775 52.8673 36.0821
126 1 5.01522 54.0072 36.7737
131 1 4.94354 56.3135 37.8679
367 1 3.96773 56.0022 37.8603
491 1 2.27631 55.0804 38.2218
379 1 4.79005 57.6109 37.2681
380 1 4.1256 56.9363 37.4498
378 1 5.57355 57.8634 37.5459
374 1 4.17979 57.9652 39.4121
334 1 2.28088 57.9645 37.1984
331 1 1.27945 56.791 38.1755
489 1 2.72617 55.94 37.827
488 1 3.31661 56.8702 38.0706
487 1 3.18707 57.4916 37.2739
134 1 3.82891 57.1101 38.9586
368 1 3.63464 56.0889 38.7838
376 1 5.53224 58.964 38.6489
375 1 4.93937 58.4787 39.192
333 1 1.55146 58.3757 37.8367
484 1 2.28491 58.0016 39.6945
485 1 2.01527 57.8341 38.7593
135 1 2.96022 56.9773 38.9839
87 1 9.70356 4.17105 39.3844
88 1 9.08751 4.71185 38.7562
348 1 6.80731 4.92687 40.9985
347 1 7.39424 4.39179 40.4162
96 1 7.60099 5.32987 38.3917
95 1 8.07219 4.75276 39.0148
85 1 8.51988 4.15656 38.1582
341 1 6.93666 2.52335 37.8139
89 1 9.38117 5.24238 39.5578
86 1 9.02198 3.56439 38.8919
351 1 7.63518 6.471 41.2905
352 1 7.95464 5.65395 41.7754
353 1 8.21377 4.97561 41.0635
360 1 6.03205 5.45374 40.18
357 1 7.66204 6.51196 40.0896
356 1 8.61158 6.70023 40.1197
355 1 8.60694 6.76459 41.1079
211 1 54.5633 52.5371 39.7405
213 1 55.7016 53.7236 39.7528
214 1 55.5725 53.5589 40.7137
212 1 54.7884 53.46 39.3726
210 1 55.5277 52.584 39.2172
205 1 55.1882 53.769 37.9181
204 1 54.848 54.3201 38.611
476 1 58.3703 54.2064 38.9375
217 1 55.8867 55.3955 40.6041
218 1 56.2939 54.4804 40.3682
206 1 55.7833 53.3517 38.546
478 1 57.371 53.2558 38.3078
189 1 56.2288 53.7546 36.7272
477 1 57.4269 54.2889 38.5841
474 1 59.496 54.2769 38.159
475 1 58.4718 54.0475 37.867
461 1 59.8578 50.8802 38.6808
405 1 1.63057 52.0647 38.9947
403 1 0.655481 52.817 38.8242
404 1 1.14338 52.1448 38.1354
123 1 4.07654 52.1584 36.2629
219 1 56.9694 55.1761 40.9095
220 1 57.5323 55.7936 40.4108
207 1 56.5125 53.69 38.8981
182 1 57.148 54.3312 39.5706
181 1 57.2969 54.1266 40.6019
184 1 58.202 55.2757 38.8301
185 1 58.0921 55.0149 37.8804
401 1 1.0851 53.2173 37.3709
402 1 1.04234 53.6491 38.2802
500 1 3.23703 53.4713 38.4127
493 1 1.83637 53.1765 38.5245
499 1 4.17495 53.8839 38.5377
127 1 4.83069 54.5877 35.9194
128 1 3.91583 54.3934 36.1942
327 1 0.86189 55.4808 39.1767
490 1 3.12393 55.2858 38.3731
492 1 2.40188 54.0962 38.4356
362 1 3.20186 54.4461 38.9001
132 1 5.23865 57.2781 38.3153
365 1 3.41057 55.3458 37.2903
129 1 4.45909 54.9966 36.8815
130 1 4.89002 55.3926 37.6646
372 1 4.38222 56.2826 39.4826
373 1 4.54643 57.3331 39.799
139 1 3.45839 57.9683 40.5313
140 1 3.09548 58.6302 41.0929
330 1 1.91623 56.8773 38.9658
328 1 1.60434 55.9102 38.8348
369 1 3.65074 55.4728 39.7557
366 1 3.94516 56.0964 36.8912
133 1 4.20087 57.5809 38.2006
370 1 4.12836 54.6427 39.7964
136 1 2.44662 56.9752 39.803
137 1 3.45205 57.0735 39.9077
138 1 2.81573 57.1312 40.7379
332 1 1.24694 57.5397 37.4553
342 1 6.91319 3.06564 38.6369
343 1 6.77195 2.2567 39.1248
345 1 7.39765 3.91974 39.4774
346 1 7.95282 3.56585 40.2165
94 1 8.51272 4.12826 39.5903
90 1 10.0969 5.11522 40.2372
91 1 9.59875 4.90498 41.0582
93 1 8.42166 4.89869 40.0747
92 1 9.31012 4.3609 40.3305
354 1 8.71941 5.71903 40.71
480 1 56.9249 51.8996 37.7898
479 1 56.5186 52.7424 37.9305
208 1 56.822 53.2719 39.764
209 1 56.5227 52.5636 39.1861
496 1 2.30955 54.0141 39.686
497 1 2.87552 53.3903 39.4494
498 1 3.79717 53.773 39.4083
326 1 1.59397 55.0255 39.2596
495 1 1.32319 53.9516 39.2842
494 1 1.64481 53.0557 39.4274
361 1 3.03303 54.6539 39.7856
364 1 3.8399 54.6881 37.8399
324 1 2.13798 54.8857 40.3178
329 1 2.5474 56.0478 39.219
325 1 1.42477 55.7293 39.9774
363 1 4.21532 54.814 38.6105
322 1 3.58187 54.4243 40.8068
371 1 4.54718 55.5366 40.1647
321 1 4.00277 55.2111 41.3806
344 1 6.96161 3.10173 39.6344
323 1 2.62784 54.1494 40.9129
41 1 58.1694 34.3597 46.0661
54 1 57.4636 32.4483 45.7669
57 1 56.6188 31.7615 47.6294
55 1 57.5102 31.5068 46.0915
58 1 57.2424 31.0427 47.3094
117 1 37.3705 52.3323 45.2017
42 1 58.2893 33.5404 45.96
43 1 57.6336 33.0852 46.6303
52 1 59.209 32.1412 46.6467
45 1 58.3201 32.4371 47.0587
44 1 57.6203 32.7975 47.7042
51 1 59.498 32.9451 46.2393
50 1 0.108426 32.863 45.4129
53 1 58.4171 32.3043 45.9806
47 1 59.0102 30.7805 46.9874
56 1 57.3391 31.9739 46.8925
49 1 59.6165 31.9852 45.7906
60 1 58.2782 30.8426 47.8437
59 1 57.3681 30.6204 48.1594
115 1 37.8585 51.0148 45.5268
106 1 38.3802 51.5708 43.7361
107 1 39.0053 51.3297 44.4316
108 1 38.4813 50.5823 44.7147
103 1 38.0497 50.5283 43.7842
118 1 38.2572 52.7494 45.6054
119 1 38.2334 51.9006 46.1845
120 1 37.4347 52.4932 46.398
116 1 38.2376 51.883 45.0752
109 1 37.6654 51.1066 44.5011
111 1 38.0971 52.8726 44.3521
101 1 36.567 51.1154 43.453
46 1 58.3312 31.4425 46.9624
48 1 59.5803 31.2097 46.2809
113 1 39.1863 51.9695 45.391
114 1 38.8318 51.0928 45.6311
104 1 38.8415 49.8205 43.9214
105 1 38.9649 50.727 43.4564
112 1 38.9981 52.3755 44.5438
110 1 37.4663 52.0197 44.1419
102 1 37.5624 51.055 43.2687
2 1 40.6101 4.36409 3.38256
1 1 41.6161 3.8742 3.39083
11 1 42.1606 6.56318 0.0565015
3 1 40.3034 5.34562 3.51835
5 1 41.3553 5.20942 3.29504
4 1 40.5797 5.53476 2.64163
14 1 40.6722 4.43229 0.922802
13 1 41.4992 5.03336 1.07707
16 1 40.306 5.26209 1.57257
15 1 40.5467 5.4241 0.703999
7 1 42.1384 6.18437 1.97952
6 1 41.7647 5.43914 2.41603
428 1 7.28829 56.4613 0.714119
429 1 7.88702 57.2701 1.09738
427 1 6.96596 55.5312 1.03738
426 1 7.30532 56.1135 1.79997
434 1 7.30971 57.2036 2.03635
421 1 6.10083 57.5323 2.09255
425 1 6.37034 56.5378 1.73602
433 1 8.16873 56.7512 1.95281
424 1 6.80717 57.3996 1.18471
ITEM: TIMESTEP
49000
ITEM: NUMBER OF ATOMS
500
ITEM: BOX BOUNDS pp pp pp
0.0000000000000000e+00 6.0000000000000000e+01
0.0000000000000000e+00 6.0000000000000000e+01
0.0000000000000000e+00 6.0000000000000000e+01
ITEM: ATOMS id type x y z
14 1 37.4909 6.85746 2.53007
15 1 37.1995 6.84629 3.46042
9 1 39.2627 5.58346 4.35559
8 1 38.9315 5.76924 5.40087
13 1 38.0698 5.89495 2.61538
12 1 39.0761 5.65549 2.73606
11 1 39.2995 4.77666 3.38447
10 1 38.6307 5.52907 3.6974
427 1 6.19617 56.9509 1.8702
428 1 7.03735 57.2428 1.59105
431 1 7.55466 58.2535 2.52366
424 1 4.33875 57.9051 2.68015
423 1 4.87649 57.973 1.7619
429 1 7.10158 58.2675 1.53117
430 1 6.62206 57.9084 2.32148
313 1 6.76437 58.2811 3.83592
4 1 38.2004 8.27891 4.51421
16 1 37.6173 6.21454 4.12791
6 1 37.9473 7.16123 4.78027
17 1 38.5948 6.37842 4.37007
18 1 38.4503 6.75033 3.42635
7 1 38.3108 6.47059 5.45826
20 1 39.259 6.50758 2.13826
437 1 3.99492 57.8409 4.35728
425 1 5.18275 57.6268 3.05246
435 1 5.47064 58.0062 4.8215
426 1 5.6286 57.2571 2.26591
433 1 6.35894 57.2415 3.61067
432 1 7.37471 57.3484 3.21653
309 1 6.85005 59.9494 2.53795
310 1 6.18015 59.5992 1.96664
438 1 4.43275 58.6255 4.21309
439 1 4.89413 58.5334 3.47148
422 1 5.83669 58.2032 1.71848
317 1 5.06192 59.7304 4.71887
421 1 5.79218 58.5471 2.62157
314 1 5.82363 58.0808 3.753
318 1 4.33757 0.360916 4.36336
434 1 6.22569 57.6506 4.53479
308 1 7.32044 0.111002 3.37836
312 1 7.19423 58.9367 3.21404
311 1 6.7586 58.9274 2.37947
319 1 4.69142 0.208286 3.44281
320 1 4.01749 59.3637 3.63024
1 1 37.8407 9.30019 5.1015
2 1 37.2617 9.05625 4.35261
3 1 37.2531 8.0887 4.71408
5 1 37.916 7.5959 3.91656
19 1 39.3336 7.0149 2.93342
436 1 4.81439 57.6249 4.07411
440 1 4.37891 58.9469 2.66711
316 1 5.3683 59.4327 3.7521
307 1 6.93896 59.4102 4.09533
301 1 7.78178 1.26439 2.67856
315 1 5.96691 58.8763 4.30638
304 1 6.97288 0.86978 4.28751
306 1 6.27439 59.5516 3.21781
303 1 8.00876 0.603672 4.33555
305 1 6.27484 0.439781 3.55474
452 1 15.3067 2.4767 5.7815
450 1 15.8783 2.20077 7.2101
141 1 19.0586 9.27871 7.0904
143 1 17.4869 9.93607 7.0346
142 1 18.1837 9.25493 7.58166
153 1 17.476 8.49666 7.35048
145 1 17.6714 8.33013 6.3618
144 1 17.9314 9.22544 6.41383
160 1 16.829 9.1923 5.58754
302 1 7.98819 1.3027 3.70451
454 1 15.3521 1.43854 5.34525
448 1 14.9792 1.62176 7.73143
459 1 16.45 2.33717 6.26717
446 1 14.8713 2.05471 6.75133
453 1 14.5355 1.99837 5.69744
289 1 36.6645 59.8893 8.34794
288 1 35.7361 59.9256 8.95338
447 1 14.7895 2.5775 7.54457
449 1 15.6969 2.03731 8.22411
460 1 17.0138 1.80788 6.83522
451 1 15.4932 2.85948 6.6058
179 1 54.7242 4.67213 7.67332
180 1 53.8857 3.94925 7.60803
178 1 54.7261 4.38963 6.66891
151 1 16.5807 7.80642 7.44251
148 1 18.6098 7.28553 6.95565
147 1 18.7179 8.22156 7.1639
155 1 16.5723 8.27305 6.32701
152 1 17.3982 7.72309 7.9692
149 1 18.0101 7.3575 6.21539
154 1 16.6606 8.80454 7.10724
146 1 18.7227 8.13195 6.28306
150 1 17.3241 7.40414 6.97153
158 1 17.0816 8.00794 4.64167
159 1 17.549 8.7228 5.18184
300 1 37.4243 1.80935 6.48821
281 1 37.7058 59.8025 8.20802
455 1 14.6114 1.50587 4.7116
282 1 37.5152 58.7756 7.92187
283 1 36.502 58.6841 7.66761
445 1 15.6939 1.54396 6.3297
458 1 16.4335 1.72144 5.35191
290 1 36.6226 59.8788 7.43485
287 1 35.4752 59.2206 9.61951
285 1 34.9005 58.8466 8.64031
286 1 35.8193 58.8912 8.77143
443 1 14.2977 0.918903 5.59481
442 1 13.4132 0.689918 5.01113
241 1 52.5257 5.72978 6.24837
177 1 54.8034 5.35175 6.87556
243 1 51.8503 4.43655 6.48421
242 1 52.0495 5.10101 5.56505
176 1 54.0775 5.35116 7.40448
173 1 53.9884 5.05415 6.292
156 1 17.1366 7.70445 5.70386
157 1 17.9682 7.65233 5.146
298 1 37.4762 0.684623 6.21206
299 1 36.6677 1.10114 6.42447
297 1 37.4935 0.53757 7.12848
456 1 14.8531 2.38905 4.76438
457 1 15.7746 2.34893 4.84238
292 1 36.1001 0.258521 6.61036
291 1 36.354 0.776371 7.42688
296 1 37.7832 59.6289 6.95008
284 1 35.5962 58.4182 7.91125
293 1 35.6405 59.6104 7.26675
444 1 15.0979 0.694999 6.29535
441 1 13.2528 1.53012 4.50671
172 1 53.0596 4.45796 6.51301
248 1 52.4702 3.46817 7.44616
249 1 52.6191 4.48476 7.52189
167 1 53.2898 6.84256 8.65462
247 1 51.5761 3.89699 7.55072
246 1 50.6178 4.21774 7.34579
244 1 51.6314 3.4492 6.5669
171 1 53.0927 5.3727 7.12515
174 1 54.2799 5.867 5.86182
169 1 52.968 7.04686 7.36763
175 1 53.8721 6.14211 6.80149
245 1 50.721 3.89564 6.51247
295 1 37.0854 59.5919 6.39919
294 1 36.2601 59.037 6.73935
260 1 53.1251 3.14693 9.48028
251 1 51.8381 4.71739 8.24312
252 1 52.4977 3.99199 8.78469
259 1 53.2755 4.06577 9.68553
165 1 52.4507 6.33428 8.37292
166 1 53.2408 5.8533 8.98399
164 1 51.6807 5.97794 7.98602
253 1 52.1467 3.97982 9.77312
250 1 52.6134 5.36435 8.10725
254 1 52.4414 4.95174 9.57774
170 1 53.2531 6.1554 7.69389
168 1 53.9482 6.90311 7.83714
162 1 51.5064 5.46426 6.41348
161 1 52.0309 6.44976 6.85405
257 1 53.0206 5.68783 10.0434
255 1 51.7644 5.79064 9.59403
256 1 52.5808 6.44945 9.44636
258 1 53.679 4.8393 10.0509
163 1 51.6927 5.18615 7.3413
391 1 37.5194 0.145999 17.3907
382 1 36.2631 58.0053 16.7049
381 1 35.565 58.1374 17.4076
390 1 37.9488 0.945075 17.1032
261 1 37.405 59.2155 16.9544
262 1 36.5395 59.5322 16.4688
392 1 36.6879 59.8486 17.4946
389 1 38.0294 1.19538 17.9225
387 1 37.9627 0.174983 18.6954
395 1 35.9599 59.1763 18.1661
394 1 35.6567 59.419 17.25
270 1 36.5175 0.591685 18.457
388 1 37.3986 0.861068 18.448
400 1 34.9014 59.9423 16.7396
264 1 36.9147 1.50981 16.7836
263 1 36.5472 0.604474 16.5304
393 1 35.6882 0.25803 17.4755
265 1 37.8694 1.8014 16.3959
385 1 37.7449 58.9553 18.8131
383 1 36.6361 58.7525 17.2515
384 1 37.0697 58.9989 18.0674
386 1 38.4176 59.3806 18.2413
399 1 34.2663 59.5154 17.4019
398 1 34.2382 59.2558 18.3217
397 1 35.1234 59.1763 18.9366
396 1 35.6489 59.9839 18.7315
272 1 36.2505 59.277 19.2408
275 1 35.4077 0.566109 20.4935
276 1 35.0521 59.8595 19.8502
269 1 36.4905 1.00936 17.7221
268 1 36.1639 1.97366 18.2388
271 1 36.9541 59.8276 18.7913
267 1 37.2247 1.93534 17.9775
266 1 37.4975 2.29429 17.1843
274 1 36.3427 0.454185 20.0668
273 1 35.9265 59.5287 20.1565
277 1 34.5779 0.149727 19.1575
279 1 35.7007 0.7463 19.3938
278 1 34.7491 1.06954 19.1238
280 1 35.569 1.03017 18.4123
222 1 41.8243 9.40202 25.3051
224 1 40.5403 10.173 26.2347
223 1 41.5368 10.0028 26.101
221 1 41.0409 9.01383 25.5175
225 1 39.5734 10.378 26.4458
237 1 38.1135 12.0859 29.8713
236 1 38.7872 11.3894 29.9825
231 1 38.2455 10.9241 27.6835
230 1 38.0327 9.8664 27.5722
232 1 38.3034 11.3249 28.6789
233 1 37.7137 10.5057 28.5099
234 1 38.0743 10.0504 29.348
229 1 38.7755 10.0413 28.2888
228 1 39.2274 9.8602 27.5491
226 1 39.6443 10.9636 27.2123
227 1 39.6502 10.6532 28.1028
238 1 37.3967 11.3327 29.6005
239 1 36.8536 11.1755 28.8204
240 1 36.0815 10.7032 29.3002
235 1 38.7914 10.6044 29.3466
66 1 18.8797 53.4039 29.1444
68 1 19.2418 52.7254 30.1374
65 1 18.7323 54.3182 29.5711
67 1 19.1499 52.5774 29.1534
80 1 18.1228 54.2478 27.3149
79 1 18.8693 53.6702 27.3468
78 1 19.1817 54.1437 28.0764
77 1 19.755 54.0505 28.9513
71 1 20.9835 53.2287 30.3195
72 1 21.6425 53.3938 29.4747
70 1 20.4853 53.6147 29.5516
69 1 20.0499 52.7232 29.5836
64 1 19.4516 53.779 29.8748
74 1 21.0111 53.7951 28.457
75 1 20.378 53.71 28.0174
76 1 19.7857 53.0703 28.4922
63 1 20.0169 54.6085 29.9577
61 1 19.7792 54.8923 28.3582
62 1 20.3817 55.127 29.1289
73 1 20.9857 52.8984 28.7215
414 1 3.28972 53.8677 35.9933
33 1 49.2072 59.8792 37.2594
35 1 48.6148 59.0913 38.324
32 1 48.9164 59.063 37.2481
410 1 0.90401 54.1374 35.3094
409 1 1.46999 53.7404 34.5509
408 1 1.94582 53.3333 35.287
123 1 4.66854 52.8828 35.8174
411 1 1.70878 54.5747 35.7787
472 1 58.7131 54.1134 37.1227
412 1 2.57093 54.5307 36.0203
413 1 2.14974 53.6454 36.1738
416 1 2.97869 51.94 36.5319
125 1 3.51077 52.3536 37.38
124 1 4.36505 52.342 36.65
126 1 4.31792 52.0012 37.9102
189 1 57.6455 56.5186 37.5828
415 1 3.36121 52.8773 36.3031
128 1 4.36016 54.1687 37.5261
127 1 4.28472 52.8764 37.4765
129 1 4.43952 55.1814 37.3083
190 1 58.3327 56.3208 38.3439
366 1 3.04803 55.1381 37.833
21 1 51.3778 58.5945 38.8893
335 1 0.569611 57.3793 38.8955
340 1 2.7787 56.2002 37.663
23 1 51.317 58.1579 37.3208
24 1 51.7932 58.7135 36.7335
22 1 50.8624 58.493 38.0974
40 1 50.064 0.755664 38.3591
26 1 50.0878 59.0125 37.659
27 1 49.5463 58.5777 38.3424
25 1 50.9827 59.1931 37.1491
34 1 48.3673 59.7849 37.7079
36 1 49.3797 59.7655 38.5234
39 1 50.193 0.026091 37.7111
29 1 48.1252 57.8861 38.5038
30 1 47.4651 58.783 38.234
341 1 6.94545 3.80946 38.3043
31 1 48.0884 58.5805 37.5155
82 1 5.04966 2.24542 39.4381
83 1 5.3961 3.01473 38.9379
84 1 5.47853 3.94704 38.3832
85 1 6.14264 4.53812 38.7597
96 1 4.95059 4.32445 40.1156
97 1 4.47832 4.0273 40.9751
470 1 59.8946 53.2029 37.8042
404 1 0.523022 54.4885 36.4202
407 1 1.06776 52.8294 35.2906
406 1 0.225068 52.8091 35.9143
419 1 1.87074 51.0355 36.1583
122 1 4.5813 53.578 36.5131
480 1 58.6406 53.9992 40.4007
479 1 58.0419 53.6509 39.71
467 1 57.5639 53.422 38.2922
466 1 58.0177 52.5913 38.0138
469 1 59.0024 53.1117 37.3594
471 1 59.5215 54.1647 37.6451
401 1 0.0159781 53.7695 35.7074
402 1 1.07118 53.6442 36.2208
418 1 1.28172 51.8469 35.8377
493 1 1.62969 53.321 37.137
492 1 2.6924 53.2601 37.18
121 1 5.45623 53.3802 37.3491
417 1 2.08216 52.3346 36.1756
500 1 2.52657 51.733 38.1079
499 1 2.74918 52.0597 38.9997
205 1 57.0689 55.2023 38.6619
188 1 58.1738 56.1791 36.8721
206 1 57.8349 54.6542 39.1831
187 1 58.8371 56.2651 37.3927
478 1 58.8192 53.9998 39.0923
477 1 59.068 55.0026 38.868
475 1 58.29 55.1602 38.0265
468 1 58.672 53.5434 38.2064
473 1 57.917 54.1739 37.7107
474 1 57.8095 54.9256 37.2051
491 1 2.31604 54.1274 37.482
490 1 1.45434 54.0735 37.906
365 1 3.41132 54.8215 36.7727
364 1 3.32863 54.0402 37.0839
130 1 4.31318 55.8353 38.0693
195 1 57.2069 56.1487 39.7642
191 1 58.0198 57.2372 38.537
186 1 58.8424 57.0928 37.7931
194 1 57.8098 55.7565 39.0735
193 1 58.7218 56.038 39.2786
185 1 59.0982 56.9339 38.6845
331 1 0.133692 57.3628 37.2468
489 1 1.24637 54.7766 38.3892
367 1 3.34389 54.4164 38.3639
380 1 2.60838 58.9667 38.2558
488 1 1.94103 55.0267 37.9721
131 1 3.43481 56.0461 38.4418
192 1 58.0957 56.7572 39.3493
332 1 59.874 56.962 37.9362
486 1 1.33045 56.027 36.9408
334 1 0.577355 56.4982 38.4359
333 1 0.908683 56.6858 37.6117
339 1 2.39118 56.9929 38.0915
338 1 1.92047 57.4754 37.4758
487 1 2.12999 55.3049 37.1279
133 1 2.47327 55.8041 38.6062
377 1 2.25522 57.7395 38.914
379 1 2.97821 58.108 38.1657
378 1 2.78872 58.3184 39.2399
132 1 2.82069 56.4312 39.1668
336 1 1.24546 57.8829 38.2017
337 1 1.07761 57.9863 37.1118
38 1 51.0424 0.0569413 38.1155
28 1 48.8915 58.1455 38.85
37 1 50.3701 59.4582 38.6435
343 1 6.49869 2.90786 39.0325
81 1 4.63805 2.98115 39.8708
342 1 6.25072 3.19186 38.1628
344 1 7.48243 3.02628 38.9738
345 1 8.05231 2.27637 38.3651
94 1 5.59586 3.80697 39.4299
87 1 7.46039 4.3005 39.2616
86 1 6.67498 4.10677 39.6075
99 1 5.85278 3.09948 40.1926
95 1 5.08749 4.60995 39.2556
88 1 6.94457 5.10246 39.1852
89 1 6.84732 5.98146 38.8277
98 1 5.30901 3.59796 41.012
359 1 4.89713 4.5291 42.6252
461 1 58.1291 51.3684 38.6933
403 1 1.37622 54.2057 36.8105
420 1 1.0573 50.7446 35.5983
405 1 0.137336 53.4602 36.704
211 1 57.9512 55.7774 40.8785
210 1 58.7375 56.0827 40.9401
209 1 59.0904 55.3854 40.4201
463 1 56.9157 52.4235 38.6903
462 1 57.1313 51.5466 38.7119
495 1 1.16659 52.4889 36.9908
496 1 1.17455 52.8299 37.9817
494 1 1.9785 52.435 37.5149
497 1 1.30174 51.8989 38.1365
498 1 1.8965 51.5383 38.8814
202 1 56.0277 55.709 39.8775
203 1 56.3082 56.2219 39.0733
201 1 55.0268 55.5247 39.625
212 1 58.2127 55.6644 41.7573
213 1 57.9761 56.5548 41.5335
207 1 57.4275 55.1018 40.0623
208 1 58.3781 55.0459 39.8217
465 1 57.9227 52.6416 39.1095
476 1 59.146 55.165 37.8041
464 1 57.082 53.1984 39.1897
327 1 0.666341 54.9165 37.294
326 1 0.443553 54.0096 37.6215
362 1 3.00145 52.7298 38.2287
369 1 2.60548 53.3319 39.3987
370 1 3.41689 53.7949 39.5453
361 1 2.11891 52.9748 38.5556
363 1 3.49278 53.5502 37.7978
200 1 56.2918 56.4839 40.4843
199 1 57.0694 56.3307 40.7799
197 1 57.5074 57.2452 39.984
198 1 57.9525 56.6826 40.381
204 1 57.0257 56.0317 38.4524
183 1 0.280317 55.5597 38.8746
182 1 0.352222 55.64 39.8353
184 1 59.4885 56.0877 38.3844
330 1 59.917 56.5202 36.7158
328 1 0.608093 55.4664 37.9038
136 1 1.73503 54.7716 39.8274
329 1 59.8813 55.832 37.3925
134 1 2.41681 54.8833 38.9546
368 1 2.47468 53.9226 38.5557
135 1 2.42733 55.4832 39.5887
137 1 1.63829 54.7696 40.7548
372 1 3.50359 55.6361 39.5409
196 1 57.1314 56.8232 39.0697
484 1 1.4374 55.6221 38.8838
485 1 1.6384 55.9714 37.8904
483 1 1.56988 56.5883 38.7942
374 1 2.66331 56.3122 40.3713
375 1 2.52795 57.2118 40.6719
373 1 3.2919 55.6948 40.5577
481 1 0.672814 56.6513 39.7139
482 1 1.69844 56.3055 39.8004
376 1 1.91344 57.2841 39.847
346 1 7.9423 2.1079 39.353
100 1 6.18206 2.62944 40.9746
348 1 7.04275 3.17962 39.9382
360 1 4.67552 5.42469 42.1547
350 1 6.6507 3.36925 41.7576
347 1 7.85171 2.70903 40.0558
353 1 6.20342 4.93474 41.2018
93 1 5.96801 4.15321 40.3256
91 1 6.9229 5.3491 40.1645
92 1 6.06367 4.97866 40.0383
354 1 5.49994 5.48979 41.556
90 1 6.37416 6.19691 39.6559
349 1 7.11158 3.46983 40.8822
358 1 5.24362 4.4195 41.7115
351 1 6.85111 4.36383 41.7918
357 1 5.19825 4.91302 40.8436
356 1 5.13102 5.54694 40.0564
355 1 5.52424 6.17324 40.7832
323 1 1.39787 53.6142 39.8889
215 1 58.9177 57.2493 41.6072
214 1 58.1972 57.4233 41.0833
181 1 0.697422 54.5014 39.9348
324 1 1.59946 53.6316 39.014
325 1 0.706851 53.9084 38.5248
322 1 2.05452 53.7135 40.5493
321 1 2.73128 54.4395 40.3046
371 1 3.61981 54.7213 39.7258
216 1 59.6882 57.2119 40.8598
217 1 58.9331 57.1961 40.163
218 1 59.7177 57.3864 39.5485
219 1 59.711 56.4433 39.9912
138 1 1.49464 55.5662 40.6114
220 1 59.84 56.0881 40.901
139 1 1.74866 56.4359 40.9496
140 1 0.770939 56.8483 40.8947
352 1 6.23526 5.05791 42.2143
104 1 36.2545 52.0615 42.5784
101 1 37.6003 50.9395 44.0858
103 1 36.2394 51.8125 43.469
102 1 36.6456 51.1341 44.1029
105 1 35.5299 51.6702 42.1256
106 1 36.0552 50.9021 42.1366
110 1 37.1605 51.4944 43.1487
50 1 58.986 31.0818 46.7992
115 1 37.9806 51.5916 41.352
108 1 37.6348 50.5794 42.7701
109 1 36.5721 50.7574 43.0779
107 1 36.891 51.2137 42.1022
114 1 36.9651 51.6457 41.1018
117 1 38.3822 51.411 43.2077
118 1 38.9627 52.1813 42.9208
116 1 38.2501 51.4504 42.236
113 1 37.2645 52.6473 40.9646
112 1 37.3275 52.1844 41.983
111 1 37.7809 52.2029 42.9263
47 1 58.6623 33.3218 47.3484
48 1 58.6576 32.7832 46.4089
54 1 1.61655 32.4576 46.7116
55 1 0.908053 32.0573 47.2089
45 1 59.5337 32.3439 47.9613
53 1 0.760957 32.3618 46.2123
56 1 0.443741 32.844 47.6221
46 1 59.5435 32.8312 47.0612
52 1 59.7182 32.6202 45.978
49 1 58.9007 32.0004 46.9489
42 1 1.61589 30.4519 47.8854
43 1 0.949396 31.1987 47.7864
51 1 59.8315 31.6393 46.4427
41 1 1.74777 30.9623 48.8228
119 1 38.463 52.6113 42.2115
120 1 39.1566 52.0584 41.7974
58 1 59.9971 33.9021 47.3831
60 1 59.2278 34.4579 46.6721
59 1 59.8973 33.6624 46.4008
57 1 0.944048 33.6183 47.0918
44 1 59.9679 31.5729 47.5814
ITEM: TIMESTEP
50000
ITEM: NUMBER OF ATOMS
500
ITEM: BOX BOUNDS pp pp pp
0.0000000000000000e+00 6.0000000000000000e+01
0.0000000000000000e+00 6.0000000000000000e+01
0.0000000000000000e+00 6.0000000000000000e+01
ITEM: ATOMS id type x y z
301 1 2.7862 1.95634 4.05347
12 1 34.2035 7.69381 6.96625
14 1 34.8118 6.29225 6.25182
13 1 34.4269 6.71538 7.05731
20 1 36.1365 7.13522 6.70949
427 1 4.70024 57.9585 3.9378
424 1 4.44647 58.5436 3.10778
423 1 4.20265 59.4607 2.56088
426 1 4.29785 57.4594 3.22296
428 1 5.58234 58.3051 3.38761
429 1 5.63443 59.2271 3.44005
430 1 4.68805 59.1377 3.86412
422 1 3.6307 59.3959 3.27728
421 1 2.96468 0.120041 3.45295
431 1 5.38942 58.723 4.29678
440 1 4.04656 59.9295 4.3544
309 1 4.30215 0.798974 2.54118
310 1 4.15031 0.466596 3.53481
311 1 4.91432 59.9924 3.23978
319 1 5.50539 59.8205 5.73002
304 1 4.46041 1.39625 3.559
305 1 4.2884 0.976887 4.46817
308 1 3.5309 1.41771 2.57183
302 1 3.65625 2.17535 3.86486
11 1 35.0318 8.21923 7.38097
10 1 34.5419 8.9516 6.70024
15 1 35.0015 6.6325 5.43637
16 1 34.2236 7.13475 5.7787
18 1 35.2027 7.42569 6.29217
19 1 35.3416 7.15662 7.27841
5 1 34.5838 7.88685 4.61208
425 1 4.52028 57.9105 2.4595
439 1 3.32016 59.9056 5.13815
436 1 4.15903 59.6732 5.74539
313 1 6.15419 0.739481 3.93845
433 1 5.0635 58.843 5.29994
314 1 6.03181 0.454127 4.90796
432 1 5.85094 59.2823 4.78767
320 1 5.41519 0.791198 5.9298
438 1 2.89772 59.1169 5.13897
316 1 4.97893 1.72759 5.49733
307 1 3.35402 1.19337 3.58124
306 1 3.42499 0.69824 4.42742
312 1 5.36736 0.0873986 4.10949
318 1 4.90736 0.145471 5.09198
303 1 4.41501 2.21963 3.23918
442 1 18.6543 2.10764 6.98529
443 1 18.1325 2.58269 6.36264
441 1 17.6666 2.04054 7.32547
454 1 19.1561 4.13041 5.50573
453 1 19.3667 3.3283 4.91658
455 1 18.4196 3.49378 6.02973
456 1 19.2911 3.00905 6.09214
458 1 18.8077 1.31353 5.19347
457 1 19.2318 1.95135 5.82303
9 1 35.4438 9.12694 6.48649
242 1 54.0556 2.6221 4.99622
7 1 36.1529 7.76276 5.72299
8 1 35.904 8.27126 6.55123
17 1 34.5724 8.14783 5.82596
158 1 20.7151 9.09144 7.50128
156 1 19.9894 9.01395 8.29562
157 1 20.6971 8.36647 8.20912
4 1 34.8974 8.94023 4.80095
6 1 35.43 7.68848 5.03747
3 1 35.1943 9.66522 4.24578
160 1 20.1848 8.4584 6.57796
159 1 19.7982 9.16305 7.19024
1 1 35.6578 8.73016 3.98841
2 1 36.1296 9.26361 4.52206
437 1 3.9307 58.9512 4.991
435 1 4.81604 59.179 6.36354
434 1 5.72078 58.6933 6.0968
317 1 4.3961 0.795577 5.80466
315 1 5.36478 1.31521 4.88474
444 1 17.4313 3.2332 6.08062
299 1 36.049 59.2637 8.01886
292 1 34.6056 59.826 7.26152
298 1 36.4284 58.6754 7.46195
297 1 36.5565 59.4577 6.86628
452 1 18.6506 2.67046 5.25793
446 1 17.2769 2.55194 4.29406
451 1 18.3311 3.08354 4.26904
445 1 17.627 2.85441 5.12232
459 1 17.9454 1.8233 5.23401
460 1 17.9755 1.07297 4.57548
300 1 35.1206 59.4909 8.40144
245 1 52.9184 2.46846 4.79274
244 1 53.2348 3.12277 5.50259
243 1 53.648 2.15108 5.65462
162 1 50.8594 3.6058 5.26192
173 1 53.4263 5.54017 4.84936
172 1 54.1024 4.80335 5.14731
171 1 53.8518 3.83492 5.2584
178 1 54.4662 4.28976 6.04915
177 1 54.5102 5.23 5.95457
241 1 53.6475 2.65492 4.12642
161 1 51.3298 2.71689 4.89306
174 1 54.3494 6.09003 4.82549
175 1 53.6937 6.30045 5.53221
155 1 19.9851 8.20991 7.52539
145 1 19.6491 7.57141 5.95508
149 1 18.5571 7.74528 7.65456
150 1 18.847 8.75128 7.89949
148 1 18.4518 7.00343 7.004
146 1 19.1883 8.09114 6.74323
154 1 20.9266 7.77485 7.33154
143 1 18.1716 8.49753 5.28543
144 1 18.9128 8.09945 5.43239
141 1 19.0221 9.10232 5.67386
295 1 36.9917 59.9589 8.32509
294 1 36.319 0.247607 7.52792
296 1 37.1914 59.5383 7.48381
291 1 34.9312 0.114156 6.46513
448 1 18.0525 2.43045 3.37946
447 1 17.3443 1.75678 3.66647
449 1 18.4479 1.83105 3.96781
450 1 19.2143 2.4164 3.94812
246 1 52.6795 1.47492 4.89062
248 1 52.5066 2.1571 6.76544
247 1 52.6503 2.01236 5.78686
180 1 54.0161 3.3805 6.10565
249 1 52.8225 3.02834 6.55697
251 1 51.7006 3.13085 6.56027
250 1 52.1063 2.9818 5.7588
163 1 51.1095 4.52153 5.32064
176 1 53.5362 5.52419 5.99246
179 1 54.8559 3.6703 6.61861
165 1 52.0298 5.6777 4.64728
164 1 51.893 4.68369 4.63548
169 1 53.0555 4.56069 4.94835
170 1 53.2217 4.20301 5.96421
168 1 52.6389 5.12368 5.5859
151 1 19.3837 7.97645 8.3516
153 1 20.2668 7.2856 6.87027
152 1 19.5051 7.25579 7.60432
147 1 18.2988 7.73038 6.37207
142 1 18.1859 8.80268 6.21556
284 1 36.214 1.32789 7.91755
293 1 35.3901 0.213282 7.61756
289 1 35.8737 59.8102 5.99253
283 1 37.1737 1.44745 8.36323
290 1 35.5194 59.4046 6.87228
281 1 38.1837 1.18468 8.31497
282 1 37.5061 0.819359 7.68864
252 1 51.6576 3.47449 7.52179
253 1 51.5321 4.28891 6.92934
260 1 53.7336 5.04036 7.89088
259 1 54.006 5.12178 6.98383
254 1 52.1364 4.24862 5.90844
255 1 52.6669 4.62864 6.65113
256 1 52.9107 4.59463 7.60716
167 1 52.5851 6.18102 5.34725
166 1 52.7261 6.46776 4.45845
287 1 36.6022 0.502065 6.46967
285 1 36.758 1.34446 7.20931
288 1 36.7445 0.156024 5.50919
286 1 35.8924 0.927142 6.83312
257 1 52.3142 5.457 7.54554
258 1 53.077 5.62182 7.09251
263 1 38.8757 58.2558 18.7212
390 1 39.7055 1.41923 20.928
264 1 38.8015 59.1363 18.2576
265 1 38.4614 59.4361 17.394
382 1 37.4312 57.7921 20.1665
400 1 38.7112 57.7005 20.0161
262 1 39.6148 58.2507 18.2446
261 1 38.8808 57.8139 17.7206
393 1 38.3927 1.27078 19.7057
280 1 35.6506 59.4317 17.411
270 1 36.873 0.408671 18.4179
269 1 36.5198 59.6887 18.0055
391 1 39.4994 1.15231 19.9507
389 1 39.8771 0.443221 20.9383
388 1 40.2546 59.9851 20.1742
268 1 36.9147 59.0544 17.418
267 1 37.5422 58.8251 18.2363
266 1 38.0379 58.4814 17.4791
381 1 36.879 58.6914 20.3368
399 1 37.9705 58.013 19.2102
398 1 36.9298 58.3295 19.2673
394 1 37.9792 0.380865 19.1581
392 1 38.8811 0.768642 20.5281
395 1 38.0327 59.3649 19.0067
383 1 38.3658 58.3561 20.7186
384 1 38.7667 58.788 19.9373
386 1 39.0635 59.7769 20.2523
277 1 36.0156 59.2371 19.9632
279 1 35.6421 59.1774 18.3257
278 1 35.9724 58.6951 19.1437
387 1 39.8015 59.2691 20.594
397 1 36.941 59.2073 19.0118
396 1 37.6235 59.1421 19.7404
276 1 35.3448 59.76 19.3652
272 1 35.7943 0.48099 18.6384
271 1 36.2224 0.815908 17.6867
385 1 39.252 59.3146 19.4153
275 1 34.9009 59.0019 19.0616
274 1 34.6715 59.6535 18.1626
273 1 34.8529 0.611202 18.3951
221 1 40.2422 10.8229 27.8883
222 1 41.2727 10.5666 27.8925
225 1 39.6185 8.95175 29.053
224 1 40.4638 9.30852 28.6982
223 1 41.4743 9.87988 28.5964
230 1 40.8039 10.7268 30.1269
228 1 39.593 10.1059 28.9968
231 1 40.0153 10.4841 30.811
233 1 39.4199 11.1429 30.2144
229 1 40.1059 10.7856 29.3863
226 1 38.8762 9.39645 28.7549
227 1 39.3794 9.87447 28.079
80 1 17.7734 52.8536 27.4574
79 1 18.2273 53.2922 26.6994
78 1 18.3682 52.699 25.9928
76 1 19.2818 52.5003 26.4222
74 1 19.2023 53.399 24.6949
75 1 19.5362 52.7936 25.4318
61 1 18.9453 53.7394 27.5266
239 1 38.4691 12.6127 31.0987
240 1 37.9573 12.4795 31.859
232 1 39.2289 10.1946 30.3771
234 1 38.4932 11.3113 29.7126
238 1 38.9283 12.2526 30.3057
236 1 39.2527 11.7745 28.3585
235 1 39.0621 11.1294 28.9892
237 1 39.219 12.115 29.3256
67 1 20.0245 53.797 27.6223
69 1 20.4022 52.8984 26.4141
66 1 20.9502 53.3974 27.8041
77 1 18.9961 53.4631 25.8669
64 1 20.5767 54.5389 26.2659
70 1 21.4112 52.6928 26.31
73 1 20.1213 53.3753 24.85
72 1 20.4355 53.7479 25.7239
65 1 20.8857 54.0988 27.0458
63 1 19.8266 54.8819 26.7448
62 1 18.9596 54.5146 26.898
68 1 19.827 53.713 26.5659
71 1 21.245 53.4306 25.67
420 1 1.45877 52.0546 34.9576
407 1 59.1578 53.2915 35.1468
410 1 0.805307 52.8376 34.0525
401 1 59.8411 54.8586 34.7591
409 1 0.747537 53.8182 34.4439
408 1 59.8704 53.2576 34.489
419 1 2.23122 51.3751 34.8674
406 1 59.2988 54.25 35.3131
418 1 2.33572 52.0836 35.7395
495 1 59.2311 53.0574 36.1526
417 1 1.89968 51.858 36.4754
416 1 1.98739 52.8093 36.5936
124 1 2.67447 53.1337 37.7999
402 1 0.0630524 54.8673 35.8462
403 1 0.118685 53.841 35.7172
405 1 59.2974 54.1501 36.2001
413 1 2.85824 54.0962 35.6917
493 1 0.493752 52.4744 35.2736
414 1 2.4649 54.0196 36.653
415 1 2.85457 53.0507 36.4822
364 1 2.00676 53.9149 37.7545
123 1 3.13099 53.7323 38.455
122 1 3.13361 54.7025 38.2319
472 1 58.8192 55.8029 37.9174
404 1 0.0779237 53.9847 36.6876
411 1 1.57414 53.1262 34.6406
412 1 2.4179 53.3349 35.1616
487 1 1.3457 55.3595 36.5951
365 1 2.2072 54.1514 38.6878
486 1 2.13319 55.0225 37.0015
188 1 59.508 57.3802 39.513
330 1 0.357243 55.8415 37.8765
337 1 2.72122 55.9118 36.3125
24 1 49.0315 0.380213 39.0757
40 1 49.7299 58.4956 38.217
39 1 49.0611 58.6738 38.9939
38 1 49.2694 57.7507 39.3298
345 1 5.47957 4.41505 40.873
84 1 3.96432 3.04413 39.0177
341 1 4.8098 3.98656 38.7466
342 1 5.25226 3.50993 39.4146
496 1 59.3313 52.7001 37.1949
497 1 59.5191 51.895 37.7378
500 1 57.7485 52.7718 36.2471
494 1 59.6658 52.3047 35.781
125 1 3.44142 53.4837 37.2018
362 1 0.655544 52.548 37.3845
126 1 4.26575 53.6898 37.6697
466 1 57.2832 55.0985 37.6611
326 1 0.412687 52.5776 38.3525
325 1 0.444021 53.3966 38.7536
492 1 0.704335 53.0672 36.176
491 1 1.56652 53.0575 35.738
490 1 1.615 54.0414 35.1022
361 1 0.681977 51.97 36.6204
368 1 1.12569 52.6952 39.2817
363 1 1.39953 53.1981 37.7213
128 1 5.36554 54.1249 38.6884
127 1 4.28948 54.3362 38.4566
121 1 3.72327 54.7831 37.3906
467 1 57.9986 55.5149 36.9049
473 1 58.6563 56.3061 37.0852
470 1 59.156 54.3712 38.1528
469 1 59.0531 54.2903 37.2959
471 1 59.4746 55.3061 37.8479
468 1 58.4168 54.8739 37.4938
489 1 1.1701 54.1291 35.9712
327 1 59.6458 53.2424 37.9373
328 1 0.261586 54.1687 37.946
488 1 1.78895 54.9934 35.7224
366 1 1.21185 54.2074 38.4672
367 1 1.44165 53.6275 39.2638
129 1 5.39532 55.0638 38.7329
475 1 58.9822 57.0219 38.3744
474 1 58.5311 57.1676 37.5062
476 1 58.5934 56.5734 39.2887
334 1 1.98457 56.1696 37.0615
333 1 1.12959 56.5963 37.5031
340 1 3.01837 55.0423 35.2391
339 1 3.37706 55.1819 36.1149
485 1 2.28024 55.2912 37.9999
131 1 3.98992 55.3535 38.2628
130 1 4.67837 55.744 38.9194
204 1 57.6445 55.9666 37.9772
189 1 58.4665 57.7939 39.03
190 1 57.7228 57.8675 39.6889
187 1 0.469524 57.5011 39.6619
186 1 0.405077 56.5745 39.1197
332 1 0.194028 57.0311 37.9286
184 1 0.373593 55.4918 39.3506
329 1 0.14889 54.9061 37.2811
331 1 59.6503 56.4393 37.7183
336 1 3.10605 55.5595 37.2843
338 1 3.51432 56.1115 35.7536
379 1 2.84711 57.1401 39.711
29 1 51.661 58.0002 38.8304
23 1 49.0039 0.647685 40.0673
22 1 49.9363 0.0842872 39.9845
191 1 58.6581 57.3962 40.0937
380 1 2.83335 57.5568 38.8365
34 1 49.7913 57.3102 38.5355
30 1 51.5891 58.4727 37.9622
31 1 50.7735 57.8879 38.0455
33 1 49.4574 57.0565 37.5795
35 1 50.2605 57.5217 39.3845
32 1 50.0462 57.7889 37.301
27 1 50.8901 59.811 39.0029
36 1 50.3136 58.572 39.5433
26 1 50.1998 0.482282 38.7557
25 1 49.6925 59.6271 39.0084
82 1 4.42486 1.81168 38.9814
346 1 4.90949 3.59196 40.5325
83 1 3.68046 2.20113 38.6381
81 1 5.13236 2.64533 38.9961
94 1 3.00428 3.41507 40.9378
343 1 5.85649 3.12156 40.1412
86 1 4.02574 4.72554 38.5896
348 1 3.84315 2.31332 40.0541
344 1 6.08678 4.10802 40.1473
95 1 2.77333 2.53802 40.9645
85 1 3.48549 3.87497 39.0551
88 1 4.20351 4.17232 39.9432
87 1 4.1405 5.04805 39.4421
89 1 5.14978 4.67862 39.8138
90 1 4.61427 4.97617 40.638
461 1 56.0922 55.1631 37.0721
499 1 58.3027 52.8091 36.9385
498 1 58.7725 51.8093 36.9485
463 1 57.1166 54.6379 38.691
462 1 56.391 54.9962 38.1139
465 1 57.6389 54.3351 36.9067
323 1 59.9873 54.1592 39.3703
369 1 2.04683 52.4752 39.3957
324 1 0.223603 53.2505 39.693
370 1 2.08694 52.6926 38.5284
464 1 57.6903 54.1013 37.9574
479 1 58.5367 54.8767 39.4311
478 1 59.4147 55.0154 38.9827
183 1 0.403181 55.1104 38.4839
182 1 1.29683 55.2463 38.705
181 1 1.42285 54.8978 39.6546
136 1 2.61132 55.355 40.4113
134 1 2.47605 55.1546 39.3135
135 1 2.37117 54.4483 39.9685
484 1 1.60433 56.036 38.2637
372 1 2.92558 53.6254 39.5963
371 1 3.0471 52.9257 39.1152
201 1 57.71 57.2695 38.2267
205 1 58.0383 55.4635 38.6959
202 1 57.0672 56.6976 38.6709
206 1 57.7488 56.074 39.3111
208 1 57.9311 55.2632 40.66
477 1 59.2775 55.9022 39.044
481 1 1.8073 57.8016 38.6091
133 1 2.90079 55.8474 38.6347
132 1 3.66125 55.4776 39.1291
483 1 1.88789 56.7591 38.9212
482 1 1.13854 57.1463 38.4559
203 1 56.9005 55.8166 38.4741
196 1 58.1663 56.6771 41.1526
195 1 58.8758 56.8804 41.4238
194 1 59.0854 56.0854 40.8783
192 1 59.4661 57.1495 40.6113
193 1 59.593 56.399 40.0862
185 1 1.23832 56.0253 39.4625
219 1 59.9949 55.5799 40.5771
335 1 2.71775 56.4566 37.6954
377 1 3.77457 56.8106 40.2645
378 1 3.50962 56.4937 39.3393
376 1 4.24854 56.0214 40.1259
28 1 51.1851 58.8109 38.9128
197 1 57.8476 56.6933 40.2628
218 1 0.951141 55.8669 40.4354
21 1 49.895 59.2893 40.6265
37 1 49.4575 58.34 40.1326
100 1 5.4902 1.73027 40.4699
347 1 4.36439 3.13749 40.0243
97 1 3.9532 1.39773 40.4291
98 1 3.82109 1.92016 41.4188
99 1 4.80237 1.90847 41.2361
93 1 3.45497 3.45341 40.0365
349 1 4.02448 2.78886 40.9454
96 1 3.14368 1.71869 40.6102
357 1 4.22615 2.97654 41.9653
356 1 4.88905 2.7962 42.7352
353 1 5.66042 4.74361 42.2208
91 1 3.68837 5.27658 40.378
92 1 3.24405 4.39397 40.0622
355 1 5.3811 3.31765 42.1113
114 1 35.9907 52.8874 39.9479
115 1 35.4153 52.1499 39.9913
113 1 36.6803 52.9081 40.7295
322 1 59.4162 54.2717 40.1007
480 1 58.7391 55.6807 39.9687
137 1 2.92889 56.2044 40.0902
321 1 58.8422 53.8444 40.6616
138 1 2.38336 56.2944 40.7037
373 1 3.37605 54.5423 39.3139
207 1 57.217 55.8173 40.2065
209 1 58.1733 54.5593 41.3078
140 1 1.38975 55.0192 41.2619
374 1 4.2962 54.3624 39.6178
139 1 2.05413 55.5799 41.3657
200 1 57.4747 58.3686 40.392
199 1 58.2347 57.9631 40.8871
211 1 59.4451 54.7052 41.6161
198 1 57.4965 57.3126 40.6996
210 1 58.6487 54.7586 42.1095
220 1 0.37967 54.7913 40.2797
375 1 4.13359 54.9573 40.4056
214 1 59.8002 55.8013 41.6552
216 1 0.970022 56.2329 41.8334
217 1 1.42847 56.4532 41.0039
350 1 4.00692 3.72287 41.0103
359 1 5.94763 3.16633 41.2408
360 1 6.65683 2.57939 41.6628
354 1 4.90464 4.10137 42.4996
358 1 4.99242 2.84608 41.2451
351 1 3.79268 4.44361 41.6277
352 1 4.71617 5.07522 41.8113
106 1 36.1225 52.2571 41.2797
107 1 36.3505 51.9037 40.421
108 1 36.308 50.9985 40.8576
105 1 36.5716 51.4953 41.9143
104 1 37.5271 51.3416 41.6939
116 1 36.187 51.9116 39.2916
112 1 37.1097 53.367 39.8998
119 1 34.65 50.746 39.8755
120 1 35.2107 51.2511 40.5907
212 1 59.7625 55.164 42.4349
213 1 59.971 56.2631 42.4603
215 1 0.334343 56.3348 41.1276
102 1 38.0025 51.6673 40.4644
109 1 37.1452 50.8618 40.4485
101 1 38.229 50.8623 40.9652
117 1 36.435 50.9608 39.5946
103 1 37.2384 51.8739 41.0579
110 1 37.2638 51.5378 39.638
111 1 37.1671 52.4941 39.8844
118 1 35.3724 51.0555 39.3445
50 1 1.99752 33.975 47.804
53 1 1.20471 32.263 46.9223
54 1 1.91316 31.6161 46.8789
48 1 2.62114 32.5625 48.1548
46 1 1.06491 33.2817 48.8488
52 1 1.9011 32.7953 46.2786
49 1 2.93029 33.5063 47.929
51 1 2.09229 33.0414 47.1486
57 1 2.79826 31.7246 47.5758
59 1 2.76738 31.2916 46.3678
60 1 2.73604 30.6218 46.9104
43 1 0.973259 33.7862 47.6299
42 1 0.918115 34.7041 47.5894
55 1 1.83535 32.1421 47.7076
56 1 2.08303 31.2103 48.0268
45 1 0.71726 32.4237 48.8093
44 1 0.705461 32.8222 47.928
58 1 3.63823 31.5901 46.8755
47 1 1.86156 33.0723 48.3376
41 1 0.920649 35.7336 47.3915
