ITEM: TIMESTEP
0
ITEM: NUMBER OF ATOMS
20
ITEM: BOX BOUNDS pp pp pp
0.0000000000000000e+00 2.0000000000000000e+01
0.0000000000000000e+00 2.0000000000000000e+01
0.0000000000000000e+00 2.0000000000000000e+01
ITEM: ATOMS id mol type x y z
16 1 1 13.22 4.318 7.3
18 1 1 13.253 3.119 7.777
19 1 1 14.209 3.392 7.888
17 1 1 12.713 3.912 8.061
15 1 1 12.633 4.902 7.861
14 1 1 13.138 5.656 8.281
20 1 1 14.595 4.111 8.466
9 1 1 11.071 5.053 9.037
10 1 1 11.868 5.65 9.131
13 1 1 13.639 6.044 9.054
8 1 1 10.35 5.311 9.679
11 1 1 12.831 5.402 9.237
12 1 1 13.486 5.638 9.955
5 1 1 9.265 7.376 9.718
4 1 1 10.081 7.895 9.46
3 1 1 10.939 8.408 9.45
2 1 1 10.256 9.126 9.586
7 1 1 9.887 5.684 10.484
6 1 1 9.417 6.434 10.019
1 1 1 10 10 10
ITEM: TIMESTEP
7
ITEM: NUMBER OF ATOMS
20
ITEM: BOX BOUNDS pp pp pp
0.0000000000000000e+00 2.0000000000000000e+01
0.0000000000000000e+00 2.0000000000000000e+01
0.0000000000000000e+00 2.0000000000000000e+01
ITEM: ATOMS id mol type x y z
16 1 1 13.188 4.3296 7.33736
18 1 1 13.2782 3.13147 7.78197
19 1 1 14.1924 3.40477 7.90131
17 1 1 12.7305 3.87373 8.04973
15 1 1 12.6709 4.955 7.85095
14 1 1 13.1605 5.65829 8.28288
20 1 1 14.5837 4.09035 8.44942
9 1 1 11.0643 5.09004 9.07523
10 1 1 11.8629 5.61946 9.13069
13 1 1 13.6336 6.02775 9.03095
8 1 1 10.3648 5.31748 9.68537
11 1 1 12.7771 5.38203 9.29302
12 1 1 13.4745 5.64797 9.89925
5 1 1 9.32138 7.3503 9.72145
4 1 1 10.073 7.88791 9.47471
3 1 1 10.8794 8.40441 9.45464
2 1 1 10.2674 9.13288 9.59517
7 1 1 9.8861 5.70539 10.4187
6 1 1 9.43415 6.45016 10.0244
1 1 1 10.0083 9.972 9.98679
ITEM: TIMESTEP
100
ITEM: NUMBER OF ATOMS
20
ITEM: BOX BOUNDS pp pp pp
0.0000000000000000e+00 2.0000000000000000e+01
0.0000000000000000e+00 2.0000000000000000e+01
0.0000000000000000e+00 2.0000000000000000e+01
ITEM: ATOMS id mol type x y z
16 1 1 12.9118 4.48427 7.60437
18 1 1 13.4489 2.86526 8.01355
19 1 1 13.9336 3.58475 7.61586
17 1 1 12.8399 3.59869 8.00459
20 1 1 14.5057 3.3651 8.36585
15 1 1 12.7598 4.90417 8.47503
14 1 1 13.0637 5.82677 8.43837
9 1 1 11.33 5.92949 9.27339
10 1 1 12.0927 5.33502 9.4024
13 1 1 13.9234 6.31496 8.3524
8 1 1 10.3633 5.84837 9.38342
11 1 1 13.0124 5.55598 9.66758
12 1 1 13.7578 5.96998 9.20784
5 1 1 9.80062 7.18778 10.1522
4 1 1 10.2875 7.61171 9.42415
3 1 1 10.4436 8.45881 9.91043
2 1 1 9.82684 8.94527 9.45802
1 1 1 9.67616 9.55003 10.1343
7 1 1 9.60717 5.60277 9.89676
6 1 1 9.26609 6.49181 9.66352
ITEM: TIMESTEP
200
ITEM: NUMBER OF ATOMS
20
ITEM: BOX BOUNDS pp pp pp
0.0000000000000000e+00 2.0000000000000000e+01
0.0000000000000000e+00 2.0000000000000000e+01
0.0000000000000000e+00 2.0000000000000000e+01
ITEM: ATOMS id mol type x y z
16 1 1 12.6165 4.46129 8.2073
18 1 1 13.2129 2.73518 7.91666
19 1 1 14.0032 3.31126 7.82057
17 1 1 12.6613 3.53602 7.92756
20 1 1 14.8261 2.87376 8.00242
15 1 1 13.1795 5.13121 8.59664
14 1 1 13.0704 5.64748 7.72953
9 1 1 11.5742 6.20313 9.85749
10 1 1 12.3951 6.07971 10.3461
13 1 1 13.7772 6.23453 8.1157
8 1 1 10.7352 6.21957 9.33596
11 1 1 12.5912 6.02048 9.38174
12 1 1 13.489 6.07161 9.04456
5 1 1 10.2469 6.73795 10.1106
4 1 1 10.4116 7.5815 9.74816
3 1 1 9.96148 8.2571 10.2504
2 1 1 9.45118 8.62089 9.43345
1 1 1 9.19115 9.14798 10.2227
7 1 1 9.94488 6.09077 8.8068
6 1 1 9.51211 6.46957 9.58969
ITEM: TIMESTEP
300
ITEM: NUMBER OF ATOMS
20
ITEM: BOX BOUNDS pp pp pp
0.0000000000000000e+00 2.0000000000000000e+01
0.0000000000000000e+00 2.0000000000000000e+01
0.0000000000000000e+00 2.0000000000000000e+01
ITEM: ATOMS id mol type x y z
16 1 1 12.6853 4.30224 8.81497
18 1 1 13.336 3.18624 7.82184
19 1 1 13.9341 2.45745 8.00858
17 1 1 12.5618 3.7249 8.06576
20 1 1 14.8268 2.66534 7.64423
15 1 1 13.1378 4.80509 8.16672
14 1 1 13.2616 5.34332 7.32778
9 1 1 11.47 6.41417 10.2626
10 1 1 12.0982 7.14599 10.1564
13 1 1 13.3198 6.00685 8.02131
8 1 1 11.3908 6.26993 9.35606
11 1 1 12.3786 6.5255 9.41903
12 1 1 13.0933 6.3824 8.8426
5 1 1 10.2681 6.6346 9.98635
4 1 1 10.421 7.58127 10.2778
3 1 1 9.57336 7.85103 10.4976
2 1 1 9.1746 8.16075 9.65152
1 1 1 8.57449 8.75465 10.18
7 1 1 10.9467 6.95447 8.79881
6 1 1 10.3988 6.26483 9.14395
ITEM: TIMESTEP
400
ITEM: NUMBER OF ATOMS
20
ITEM: BOX BOUNDS pp pp pp
0.0000000000000000e+00 2.0000000000000000e+01
0.0000000000000000e+00 2.0000000000000000e+01
0.0000000000000000e+00 2.0000000000000000e+01
ITEM: ATOMS id mol type x y z
16 1 1 13.0472 4.10549 8.64751
18 1 1 13.9213 3.16977 8.22182
19 1 1 13.3018 2.57192 7.72155
17 1 1 12.9957 3.16525 8.51133
20 1 1 14.1883 2.45352 7.42684
15 1 1 12.9676 4.59822 7.85567
14 1 1 13.3739 5.47683 7.60759
9 1 1 11.6647 7.0547 10.232
10 1 1 12.3653 7.31485 9.61009
13 1 1 12.9022 5.98149 8.23607
8 1 1 11.916 6.26268 9.70904
11 1 1 13.2534 7.53421 9.12854
12 1 1 12.7027 6.73582 8.79748
5 1 1 10.2373 6.96848 9.55454
4 1 1 10.2 6.92002 10.5526
3 1 1 9.30095 7.25435 10.7027
2 1 1 8.7705 7.75562 10.0024
1 1 1 7.98489 8.2447 10.0423
7 1 1 11.2485 6.73893 9.24178
6 1 1 10.5086 7.12416 8.64209
ITEM: TIMESTEP
500
ITEM: NUMBER OF ATOMS
20
ITEM: BOX BOUNDS pp pp pp
0.0000000000000000e+00 2.0000000000000000e+01
0.0000000000000000e+00 2.0000000000000000e+01
0.0000000000000000e+00 2.0000000000000000e+01
ITEM: ATOMS id mol type x y z
16 1 1 13.3148 3.69046 8.12589
18 1 1 13.3245 2.63946 8.46991
19 1 1 13.3492 2.89044 7.51229
17 1 1 13.6195 3.36762 9.03261
20 1 1 13.778 2.18309 7.05384
15 1 1 13.1295 4.60335 8.01049
14 1 1 13.2192 5.50767 8.24817
9 1 1 12.5701 7.4831 9.52892
10 1 1 13.3365 8.04777 9.64648
13 1 1 12.4966 6.07704 8.68001
8 1 1 11.847 6.90527 9.81486
11 1 1 13.0468 7.78558 8.75482
12 1 1 12.6536 6.98303 8.43948
5 1 1 10.1334 7.3328 9.66649
4 1 1 9.69576 6.4871 9.78289
3 1 1 9.15701 6.686 10.5874
2 1 1 8.34463 7.26671 10.4841
1 1 1 7.59496 7.57873 9.95814
7 1 1 11.1903 6.50211 9.20216
6 1 1 11.0496 7.41367 9.44512
ITEM: TIMESTEP
600
ITEM: NUMBER OF ATOMS
20
ITEM: BOX BOUNDS pp pp pp
0.0000000000000000e+00 2.0000000000000000e+01
0.0000000000000000e+00 2.0000000000000000e+01
0.0000000000000000e+00 2.0000000000000000e+01
ITEM: ATOMS id mol type x y z
16 1 1 13.6444 4.01959 8.28711
18 1 1 12.9478 2.86535 8.28313
19 1 1 13.4062 2.01518 7.90737
17 1 1 13.946 3.09228 8.25797
20 1 1 13.3331 2.0061 6.91613
15 1 1 13.3037 4.8707 8.47132
14 1 1 12.8425 5.59296 8.92288
9 1 1 13.299 7.55925 9.8589
10 1 1 13.2067 7.88316 8.98123
13 1 1 12.4199 6.4998 8.76111
8 1 1 12.4524 7.03197 9.8789
11 1 1 13.3997 8.03415 8.07271
12 1 1 12.9444 7.19947 8.31431
5 1 1 9.76911 7.21623 9.84066
4 1 1 9.16004 6.75346 9.18204
3 1 1 8.73236 6.42807 10.0397
2 1 1 8.19107 6.52673 10.7849
1 1 1 7.55111 6.76873 10.0792
7 1 1 11.6231 7.58742 9.97998
6 1 1 10.6784 7.48041 9.62438
ITEM: TIMESTEP
700
ITEM: NUMBER OF ATOMS
20
ITEM: BOX BOUNDS pp pp pp
0.0000000000000000e+00 2.0000000000000000e+01
0.0000000000000000e+00 2.0000000000000000e+01
0.0000000000000000e+00 2.0000000000000000e+01
ITEM: ATOMS id mol type x y z
16 1 1 13.7981 4.27123 8.51508
18 1 1 13.6412 2.78064 7.94056
19 1 1 12.9948 2.00166 8.03464
17 1 1 13.3288 3.69881 7.84189
20 1 1 12.8561 1.72141 7.14485
15 1 1 13.3689 4.89977 9.04588
14 1 1 12.7901 5.61703 8.93219
9 1 1 13.023 7.68894 9.78435
10 1 1 13.2567 8.14607 9.00378
13 1 1 13.0247 6.46015 8.50772
8 1 1 12.3177 8.29884 9.88828
11 1 1 13.2189 7.46967 8.2579
12 1 1 12.9573 6.79289 7.62015
5 1 1 10.2693 7.04387 9.50115
4 1 1 9.37768 7.10456 9.80429
3 1 1 8.56108 6.5256 9.60421
2 1 1 8.34774 5.86549 10.2876
1 1 1 7.42341 5.98126 10.3319
7 1 1 11.499 7.83482 10.086
6 1 1 10.7965 7.22828 10.3116
ITEM: TIMESTEP
800
ITEM: NUMBER OF ATOMS
20
ITEM: BOX BOUNDS pp pp pp
0.0000000000000000e+00 2.0000000000000000e+01
0.0000000000000000e+00 2.0000000000000000e+01
0.0000000000000000e+00 2.0000000000000000e+01
ITEM: ATOMS id mol type x y z
16 1 1 13.3406 4.28265 8.37782
18 1 1 13.5631 3.00902 7.89527
19 1 1 13.1329 2.67836 7.17366
17 1 1 12.8476 3.4578 8.34888
20 1 1 12.7713 2.08495 7.91221
15 1 1 13.445 4.64863 9.25842
14 1 1 13.0689 5.465 8.84534
9 1 1 12.4012 8.57396 9.30557
10 1 1 13.1446 8.03177 9.0137
13 1 1 13.5184 5.76192 7.99703
8 1 1 11.8193 8.64798 10.0852
11 1 1 12.8646 7.42007 8.30756
12 1 1 13.1941 6.64005 7.77847
5 1 1 10.3931 6.93919 9.71788
4 1 1 9.75012 6.70274 10.4028
3 1 1 8.93778 6.38348 9.94339
2 1 1 8.10337 6.15188 9.52984
1 1 1 8.20942 5.33757 10.143
7 1 1 11.6167 7.68038 10.0807
6 1 1 10.7289 7.53361 10.3273
ITEM: TIMESTEP
900
ITEM: NUMBER OF ATOMS
20
ITEM: BOX BOUNDS pp pp pp
0.0000000000000000e+00 2.0000000000000000e+01
0.0000000000000000e+00 2.0000000000000000e+01
0.0000000000000000e+00 2.0000000000000000e+01
ITEM: ATOMS id mol type x y z
16 1 1 12.7563 4.32372 8.4921
18 1 1 13.2136 3.73975 7.53809
19 1 1 13.1624 2.77623 7.74352
17 1 1 13.2084 3.49386 8.48577
20 1 1 12.3568 2.34879 7.92424
15 1 1 13.4372 4.53451 9.12919
14 1 1 13.6457 5.16311 8.4571
9 1 1 12.4401 8.88225 9.02783
10 1 1 12.2325 8.03176 8.61663
13 1 1 13.4609 5.81035 7.8017
8 1 1 11.7883 8.43412 9.54742
11 1 1 12.9147 7.33467 8.68044
12 1 1 13.3075 6.46137 8.4942
5 1 1 10.3326 6.84648 10.0576
4 1 1 10.041 6.26129 10.7726
3 1 1 9.09719 6.23553 10.4494
2 1 1 8.47336 5.82217 9.77046
1 1 1 8.79053 5.41574 8.93547
7 1 1 11.5891 7.75385 10.2478
6 1 1 10.6027 7.76143 10.2724
ITEM: TIMESTEP
1000
ITEM: NUMBER OF ATOMS
20
ITEM: BOX BOUNDS pp pp pp
0.0000000000000000e+00 2.0000000000000000e+01
0.0000000000000000e+00 2.0000000000000000e+01
0.0000000000000000e+00 2.0000000000000000e+01
ITEM: ATOMS id mol type x y z
16 1 1 12.9959 4.432 8.96308
18 1 1 12.6159 3.43211 7.92751
19 1 1 13.0719 2.66297 7.68538
17 1 1 13.3789 3.96546 8.19239
20 1 1 12.1093 2.41012 7.51743
15 1 1 13.247 5.36035 9.05722
14 1 1 13.6921 5.15647 8.24677
9 1 1 12.2317 8.38128 8.57467
10 1 1 12.5168 7.54338 8.08101
13 1 1 13.5465 6.13188 8.20218
8 1 1 11.6683 8.28623 9.31693
11 1 1 12.5136 7.35647 9.04485
12 1 1 13.1043 6.62993 8.94174
5 1 1 10.2723 6.94945 10.6748
4 1 1 9.99054 6.02492 10.818
3 1 1 9.2458 5.6873 10.2556
2 1 1 9.67698 5.39097 9.42476
1 1 1 8.89132 5.95249 9.13671
7 1 1 11.4562 8.04613 10.2642
6 1 1 10.6254 7.63109 10.1188
ITEM: TIMESTEP
1100
ITEM: NUMBER OF ATOMS
20
ITEM: BOX BOUNDS pp pp pp
0.0000000000000000e+00 2.0000000000000000e+01
0.0000000000000000e+00 2.0000000000000000e+01
0.0000000000000000e+00 2.0000000000000000e+01
ITEM: ATOMS id mol type x y z
20 1 1 12.0083 2.59793 7.16788
19 1 1 12.8105 2.67643 7.66761
18 1 1 12.5549 3.2771 8.38408
17 1 1 12.78 4.20637 8.39405
14 1 1 13.3321 5.60766 8.38481
13 1 1 13.5726 6.53154 8.39166
10 1 1 12.5001 7.67851 8.66268
16 1 1 13.6513 4.37267 8.76768
15 1 1 13.1362 5.08393 9.16988
1 1 1 9.40325 6.31604 9.47019
12 1 1 13.1989 7.12705 9.06097
11 1 1 12.288 6.82703 9.02489
9 1 1 11.7801 7.89606 8.11401
2 1 1 10.008 5.63312 9.31835
8 1 1 11.6577 8.16717 9.01626
3 1 1 10.2542 5.22298 10.1517
5 1 1 10.255 6.80996 10.7954
6 1 1 10.8706 7.36323 10.4431
7 1 1 10.9814 7.9849 9.68162
4 1 1 9.80783 6.05133 10.3773
ITEM: TIMESTEP
1200
ITEM: NUMBER OF ATOMS
20
ITEM: BOX BOUNDS pp pp pp
0.0000000000000000e+00 2.0000000000000000e+01
0.0000000000000000e+00 2.0000000000000000e+01
0.0000000000000000e+00 2.0000000000000000e+01
ITEM: ATOMS id mol type x y z
20 1 1 11.9626 2.80604 6.87398
19 1 1 12.434 2.80237 7.74107
18 1 1 12.7021 3.14053 8.63792
17 1 1 12.6134 4.04447 8.91313
14 1 1 13.3864 5.77058 8.32484
13 1 1 13.784 6.06463 9.17998
10 1 1 12.0656 7.95904 8.50758
16 1 1 13.2784 4.42961 8.25756
15 1 1 13.6094 5.06095 8.95676
1 1 1 9.81999 6.58876 8.90184
12 1 1 13.3523 6.87349 9.44883
11 1 1 12.6473 7.4663 9.09702
9 1 1 11.1593 7.54876 8.4736
2 1 1 10.1717 5.87116 9.39812
8 1 1 10.441 8.10523 8.77889
3 1 1 10.9634 5.75427 10.0109
5 1 1 10.4777 6.60816 10.3928
6 1 1 10.8869 7.47164 10.3727
7 1 1 10.6658 7.35986 9.37055
4 1 1 10.4297 5.70518 10.8059
ITEM: TIMESTEP
1300
ITEM: NUMBER OF ATOMS
20
ITEM: BOX BOUNDS pp pp pp
0.0000000000000000e+00 2.0000000000000000e+01
0.0000000000000000e+00 2.0000000000000000e+01
0.0000000000000000e+00 2.0000000000000000e+01
ITEM: ATOMS id mol type x y z
20 1 1 12.0747 3.01123 6.91881
19 1 1 12.0336 3.0439 7.84417
18 1 1 12.7057 2.95489 8.51587
17 1 1 12.6978 3.81484 8.9788
14 1 1 13.8308 5.68511 9.08153
13 1 1 13.498 6.50974 9.48161
10 1 1 11.7591 7.43589 9.1142
16 1 1 12.8419 4.70814 8.55704
15 1 1 13.6341 5.20874 8.24318
1 1 1 10.3892 6.19495 8.43444
12 1 1 12.8578 6.68336 8.80912
11 1 1 12.6951 7.62849 9.01609
9 1 1 11.042 7.95055 8.6759
2 1 1 10.5498 6.2117 9.35555
8 1 1 10.2849 7.37986 8.61093
3 1 1 11.3635 5.72275 9.68986
5 1 1 10.4548 6.49599 10.6986
6 1 1 10.7145 7.35251 10.3546
7 1 1 10.0487 7.22616 9.51461
4 1 1 11.3747 6.21219 10.549
ITEM: TIMESTEP
1400
ITEM: NUMBER OF ATOMS
20
ITEM: BOX BOUNDS pp pp pp
0.0000000000000000e+00 2.0000000000000000e+01
0.0000000000000000e+00 2.0000000000000000e+01
0.0000000000000000e+00 2.0000000000000000e+01
ITEM: ATOMS id mol type x y z
20 1 1 12.167 3.23301 7.09322
19 1 1 11.7763 3.2883 7.94518
18 1 1 12.5916 3.06514 8.41924
17 1 1 12.8782 3.90718 8.58694
14 1 1 13.4486 5.87444 9.12188
13 1 1 13.1593 6.75127 9.39329
10 1 1 11.5748 7.34622 9.3537
16 1 1 13.0935 4.70215 9.02262
15 1 1 13.0708 5.39586 8.36684
1 1 1 11.1492 5.19015 8.44551
12 1 1 12.7711 6.57399 8.56636
11 1 1 12.1333 7.30414 8.59962
9 1 1 11.1776 8.20317 9.14966
2 1 1 11.0491 6.05351 8.89327
8 1 1 10.4742 7.50625 8.94893
3 1 1 11.6126 5.91852 9.63264
5 1 1 10.9529 6.54176 10.812
6 1 1 10.2663 6.71713 10.2035
7 1 1 9.75282 7.31509 9.56904
4 1 1 11.752 6.54373 10.3205
ITEM: TIMESTEP
1500
ITEM: NUMBER OF ATOMS
20
ITEM: BOX BOUNDS pp pp pp
0.0000000000000000e+00 2.0000000000000000e+01
0.0000000000000000e+00 2.0000000000000000e+01
0.0000000000000000e+00 2.0000000000000000e+01
ITEM: ATOMS id mol type x y z
20 1 1 12.1919 3.49788 7.30494
19 1 1 11.5522 3.50933 7.96509
18 1 1 12.4445 3.21285 8.27057
17 1 1 13.0782 3.97391 8.36669
14 1 1 13.2892 6.02191 9.45462
13 1 1 12.8065 6.55567 8.83101
10 1 1 11.7539 7.88849 8.9207
16 1 1 13.1753 4.39663 9.25874
15 1 1 13.0154 5.26214 8.86778
1 1 1 11.9646 4.45562 8.65948
12 1 1 12.3917 7.3274 8.35452
11 1 1 11.407 7.35841 8.21366
9 1 1 10.9465 8.14922 9.39599
2 1 1 12.0445 5.31467 9.05327
8 1 1 10.0408 8.09682 9.58408
3 1 1 11.7123 6.1895 9.42609
5 1 1 11.0522 6.73014 10.1455
6 1 1 10.212 6.3067 10.218
7 1 1 10.1723 7.16934 9.75118
4 1 1 11.5999 6.01434 10.4021
ITEM: TIMESTEP
1600
ITEM: NUMBER OF ATOMS
20
ITEM: BOX BOUNDS pp pp pp
0.0000000000000000e+00 2.0000000000000000e+01
0.0000000000000000e+00 2.0000000000000000e+01
0.0000000000000000e+00 2.0000000000000000e+01
ITEM: ATOMS id mol type x y z
20 1 1 12.0053 3.91975 7.15439
19 1 1 11.5954 3.54592 7.96291
18 1 1 12.4843 3.66536 8.29897
17 1 1 13.3545 3.95896 8.75611
14 1 1 13.0262 5.70248 8.75361
13 1 1 12.5576 6.14115 8.05124
10 1 1 10.9199 8.48721 8.60242
16 1 1 13.6642 4.80095 8.99269
15 1 1 13.5027 5.53179 9.56211
1 1 1 12.2575 4.40484 9.07714
12 1 1 12.0794 6.98409 8.37098
11 1 1 11.5988 7.81559 8.49497
9 1 1 10.6567 8.22269 9.55814
2 1 1 12.0635 4.83166 9.97528
8 1 1 10.2199 7.97277 10.3467
3 1 1 11.951 5.30404 9.17352
5 1 1 11.4003 6.53313 9.75961
6 1 1 10.4673 6.70225 10.012
7 1 1 9.86182 7.31899 9.77886
4 1 1 11.1847 5.58738 9.76232
ITEM: TIMESTEP
1700
ITEM: NUMBER OF ATOMS
20
ITEM: BOX BOUNDS pp pp pp
0.0000000000000000e+00 2.0000000000000000e+01
0.0000000000000000e+00 2.0000000000000000e+01
0.0000000000000000e+00 2.0000000000000000e+01
ITEM: ATOMS id mol type x y z
20 1 1 11.7659 4.19807 7.33255
19 1 1 12.4017 3.80408 7.98445
18 1 1 13.1087 4.33822 8.2927
17 1 1 13.3904 4.37521 9.2525
14 1 1 12.6237 5.79199 7.83951
13 1 1 12.2681 6.32325 8.62815
10 1 1 10.8703 7.77962 8.87474
16 1 1 14.0336 5.09227 8.91169
15 1 1 13.2555 5.4889 8.52541
1 1 1 12.2217 3.43545 10.0711
12 1 1 11.5677 6.95804 8.31373
11 1 1 11.7926 7.74269 8.81576
9 1 1 10.4651 8.41819 9.45468
2 1 1 12.121 4.44898 9.97602
8 1 1 10.6476 8.02185 10.2561
3 1 1 11.6316 5.20427 9.53331
5 1 1 11.2156 6.24144 9.64721
6 1 1 10.5737 6.9813 9.45103
7 1 1 10.0812 7.22973 10.175
4 1 1 10.8155 5.55744 9.10838
ITEM: TIMESTEP
1800
ITEM: NUMBER OF ATOMS
20
ITEM: BOX BOUNDS pp pp pp
0.0000000000000000e+00 2.0000000000000000e+01
0.0000000000000000e+00 2.0000000000000000e+01
0.0000000000000000e+00 2.0000000000000000e+01
ITEM: ATOMS id mol type x y z
20 1 1 11.9021 4.18679 7.88846
19 1 1 12.83 4.30928 7.58228
18 1 1 13.5364 4.38009 8.2844
17 1 1 13.7624 5.1155 8.90654
14 1 1 12.5456 6.11353 7.92739
13 1 1 12.1287 6.24889 8.70736
10 1 1 11.2046 8.23152 8.72379
16 1 1 13.0551 5.72817 8.72717
15 1 1 13.4469 5.724 7.84175
1 1 1 11.8771 3.86421 10.718
12 1 1 11.4173 6.82622 8.48318
11 1 1 11.8179 7.58771 8.90972
9 1 1 10.4007 8.28759 9.24132
2 1 1 11.6931 3.72569 9.79313
8 1 1 10.7631 8.02377 10.0991
3 1 1 11.1656 4.53737 9.85905
5 1 1 10.9106 5.84594 9.6347
6 1 1 10.1513 6.44047 9.93195
7 1 1 10.8935 7.11164 10.0884
4 1 1 11.349 5.14261 9.09631
ITEM: TIMESTEP
1900
ITEM: NUMBER OF ATOMS
20
ITEM: BOX BOUNDS pp pp pp
0.0000000000000000e+00 2.0000000000000000e+01
0.0000000000000000e+00 2.0000000000000000e+01
0.0000000000000000e+00 2.0000000000000000e+01
ITEM: ATOMS id mol type x y z
20 1 1 12.5265 4.19255 8.28879
19 1 1 13.0354 4.73567 7.63535
18 1 1 13.6256 4.58363 8.39469
17 1 1 14.3579 5.29554 8.33966
14 1 1 12.2336 6.53387 7.78157
13 1 1 11.6233 6.34329 8.43563
10 1 1 11.4644 8.56315 8.82394
16 1 1 13.4151 5.65673 8.46228
15 1 1 13.1106 6.26504 7.68669
1 1 1 11.5008 4.30826 10.698
12 1 1 10.9446 6.98806 8.64636
11 1 1 11.5911 7.63085 8.90135
9 1 1 10.6422 8.06134 9.00651
2 1 1 11.2448 3.41275 10.3005
8 1 1 10.7487 7.56026 9.84468
3 1 1 10.9367 4.06561 9.64847
5 1 1 10.4887 5.50396 9.63673
6 1 1 10.9216 6.05057 10.3229
7 1 1 11.1397 6.73574 9.65154
4 1 1 11.2996 4.94414 9.93834
ITEM: TIMESTEP
2000
ITEM: NUMBER OF ATOMS
20
ITEM: BOX BOUNDS pp pp pp
0.0000000000000000e+00 2.0000000000000000e+01
0.0000000000000000e+00 2.0000000000000000e+01
0.0000000000000000e+00 2.0000000000000000e+01
ITEM: ATOMS id mol type x y z
20 1 1 12.8876 4.20582 8.47695
19 1 1 13.1688 4.91558 7.95917
18 1 1 14.0129 4.79139 8.36837
17 1 1 14.4732 5.52251 8.05169
14 1 1 12.1357 6.66828 7.84651
13 1 1 11.194 6.52826 7.97244
10 1 1 11.4887 8.30361 9.08164
16 1 1 13.9152 6.13103 7.54853
15 1 1 13.0375 6.35832 7.89875
1 1 1 11.3909 3.91327 11.3404
12 1 1 10.6807 7.29942 8.11649
11 1 1 11.4477 7.48323 8.64285
9 1 1 10.5122 8.18107 9.26646
2 1 1 10.7997 3.8173 10.6155
8 1 1 10.9045 7.3411 9.57737
3 1 1 11.0414 3.76465 9.69242
5 1 1 10.5212 5.55163 10.1323
6 1 1 11.45 5.61571 10.1858
7 1 1 11.2138 6.43841 9.74371
4 1 1 10.5753 4.60044 9.92672
ITEM: TIMESTEP
2100
ITEM: NUMBER OF ATOMS
20
ITEM: BOX BOUNDS pp pp pp
0.0000000000000000e+00 2.0000000000000000e+01
0.0000000000000000e+00 2.0000000000000000e+01
0.0000000000000000e+00 2.0000000000000000e+01
ITEM: ATOMS id mol type x y z
16 1 1 13.6714 6.69374 7.13937
19 1 1 13.4812 4.95712 8.43045
18 1 1 14.3773 5.28798 8.12841
17 1 1 14.1573 6.03956 7.6366
13 1 1 11.6083 6.89245 7.45756
14 1 1 12.1755 6.33935 7.96357
15 1 1 13.1411 6.31285 7.80855
12 1 1 10.8873 7.41642 7.29829
20 1 1 13.0022 4.17308 8.61271
11 1 1 11.0366 7.60045 8.27817
10 1 1 11.4383 7.95348 9.06783
3 1 1 10.7427 3.94963 10.1681
4 1 1 10.1401 4.69204 9.77332
7 1 1 11.1691 6.18433 10.0473
8 1 1 10.8118 7.05143 9.83922
9 1 1 10.7272 8.02749 9.68752
2 1 1 10.807 4.15191 11.1448
5 1 1 10.8985 4.92775 10.3091
6 1 1 11.5822 5.36783 9.92943
1 1 1 10.9959 3.4121 11.7238
ITEM: TIMESTEP
2200
ITEM: NUMBER OF ATOMS
20
ITEM: BOX BOUNDS pp pp pp
0.0000000000000000e+00 2.0000000000000000e+01
0.0000000000000000e+00 2.0000000000000000e+01
0.0000000000000000e+00 2.0000000000000000e+01
ITEM: ATOMS id mol type x y z
16 1 1 13.4403 6.93664 7.10129
19 1 1 14.2 5.02321 8.63263
18 1 1 14.1225 5.75807 7.95554
17 1 1 14.1923 6.32105 7.20493
13 1 1 12.1275 7.1465 7.36876
14 1 1 11.8882 6.26812 7.66752
15 1 1 12.8868 6.45661 7.69168
12 1 1 11.3546 7.53693 7.09496
20 1 1 13.3886 4.50073 8.67564
11 1 1 10.8256 7.84351 7.83699
10 1 1 10.9123 7.64086 8.81649
3 1 1 9.90508 3.68986 10.8919
4 1 1 10.3428 4.29407 10.3531
7 1 1 11.3056 6.2879 10.1544
8 1 1 10.6073 6.91749 10.1953
9 1 1 11.2578 7.36659 9.66412
2 1 1 10.7982 3.85425 11.1768
5 1 1 11.1289 4.96338 10.3567
6 1 1 11.7047 5.42438 9.79536
1 1 1 10.4621 3.20084 11.81
ITEM: TIMESTEP
2300
ITEM: NUMBER OF ATOMS
20
ITEM: BOX BOUNDS pp pp pp
0.0000000000000000e+00 2.0000000000000000e+01
0.0000000000000000e+00 2.0000000000000000e+01
0.0000000000000000e+00 2.0000000000000000e+01
ITEM: ATOMS id mol type x y z
16 1 1 13.3159 6.74131 7.34426
19 1 1 14.7255 5.58858 8.1564
18 1 1 13.8473 5.96649 7.94476
17 1 1 14.1972 6.38477 7.12924
13 1 1 12.075 7.4902 7.26035
14 1 1 12.0985 6.5571 7.2681
15 1 1 12.754 6.12221 7.73938
12 1 1 11.3676 8.04477 7.1798
20 1 1 14.0985 5.09286 8.71233
11 1 1 11.0234 7.77145 8.0173
10 1 1 10.2942 7.29791 8.49294
3 1 1 10.1585 4.00414 11.4189
4 1 1 10.2317 4.2554 10.4958
7 1 1 11.5233 6.3224 10.3512
8 1 1 11.233 7.097 9.87693
9 1 1 10.9806 6.76161 8.99657
2 1 1 10.5559 3.14795 11.6137
5 1 1 11.1747 4.52946 10.3015
6 1 1 11.3826 5.45457 10.0403
1 1 1 9.81364 2.80083 12.1043
ITEM: TIMESTEP
2400
ITEM: NUMBER OF ATOMS
20
ITEM: BOX BOUNDS pp pp pp
0.0000000000000000e+00 2.0000000000000000e+01
0.0000000000000000e+00 2.0000000000000000e+01
0.0000000000000000e+00 2.0000000000000000e+01
ITEM: ATOMS id mol type x y z
16 1 1 13.1974 6.51163 7.57305
19 1 1 15.0748 6.10049 7.80073
18 1 1 14.107 5.95196 8.00849
17 1 1 14.0624 6.44982 7.1767
13 1 1 11.6382 7.69907 7.0981
14 1 1 12.2515 6.92957 7.00443
15 1 1 12.3851 6.10775 7.47337
12 1 1 11.3421 8.43894 7.7007
20 1 1 15.1079 5.75384 8.69242
11 1 1 11.0892 7.60178 8.06125
10 1 1 10.3879 6.93108 8.14644
3 1 1 10.7517 3.48664 11.5885
4 1 1 10.4063 4.21635 11.0357
7 1 1 11.3363 6.21235 10.0068
8 1 1 11.6164 6.27044 8.96022
9 1 1 10.8228 6.83368 9.02795
2 1 1 9.8985 3.31776 11.9659
5 1 1 10.9653 4.54714 10.3313
6 1 1 11.0159 5.52342 10.5115
1 1 1 9.39433 2.54727 12.2805
ITEM: TIMESTEP
2500
ITEM: NUMBER OF ATOMS
20
ITEM: BOX BOUNDS pp pp pp
0.0000000000000000e+00 2.0000000000000000e+01
0.0000000000000000e+00 2.0000000000000000e+01
0.0000000000000000e+00 2.0000000000000000e+01
ITEM: ATOMS id mol type x y z
16 1 1 12.9337 6.28213 7.50045
19 1 1 15.3914 6.44542 7.86897
18 1 1 14.6106 5.89992 7.96745
17 1 1 13.9389 6.51302 7.50152
13 1 1 11.2742 8.06104 7.08484
14 1 1 11.9567 7.42648 6.92863
15 1 1 12.08 6.44907 7.05294
12 1 1 11.4719 8.30139 7.97368
20 1 1 16.2318 6.49292 8.37847
11 1 1 11.0439 7.44788 8.16355
10 1 1 10.7433 6.61059 8.08466
3 1 1 10.3383 3.24212 11.5625
4 1 1 11.025 3.90786 11.3391
7 1 1 10.973 5.51138 9.59759
8 1 1 10.959 5.66481 8.58481
9 1 1 11.3866 6.48446 8.80469
2 1 1 9.65979 3.67967 12.1281
5 1 1 10.6007 4.77769 11.238
6 1 1 10.8264 5.46102 10.5002
1 1 1 9.40577 2.77212 12.1839
ITEM: TIMESTEP
2600
ITEM: NUMBER OF ATOMS
20
ITEM: BOX BOUNDS pp pp pp
0.0000000000000000e+00 2.0000000000000000e+01
0.0000000000000000e+00 2.0000000000000000e+01
0.0000000000000000e+00 2.0000000000000000e+01
ITEM: ATOMS id mol type x y z
16 1 1 13.1705 6.47972 7.39385
19 1 1 15.6162 6.51458 7.99671
18 1 1 14.6683 6.71086 7.94461
17 1 1 13.9804 6.04332 7.64012
13 1 1 11.1598 8.41161 7.18526
14 1 1 11.6215 7.55094 6.92962
15 1 1 12.4534 6.96399 7.01215
12 1 1 11.5829 8.23712 8.05662
20 1 1 16.442 7.05857 7.76832
11 1 1 10.9913 7.42164 8.21068
10 1 1 11.1882 6.43951 8.13112
3 1 1 10.1049 3.76508 11.3799
4 1 1 11.0976 3.98067 11.4799
7 1 1 10.4925 4.65863 9.71547
8 1 1 10.7701 5.21789 9.03307
9 1 1 11.2845 5.44838 8.15763
2 1 1 9.59635 3.97042 12.1798
5 1 1 10.8763 4.88695 11.4361
6 1 1 10.336 4.65003 10.708
1 1 1 9.41811 3.02111 12.0851
ITEM: TIMESTEP
2700
ITEM: NUMBER OF ATOMS
20
ITEM: BOX BOUNDS pp pp pp
0.0000000000000000e+00 2.0000000000000000e+01
0.0000000000000000e+00 2.0000000000000000e+01
0.0000000000000000e+00 2.0000000000000000e+01
ITEM: ATOMS id mol type x y z
16 1 1 13.5098 7.05281 7.39008
19 1 1 15.3662 6.69668 7.88104
18 1 1 14.4537 7.05827 7.99457
17 1 1 14.3683 6.59196 7.18544
13 1 1 11.4587 8.11725 7.24
14 1 1 12.01 7.26836 7.2717
15 1 1 12.8479 7.79848 7.44404
12 1 1 11.2958 7.64357 8.05625
20 1 1 15.8434 7.27313 7.21703
11 1 1 11.4936 6.70122 8.09104
10 1 1 11.425 5.75691 8.42172
3 1 1 10.1078 3.7923 11.5692
4 1 1 10.885 4.36369 11.785
7 1 1 10.2274 4.44576 9.5938
8 1 1 10.9133 4.77203 9.07164
9 1 1 10.4802 5.5769 8.65726
2 1 1 9.55729 4.17245 12.2344
5 1 1 10.8958 4.18769 10.7931
6 1 1 10.3478 4.87081 10.4825
1 1 1 9.36382 3.29073 12.0642
ITEM: TIMESTEP
2800
ITEM: NUMBER OF ATOMS
20
ITEM: BOX BOUNDS pp pp pp
0.0000000000000000e+00 2.0000000000000000e+01
0.0000000000000000e+00 2.0000000000000000e+01
0.0000000000000000e+00 2.0000000000000000e+01
ITEM: ATOMS id mol type x y z
16 1 1 13.4427 7.86118 7.0723
19 1 1 15.7399 7.30653 7.84387
18 1 1 14.8684 6.86123 7.68984
17 1 1 14.2048 7.27063 7.04683
13 1 1 11.5761 7.52184 7.68472
14 1 1 12.4998 7.29297 7.75796
15 1 1 12.8053 8.212 7.65918
12 1 1 11.238 6.59016 7.70684
20 1 1 15.3841 7.36112 6.99549
11 1 1 11.8113 6.00871 8.1701
10 1 1 11.0341 5.67987 8.56804
3 1 1 10.3165 4.01225 11.793
4 1 1 10.4816 4.76112 11.172
7 1 1 10.0766 4.5589 9.71124
8 1 1 10.6622 4.56356 8.86085
9 1 1 10.6347 5.40577 9.4049
2 1 1 9.48015 4.061 12.239
5 1 1 10.7921 3.99916 10.6168
6 1 1 10.9934 4.71234 9.97292
1 1 1 8.80931 3.39067 12.4781
ITEM: TIMESTEP
2900
ITEM: NUMBER OF ATOMS
20
ITEM: BOX BOUNDS pp pp pp
0.0000000000000000e+00 2.0000000000000000e+01
0.0000000000000000e+00 2.0000000000000000e+01
0.0000000000000000e+00 2.0000000000000000e+01
ITEM: ATOMS id mol type x y z
16 1 1 13.7164 8.48764 7.25034
19 1 1 15.3494 7.66939 7.35544
18 1 1 14.6907 6.99832 7.40775
17 1 1 14.2963 7.80848 7.65041
13 1 1 12.0067 6.60259 8.11685
14 1 1 12.3211 7.50012 8.09327
15 1 1 13.0191 7.92019 7.565
12 1 1 11.6629 6.03932 7.38742
20 1 1 15.5669 7.8688 6.37369
11 1 1 11.6966 5.52206 8.18751
10 1 1 10.9666 6.13911 8.40484
3 1 1 10.1306 4.41976 12.0085
4 1 1 10.1049 4.46479 11.0157
7 1 1 10.6681 4.59464 9.85388
8 1 1 10.2203 4.71302 9.01743
9 1 1 10.5316 5.56325 9.06853
2 1 1 9.43471 3.74839 12.2294
5 1 1 10.9054 3.89544 10.8297
6 1 1 10.9443 3.71216 9.88463
1 1 1 8.61816 3.76351 12.7436
ITEM: TIMESTEP
3000
ITEM: NUMBER OF ATOMS
20
ITEM: BOX BOUNDS pp pp pp
0.0000000000000000e+00 2.0000000000000000e+01
0.0000000000000000e+00 2.0000000000000000e+01
0.0000000000000000e+00 2.0000000000000000e+01
ITEM: ATOMS id mol type x y z
16 1 1 13.3797 8.41439 7.99182
19 1 1 15.0358 8.06259 6.72683
18 1 1 14.2939 7.67121 7.17184
17 1 1 14.3109 8.073 8.00962
13 1 1 12.9673 6.48908 7.94357
14 1 1 12.3295 7.16165 7.67069
15 1 1 13.2432 7.49864 7.75496
12 1 1 12.3136 5.77892 7.85776
20 1 1 15.7014 8.28707 5.9763
11 1 1 11.426 5.46924 7.86775
10 1 1 11.0441 6.17885 8.39107
3 1 1 9.4892 4.48069 11.834
4 1 1 10.1069 3.87312 11.4096
7 1 1 10.8284 4.03367 9.33373
8 1 1 10.4643 4.92105 9.54406
9 1 1 10.3114 5.55825 8.79944
2 1 1 9.43695 3.68243 12.2585
5 1 1 10.969 3.83774 10.916
6 1 1 10.3774 3.72119 10.2062
1 1 1 8.82196 4.2382 12.7802
ITEM: TIMESTEP
3100
ITEM: NUMBER OF ATOMS
20
ITEM: BOX BOUNDS pp pp pp
0.0000000000000000e+00 2.0000000000000000e+01
0.0000000000000000e+00 2.0000000000000000e+01
0.0000000000000000e+00 2.0000000000000000e+01
ITEM: ATOMS id mol type x y z
20 1 1 15.4789 8.59476 5.86988
19 1 1 14.6121 8.40252 6.18042
14 1 1 13.2517 6.68124 7.47119
18 1 1 14.3067 8.71156 7.04101
11 1 1 11.7496 5.88958 7.77473
10 1 1 11.0561 5.79101 8.41537
12 1 1 12.3675 5.40868 8.37301
13 1 1 13.0554 5.77232 7.83933
15 1 1 13.1554 7.6492 7.74542
16 1 1 13.3293 8.1725 8.57048
17 1 1 14.0864 8.28656 7.97925
9 1 1 10.4757 5.09143 8.83781
7 1 1 10.2953 4.30001 9.3585
8 1 1 11.1644 4.61476 9.32224
6 1 1 10.0705 4.11537 10.2992
5 1 1 10.6909 3.80693 10.9008
4 1 1 10.1686 3.83392 11.7881
3 1 1 9.2526 3.87605 11.5194
2 1 1 9.1504 3.74102 12.4594
1 1 1 9.13355 4.69157 12.6985
ITEM: TIMESTEP
3200
ITEM: NUMBER OF ATOMS
20
ITEM: BOX BOUNDS pp pp pp
0.0000000000000000e+00 2.0000000000000000e+01
0.0000000000000000e+00 2.0000000000000000e+01
0.0000000000000000e+00 2.0000000000000000e+01
ITEM: ATOMS id mol type x y z
20 1 1 14.9763 8.83691 5.9052
19 1 1 14.0677 8.97723 6.34003
14 1 1 13.9317 6.31767 8.07486
18 1 1 14.3733 9.18714 7.17223
11 1 1 12.0534 6.35987 7.96531
10 1 1 11.329 5.7579 8.30826
12 1 1 12.5738 5.58525 8.19699
13 1 1 13.3213 5.76749 7.63351
15 1 1 13.1706 6.91182 7.99041
16 1 1 13.6941 7.70772 7.7976
17 1 1 13.728 8.66035 7.58219
9 1 1 10.8658 5.03974 8.63419
7 1 1 10.453 4.03032 9.87211
8 1 1 10.5935 4.0958 8.94608
6 1 1 9.7563 4.40651 10.5556
5 1 1 10.4407 3.78876 10.9268
4 1 1 10.0124 3.86702 11.7997
3 1 1 9.23684 3.22991 11.9932
2 1 1 8.84995 4.05932 12.2421
1 1 1 9.42348 4.84426 12.5076
ITEM: TIMESTEP
3300
ITEM: NUMBER OF ATOMS
20
ITEM: BOX BOUNDS pp pp pp
0.0000000000000000e+00 2.0000000000000000e+01
0.0000000000000000e+00 2.0000000000000000e+01
0.0000000000000000e+00 2.0000000000000000e+01
ITEM: ATOMS id mol type x y z
20 1 1 14.3306 9.116 6.02894
19 1 1 13.737 9.65697 6.51814
14 1 1 14.1578 6.27151 8.4756
18 1 1 13.8595 9.07706 7.39401
11 1 1 12.0355 6.14492 8.33057
10 1 1 11.4588 5.33177 8.40442
12 1 1 12.7938 6.17477 7.7582
13 1 1 13.6704 5.81729 7.74142
15 1 1 14.2881 6.98626 7.79425
16 1 1 13.5256 7.23289 7.18925
17 1 1 13.6787 8.16196 7.37495
9 1 1 11.1046 4.46314 8.64079
7 1 1 10.6054 4.27245 9.62744
8 1 1 10.2221 4.7167 8.90534
6 1 1 9.96386 4.37328 10.3993
5 1 1 10.2254 3.77054 11.115
4 1 1 9.80926 3.51455 11.922
3 1 1 9.19745 3.61774 12.6408
2 1 1 8.72515 4.1099 12.0054
1 1 1 9.46212 4.62129 12.1782
ITEM: TIMESTEP
3400
ITEM: NUMBER OF ATOMS
20
ITEM: BOX BOUNDS pp pp pp
0.0000000000000000e+00 2.0000000000000000e+01
0.0000000000000000e+00 2.0000000000000000e+01
0.0000000000000000e+00 2.0000000000000000e+01
ITEM: ATOMS id mol type x y z
20 1 1 13.6136 9.48159 6.32514
19 1 1 13.495 9.59261 7.27264
14 1 1 14.4176 6.73844 8.36653
18 1 1 13.1861 8.75062 6.89696
11 1 1 12.5846 5.44054 8.07798
10 1 1 11.8487 5.01966 8.46843
12 1 1 12.596 6.42673 8.01345
13 1 1 13.5605 6.2965 8.19324
15 1 1 14.6624 6.76593 7.45327
16 1 1 13.8208 6.93364 7.03376
17 1 1 13.7651 7.90156 7.08136
9 1 1 11.0415 4.44232 8.30536
7 1 1 10.4144 4.61882 9.68989
8 1 1 10.74 5.12133 8.96753
6 1 1 10.2579 4.12647 10.4807
5 1 1 9.83736 3.73174 11.2841
4 1 1 9.63195 3.31722 12.0754
3 1 1 9.33346 3.83857 12.8471
2 1 1 8.72462 4.12908 12.0768
1 1 1 9.31935 4.75764 11.5344
ITEM: TIMESTEP
3500
ITEM: NUMBER OF ATOMS
20
ITEM: BOX BOUNDS pp pp pp
0.0000000000000000e+00 2.0000000000000000e+01
0.0000000000000000e+00 2.0000000000000000e+01
0.0000000000000000e+00 2.0000000000000000e+01
ITEM: ATOMS id mol type x y z
20 1 1 13.0539 10.0653 7.22208
19 1 1 13.1294 9.09757 7.05178
14 1 1 14.2103 6.52429 8.26923
18 1 1 12.7977 8.19958 6.8349
11 1 1 12.8865 5.37288 7.96078
10 1 1 12.2461 4.77834 8.24118
12 1 1 13.3452 5.93039 8.58093
13 1 1 13.4393 6.90155 8.69671
15 1 1 14.0093 6.68089 7.34584
16 1 1 14.3298 7.13916 6.54965
17 1 1 13.567 7.68481 6.53416
9 1 1 11.3792 5.13362 8.54433
7 1 1 10.4063 4.89339 9.9459
8 1 1 11.0418 4.61791 9.33834
6 1 1 10.3265 4.07664 10.4131
5 1 1 9.85038 3.56248 11.0441
4 1 1 9.5803 3.32493 11.9218
3 1 1 9.2987 3.89507 12.6104
2 1 1 9.28596 4.69932 12.053
1 1 1 8.6674 4.85284 11.2858
ITEM: TIMESTEP
3600
ITEM: NUMBER OF ATOMS
20
ITEM: BOX BOUNDS pp pp pp
0.0000000000000000e+00 2.0000000000000000e+01
0.0000000000000000e+00 2.0000000000000000e+01
0.0000000000000000e+00 2.0000000000000000e+01
ITEM: ATOMS id mol type x y z
20 1 1 12.5805 8.94914 7.89761
19 1 1 12.4991 9.02886 6.83211
14 1 1 13.6994 6.95656 7.9275
18 1 1 13.2075 8.4223 6.659
11 1 1 12.9389 5.48979 8.57179
10 1 1 12.0761 5.22231 8.34848
12 1 1 13.6952 5.43569 9.19433
13 1 1 13.7289 6.27554 8.61173
15 1 1 13.5976 6.84088 6.95567
16 1 1 14.1338 7.58795 6.73183
17 1 1 13.342 7.5531 6.19012
9 1 1 12.2347 5.01544 9.24893
7 1 1 10.8423 4.85412 9.92321
8 1 1 11.3982 4.61009 9.12218
6 1 1 10.216 4.19511 10.3369
5 1 1 9.96815 3.47534 10.8767
4 1 1 9.61886 3.33621 11.7131
3 1 1 9.32988 4.2302 11.9341
2 1 1 9.37061 5.12572 11.7383
1 1 1 8.3734 4.82665 11.6305
ITEM: TIMESTEP
3700
ITEM: NUMBER OF ATOMS
20
ITEM: BOX BOUNDS pp pp pp
0.0000000000000000e+00 2.0000000000000000e+01
0.0000000000000000e+00 2.0000000000000000e+01
0.0000000000000000e+00 2.0000000000000000e+01
ITEM: ATOMS id mol type x y z
20 1 1 12.1149 7.71626 7.75076
19 1 1 12.6034 8.32292 7.07932
14 1 1 13.329 6.32284 8.04521
18 1 1 13.104 8.89488 6.48561
11 1 1 13.1128 5.53045 8.65441
10 1 1 12.4806 5.65643 9.33785
12 1 1 13.9179 6.03794 8.96572
13 1 1 14.2905 6.18096 8.0866
15 1 1 13.4385 7.09614 7.42721
16 1 1 13.6438 7.8599 6.92729
17 1 1 13.0344 8.01756 6.16485
9 1 1 12.3432 4.73727 9.36841
7 1 1 11.1252 4.45859 10.0084
8 1 1 11.4676 4.38854 9.01185
6 1 1 10.1911 4.408 10.2849
5 1 1 10.0974 3.56816 10.7199
4 1 1 9.5838 3.50887 11.5142
3 1 1 9.51612 4.45213 11.179
2 1 1 9.0347 5.30307 11.427
1 1 1 8.4221 4.9701 12.0056
ITEM: TIMESTEP
3800
ITEM: NUMBER OF ATOMS
20
ITEM: BOX BOUNDS pp pp pp
0.0000000000000000e+00 2.0000000000000000e+01
0.0000000000000000e+00 2.0000000000000000e+01
0.0000000000000000e+00 2.0000000000000000e+01
ITEM: ATOMS id mol type x y z
20 1 1 12.0479 7.12919 7.16759
19 1 1 12.1327 7.98527 7.55165
14 1 1 13.4384 6.48046 7.31507
18 1 1 12.3701 8.64471 6.94142
11 1 1 13.547 5.58793 9.31975
10 1 1 13.0463 5.09269 10.0217
12 1 1 13.8277 6.21124 8.59755
13 1 1 14.2503 6.23721 7.71674
15 1 1 13.4014 7.36305 7.79696
16 1 1 13.4309 7.57079 6.8542
17 1 1 13.1568 8.37626 6.37285
9 1 1 12.3624 5.24996 9.37464
7 1 1 11.2316 4.02228 9.90391
8 1 1 11.9699 4.29049 9.21934
6 1 1 10.4026 4.50276 10.0312
5 1 1 10.1669 3.80489 10.5663
4 1 1 9.52734 3.80508 11.2823
3 1 1 9.34177 4.64455 10.9649
2 1 1 8.61774 5.28359 11.2208
1 1 1 8.58131 5.1486 12.2252
ITEM: TIMESTEP
3900
ITEM: NUMBER OF ATOMS
20
ITEM: BOX BOUNDS pp pp pp
0.0000000000000000e+00 2.0000000000000000e+01
0.0000000000000000e+00 2.0000000000000000e+01
0.0000000000000000e+00 2.0000000000000000e+01
ITEM: ATOMS id mol type x y z
20 1 1 12.0407 7.0569 6.83787
19 1 1 11.5461 7.37037 7.57189
14 1 1 13.6678 6.45184 7.01829
18 1 1 12.1347 8.04353 7.26227
11 1 1 13.831 5.83828 9.65391
10 1 1 13.582 4.95447 9.47696
12 1 1 13.7092 5.64358 8.71816
13 1 1 13.759 6.26383 7.94496
15 1 1 13.4499 7.25615 7.42573
16 1 1 13.1237 7.93147 6.79468
17 1 1 12.8814 8.74997 7.17235
9 1 1 12.7105 5.35528 9.66202
7 1 1 11.6845 3.97933 9.4342
8 1 1 12.2373 4.58889 9.91441
6 1 1 10.7829 4.37236 9.70491
5 1 1 10.2019 4.12632 10.4241
4 1 1 9.47415 4.04602 11.0639
3 1 1 9.0425 4.85584 10.8748
2 1 1 8.24837 5.18236 11.3723
1 1 1 8.74351 5.36422 12.1163
ITEM: TIMESTEP
4000
ITEM: NUMBER OF ATOMS
20
ITEM: BOX BOUNDS pp pp pp
0.0000000000000000e+00 2.0000000000000000e+01
0.0000000000000000e+00 2.0000000000000000e+01
0.0000000000000000e+00 2.0000000000000000e+01
ITEM: ATOMS id mol type x y z
20 1 1 11.8483 6.61151 6.5888
19 1 1 11.4764 7.20109 7.25714
14 1 1 13.8018 6.6014 7.25852
18 1 1 11.6143 7.83868 7.94387
11 1 1 14.0079 5.63627 9.38426
10 1 1 13.8856 4.71638 9.72257
12 1 1 13.8001 5.88913 8.46135
13 1 1 13.155 6.29425 7.92488
15 1 1 13.4524 7.33095 6.68777
16 1 1 13.213 8.20288 7.1865
17 1 1 12.4144 8.31708 7.67014
9 1 1 13.1087 5.12136 10.0902
7 1 1 12.0156 4.33823 9.3585
8 1 1 12.2505 4.7877 10.1874
6 1 1 11.1976 4.03013 9.70633
5 1 1 10.3816 4.4862 10.0715
4 1 1 9.56942 4.4949 10.604
3 1 1 8.76814 4.9341 10.9419
2 1 1 8.01776 5.07154 11.5386
1 1 1 8.87264 5.52722 11.8598
ITEM: TIMESTEP
4100
ITEM: NUMBER OF ATOMS
20
ITEM: BOX BOUNDS pp pp pp
0.0000000000000000e+00 2.0000000000000000e+01
0.0000000000000000e+00 2.0000000000000000e+01
0.0000000000000000e+00 2.0000000000000000e+01
ITEM: ATOMS id mol type x y z
20 1 1 11.4907 6.39709 6.62132
15 1 1 13.4151 7.63389 6.85412
14 1 1 13.714 6.8741 7.36195
19 1 1 11.5902 7.27719 7.04652
16 1 1 12.9231 8.0764 7.6126
12 1 1 13.7491 6.0772 8.53351
13 1 1 13.0943 6.33045 7.81712
18 1 1 11.2944 7.24818 7.98978
17 1 1 12.1663 7.60179 8.04236
6 1 1 11.2802 4.22289 9.96169
7 1 1 12.0343 4.63964 9.52126
10 1 1 14.0284 5.1467 9.7614
11 1 1 13.9938 5.15313 8.77125
5 1 1 10.3375 4.57246 9.93811
4 1 1 9.58297 5.18856 10.101
8 1 1 12.4579 4.99551 10.3014
9 1 1 13.3686 4.6917 10.4342
3 1 1 9.09109 4.71173 10.7566
2 1 1 8.34236 4.90574 11.4102
1 1 1 8.89672 5.68665 11.6076
ITEM: TIMESTEP
4200
ITEM: NUMBER OF ATOMS
20
ITEM: BOX BOUNDS pp pp pp
0.0000000000000000e+00 2.0000000000000000e+01
0.0000000000000000e+00 2.0000000000000000e+01
0.0000000000000000e+00 2.0000000000000000e+01
ITEM: ATOMS id mol type x y z
20 1 1 11.0933 6.19036 6.65183
15 1 1 13.1491 7.44121 8.0803
14 1 1 13.5822 7.14099 7.2135
19 1 1 11.2893 7.12201 6.75829
16 1 1 12.2894 7.89959 7.82989
12 1 1 13.5821 5.84534 8.56402
13 1 1 13.3885 6.42559 7.82632
18 1 1 11.6443 6.81412 7.70873
17 1 1 12.1188 7.2659 8.46396
6 1 1 11.2069 4.70442 10.1932
7 1 1 12.1603 4.93629 9.9085
10 1 1 13.414 5.43111 9.48453
11 1 1 13.8734 4.9962 8.76255
5 1 1 10.366 4.81719 9.78718
4 1 1 9.63573 5.44923 9.80309
8 1 1 13.0257 5.02454 10.4169
9 1 1 13.8055 4.68691 10.0635
3 1 1 9.49179 4.72424 10.4106
2 1 1 8.87531 4.77842 11.2071
1 1 1 8.85936 5.73734 11.31
ITEM: TIMESTEP
4300
ITEM: NUMBER OF ATOMS
20
ITEM: BOX BOUNDS pp pp pp
0.0000000000000000e+00 2.0000000000000000e+01
0.0000000000000000e+00 2.0000000000000000e+01
0.0000000000000000e+00 2.0000000000000000e+01
ITEM: ATOMS id mol type x y z
20 1 1 10.6576 5.95195 6.70123
15 1 1 12.8441 7.14399 8.8124
14 1 1 13.1363 7.37688 7.96292
19 1 1 11.1514 6.66732 6.90065
16 1 1 12.0598 7.56094 8.41225
12 1 1 13.6665 5.79659 7.78404
13 1 1 13.7424 6.76008 7.6361
18 1 1 11.983 6.63036 7.35357
17 1 1 11.6824 6.66965 8.2664
6 1 1 11.5897 5.36469 10.0869
7 1 1 12.2999 5.09109 10.6957
10 1 1 13.016 5.4197 9.40503
11 1 1 13.5256 5.33115 8.66223
5 1 1 11.0128 5.48261 9.32074
4 1 1 10.1364 5.11673 9.66947
8 1 1 13.1406 4.75655 10.5522
9 1 1 13.7641 4.92622 9.83329
3 1 1 9.41564 4.89051 10.214
2 1 1 9.22233 4.81061 11.1982
1 1 1 8.8043 5.68339 10.9767
ITEM: TIMESTEP
4400
ITEM: NUMBER OF ATOMS
20
ITEM: BOX BOUNDS pp pp pp
0.0000000000000000e+00 2.0000000000000000e+01
0.0000000000000000e+00 2.0000000000000000e+01
0.0000000000000000e+00 2.0000000000000000e+01
ITEM: ATOMS id mol type x y z
20 1 1 10.1928 5.86164 6.71624
15 1 1 12.4248 6.97357 9.23749
14 1 1 13.3279 6.92784 8.75423
19 1 1 11.1789 5.83998 7.01707
16 1 1 11.516 6.68494 9.08155
12 1 1 13.6941 6.04582 7.53721
13 1 1 13.6503 6.90362 7.84396
18 1 1 11.9188 6.48532 7.242
17 1 1 11.6321 6.70473 8.11818
6 1 1 12.4153 5.88136 9.99689
7 1 1 12.0512 5.32464 10.7371
10 1 1 13.0543 5.39353 8.87654
11 1 1 12.8941 6.05027 8.17853
5 1 1 11.4063 5.67477 10.0175
4 1 1 10.9302 4.869 9.76636
8 1 1 12.7341 4.80593 10.3733
9 1 1 13.4049 5.2013 9.76787
3 1 1 10.0532 5.20605 9.78686
2 1 1 9.60654 5.08363 10.6303
1 1 1 8.76518 5.51306 10.7648
ITEM: TIMESTEP
4500
ITEM: NUMBER OF ATOMS
20
ITEM: BOX BOUNDS pp pp pp
0.0000000000000000e+00 2.0000000000000000e+01
0.0000000000000000e+00 2.0000000000000000e+01
0.0000000000000000e+00 2.0000000000000000e+01
ITEM: ATOMS id mol type x y z
20 1 1 10.2756 5.82328 6.90359
15 1 1 12.2546 6.54461 9.20945
14 1 1 13.0721 6.93593 9.60768
19 1 1 11.1 5.32904 6.99804
16 1 1 11.7784 6.0644 8.54748
12 1 1 13.3921 6.5686 7.70674
13 1 1 13.1252 6.73453 8.61953
18 1 1 11.1891 6.10505 7.70511
17 1 1 11.6836 6.88518 7.9253
6 1 1 12.2629 6.03175 10.6421
7 1 1 12.9051 5.36936 10.9586
10 1 1 13.2299 5.60519 8.4536
11 1 1 12.6293 5.94358 7.76899
5 1 1 11.4357 5.94479 10.1997
4 1 1 11.6476 5.0629 9.81787
8 1 1 12.6141 5.01256 10.1584
9 1 1 12.6972 5.39037 9.231
3 1 1 10.6553 5.26117 9.77868
2 1 1 9.69259 5.59853 9.74047
1 1 1 9.21077 5.22019 10.4716
ITEM: TIMESTEP
4600
ITEM: NUMBER OF ATOMS
20
ITEM: BOX BOUNDS pp pp pp
0.0000000000000000e+00 2.0000000000000000e+01
0.0000000000000000e+00 2.0000000000000000e+01
0.0000000000000000e+00 2.0000000000000000e+01
ITEM: ATOMS id mol type x y z
20 1 1 10.1651 5.59828 6.70379
15 1 1 11.7122 6.43597 9.37299
14 1 1 12.5895 6.79399 9.64164
19 1 1 10.9033 5.34158 7.24614
16 1 1 11.9666 6.73305 8.50065
12 1 1 13.0715 6.93503 8.02359
13 1 1 13.2385 6.69485 8.92844
18 1 1 10.7458 5.73763 8.13024
17 1 1 11.6146 6.17088 7.71238
6 1 1 12.6141 5.75694 11.3748
7 1 1 12.9754 5.87494 10.4857
10 1 1 12.8335 5.70655 8.37509
11 1 1 13.2093 6.09249 7.54533
5 1 1 11.9389 5.85792 10.7218
4 1 1 11.5496 5.13016 10.1515
8 1 1 13.2194 5.51134 9.66548
9 1 1 12.5102 5.09182 9.05965
3 1 1 10.7151 5.24328 9.67088
2 1 1 9.91487 5.61906 9.27997
1 1 1 9.36366 5.10528 9.85382
ITEM: TIMESTEP
4700
ITEM: NUMBER OF ATOMS
20
ITEM: BOX BOUNDS pp pp pp
0.0000000000000000e+00 2.0000000000000000e+01
0.0000000000000000e+00 2.0000000000000000e+01
0.0000000000000000e+00 2.0000000000000000e+01
ITEM: ATOMS id mol type x y z
20 1 1 10.1953 5.24429 6.54359
15 1 1 11.4531 7.13959 9.21107
14 1 1 12.3325 6.84686 9.44697
19 1 1 10.3824 5.51753 7.43062
16 1 1 11.1813 6.92641 8.20409
12 1 1 13.7445 7.1206 8.13048
13 1 1 12.9242 6.93914 8.71846
18 1 1 10.6775 5.32544 8.37357
17 1 1 11.389 5.97919 8.51705
6 1 1 12.839 5.42186 10.7706
7 1 1 12.9663 6.21156 10.2031
10 1 1 12.7544 5.71081 8.04412
11 1 1 13.6042 6.16502 8.22291
5 1 1 12.0677 5.04003 11.1349
4 1 1 11.1455 5.05791 10.7323
8 1 1 13.4039 5.96148 9.3901
9 1 1 13.1518 5.25927 8.78584
3 1 1 11.0595 5.26852 9.81332
2 1 1 10.1715 4.96701 9.66673
1 1 1 9.40746 5.32847 9.10419
ITEM: TIMESTEP
4800
ITEM: NUMBER OF ATOMS
20
ITEM: BOX BOUNDS pp pp pp
0.0000000000000000e+00 2.0000000000000000e+01
0.0000000000000000e+00 2.0000000000000000e+01
0.0000000000000000e+00 2.0000000000000000e+01
ITEM: ATOMS id mol type x y z
20 1 1 10.3662 5.03847 6.92066
15 1 1 11.2849 7.59786 8.74235
14 1 1 12.1909 7.05772 8.81528
19 1 1 10.0126 5.45435 7.73174
16 1 1 10.7809 6.8974 8.31477
12 1 1 13.6973 7.18511 8.69296
13 1 1 12.8739 7.63809 8.45781
18 1 1 11.0026 5.53582 8.07048
17 1 1 10.6676 6.08534 8.81669
6 1 1 12.1769 5.30873 10.1074
7 1 1 12.9229 5.90774 10.2344
10 1 1 13.4858 5.67494 7.97432
11 1 1 14.0327 6.48203 8.19696
5 1 1 12.2238 4.63274 10.7707
4 1 1 11.5329 5.24385 11.0055
8 1 1 13.4297 5.90115 9.37395
9 1 1 13.3975 5.12091 8.77156
3 1 1 10.7355 5.032 10.4625
2 1 1 10.0675 4.58781 9.89435
1 1 1 9.96885 5.04893 9.08968
ITEM: TIMESTEP
4900
ITEM: NUMBER OF ATOMS
20
ITEM: BOX BOUNDS pp pp pp
0.0000000000000000e+00 2.0000000000000000e+01
0.0000000000000000e+00 2.0000000000000000e+01
0.0000000000000000e+00 2.0000000000000000e+01
ITEM: ATOMS id mol type x y z
20 1 1 10.4767 4.87945 7.35925
15 1 1 11.2569 7.84505 8.30208
14 1 1 12.1741 7.66667 8.02486
19 1 1 10.4474 5.35804 8.18152
16 1 1 10.5193 7.20428 8.27061
12 1 1 13.3717 7.02753 8.81993
13 1 1 12.9969 7.89399 8.42366
18 1 1 10.8742 6.16602 7.72578
17 1 1 10.6545 6.28925 8.63676
6 1 1 11.9163 5.28101 9.65216
7 1 1 12.6561 5.48858 10.1683
10 1 1 14.4292 5.93021 8.49616
11 1 1 14.0682 6.80273 8.13779
5 1 1 12.0164 4.56402 10.212
4 1 1 11.5073 5.02827 10.8582
8 1 1 13.3428 5.55574 9.42736
9 1 1 13.6701 5.32459 8.51213
3 1 1 10.627 4.6911 11.185
2 1 1 10.2192 4.40547 10.3469
1 1 1 9.62689 4.02902 9.70365
ITEM: TIMESTEP
5000
ITEM: NUMBER OF ATOMS
20
ITEM: BOX BOUNDS pp pp pp
0.0000000000000000e+00 2.0000000000000000e+01
0.0000000000000000e+00 2.0000000000000000e+01
0.0000000000000000e+00 2.0000000000000000e+01
ITEM: ATOMS id mol type x y z
20 1 1 10.6087 4.64259 7.69419
15 1 1 11.3607 7.89516 7.70134
14 1 1 12.2409 8.37675 7.66015
19 1 1 11.0623 5.52416 8.05763
16 1 1 10.5269 7.69522 8.1727
12 1 1 13.1556 7.05682 8.48902
13 1 1 12.7666 7.87692 8.30894
18 1 1 10.3955 6.22478 7.9606
17 1 1 10.7412 6.84995 8.60754
6 1 1 11.9445 5.02153 9.55335
7 1 1 12.7005 5.54661 9.65129
10 1 1 14.8411 6.37453 8.92718
11 1 1 14.0692 6.85619 8.45512
5 1 1 11.242 4.37161 9.72453
4 1 1 11.2664 4.53476 10.6679
8 1 1 13.3223 5.14504 9.03497
9 1 1 14.0897 5.7324 8.85071
3 1 1 10.6649 4.31266 11.4268
2 1 1 10.1118 4.12448 10.6409
1 1 1 9.74032 3.26885 10.8591
ITEM: TIMESTEP
5100
ITEM: NUMBER OF ATOMS
20
ITEM: BOX BOUNDS pp pp pp
0.0000000000000000e+00 2.0000000000000000e+01
0.0000000000000000e+00 2.0000000000000000e+01
0.0000000000000000e+00 2.0000000000000000e+01
ITEM: ATOMS id mol type x y z
15 1 1 11.5106 8.04618 7.25105
14 1 1 12.1822 8.71104 7.65559
20 1 1 11.0229 4.91706 8.18739
19 1 1 10.8783 5.72015 7.76039
18 1 1 10.6453 6.2514 8.53612
12 1 1 13.2801 7.34613 8.10965
16 1 1 10.8968 8.02403 7.97128
13 1 1 12.4329 7.79087 7.93007
8 1 1 13.4615 5.40236 8.9277
9 1 1 14.3039 5.63698 9.47613
17 1 1 10.5988 7.14869 8.1566
11 1 1 13.9591 7.31951 8.80333
10 1 1 14.365 6.46672 9.10763
5 1 1 11.0598 4.68186 9.57398
6 1 1 11.9921 4.74409 9.59134
7 1 1 12.602 4.90097 8.88163
2 1 1 9.94916 3.46881 11.1817
4 1 1 10.8678 3.98018 10.1925
1 1 1 10.0697 2.93203 11.9668
3 1 1 10.773 3.9419 11.1831
ITEM: TIMESTEP
5200
ITEM: NUMBER OF ATOMS
20
ITEM: BOX BOUNDS pp pp pp
0.0000000000000000e+00 2.0000000000000000e+01
0.0000000000000000e+00 2.0000000000000000e+01
0.0000000000000000e+00 2.0000000000000000e+01
ITEM: ATOMS id mol type x y z
15 1 1 11.6248 8.33341 7.04321
14 1 1 12.2272 8.6152 7.71091
20 1 1 11.4267 5.531 8.42758
19 1 1 10.5121 5.97001 8.2924
18 1 1 11.1351 6.71311 8.39898
12 1 1 13.3339 7.9877 8.05023
16 1 1 11.2002 7.81665 7.721
13 1 1 12.5577 7.64635 7.52029
8 1 1 12.9147 5.29223 9.42317
9 1 1 13.8051 5.66699 9.46991
17 1 1 10.5551 7.14745 7.73237
11 1 1 13.5595 7.42444 8.86248
10 1 1 13.4994 6.55446 9.26941
5 1 1 11.5157 4.36156 9.78761
6 1 1 12.0528 4.70476 8.99103
7 1 1 13.0068 4.50374 8.84385
2 1 1 10.5735 3.1089 11.5813
4 1 1 10.6771 3.92782 10.1066
1 1 1 10.3822 2.88296 12.5253
3 1 1 10.2914 3.24226 10.6863
ITEM: TIMESTEP
5300
ITEM: NUMBER OF ATOMS
20
ITEM: BOX BOUNDS pp pp pp
0.0000000000000000e+00 2.0000000000000000e+01
0.0000000000000000e+00 2.0000000000000000e+01
0.0000000000000000e+00 2.0000000000000000e+01
ITEM: ATOMS id mol type x y z
15 1 1 11.5929 8.55897 6.97762
14 1 1 12.2302 8.34792 7.63545
20 1 1 11.6294 6.02944 8.67547
19 1 1 10.9293 6.55803 8.98094
18 1 1 11.0455 6.93966 8.10453
12 1 1 13.261 8.20635 8.17933
16 1 1 11.4744 7.63955 7.25322
13 1 1 13.0221 7.85203 7.37918
8 1 1 12.5378 5.06503 9.85049
9 1 1 12.9759 5.77651 9.40803
17 1 1 10.6111 7.25703 7.34044
11 1 1 13.0764 7.45162 8.75047
10 1 1 12.6848 6.7723 9.35544
5 1 1 11.3415 3.38628 9.69853
6 1 1 11.8277 4.08767 9.22335
7 1 1 12.7434 4.43752 9.15952
2 1 1 11.2155 2.75186 11.252
4 1 1 11.3003 3.82602 10.505
1 1 1 10.7752 3.19116 11.9689
3 1 1 10.5767 3.29605 10.7462
ITEM: TIMESTEP
5400
ITEM: NUMBER OF ATOMS
20
ITEM: BOX BOUNDS pp pp pp
0.0000000000000000e+00 2.0000000000000000e+01
0.0000000000000000e+00 2.0000000000000000e+01
0.0000000000000000e+00 2.0000000000000000e+01
ITEM: ATOMS id mol type x y z
15 1 1 11.5478 8.47294 7.00534
14 1 1 12.3371 8.18605 7.415
20 1 1 11.291 6.3733 8.63399
19 1 1 11.5276 7.35035 8.74477
18 1 1 10.681 7.13657 8.23887
12 1 1 13.3251 7.9954 8.40063
16 1 1 11.5091 7.59551 6.5635
13 1 1 13.264 8.36287 7.36116
8 1 1 12.2939 5.03838 9.99434
9 1 1 12.1552 5.94686 9.75136
17 1 1 10.9106 7.28745 7.33289
11 1 1 12.6065 7.5358 8.79454
10 1 1 12.3156 6.90204 9.52712
5 1 1 11.4988 3.04097 9.59844
6 1 1 12.0801 3.43445 8.96177
7 1 1 12.1479 4.22348 9.4876
2 1 1 11.2081 2.45055 11.3816
4 1 1 11.6763 3.67088 10.242
1 1 1 11.4361 3.10253 12.1035
3 1 1 11.0391 3.32461 10.9056
ITEM: TIMESTEP
5500
ITEM: NUMBER OF ATOMS
20
ITEM: BOX BOUNDS pp pp pp
0.0000000000000000e+00 2.0000000000000000e+01
0.0000000000000000e+00 2.0000000000000000e+01
0.0000000000000000e+00 2.0000000000000000e+01
ITEM: ATOMS id mol type x y z
15 1 1 11.7394 8.14833 6.92649
14 1 1 12.6619 8.22003 7.20997
20 1 1 10.9832 6.53451 8.56683
19 1 1 11.2149 7.47912 8.49181
18 1 1 10.9014 8.03717 7.7801
12 1 1 12.8964 7.75628 8.29394
16 1 1 11.1174 7.61807 6.28159
13 1 1 13.2571 8.59576 7.91812
8 1 1 11.7108 5.32163 9.37554
9 1 1 11.9265 5.81542 10.1757
17 1 1 10.9888 7.34104 7.14592
11 1 1 12.5715 7.3978 9.15884
10 1 1 12.2796 6.6426 9.67704
5 1 1 12.0636 3.18564 9.61688
6 1 1 12.5832 3.72751 8.92853
7 1 1 11.7742 4.31907 9.30623
2 1 1 11.2188 2.62736 11.8877
4 1 1 11.4839 2.79613 10.2688
1 1 1 12.0569 2.61986 12.2862
3 1 1 11.4214 3.24766 11.1477
ITEM: TIMESTEP
5600
ITEM: NUMBER OF ATOMS
20
ITEM: BOX BOUNDS pp pp pp
0.0000000000000000e+00 2.0000000000000000e+01
0.0000000000000000e+00 2.0000000000000000e+01
0.0000000000000000e+00 2.0000000000000000e+01
ITEM: ATOMS id mol type x y z
15 1 1 12.2649 7.80349 6.43969
14 1 1 12.5832 8.34983 7.16793
20 1 1 10.7855 7.04092 8.4932
19 1 1 10.6224 7.87335 8.08322
18 1 1 11.4726 7.68361 7.65274
12 1 1 12.3207 7.59891 8.55982
16 1 1 11.3437 7.98606 6.3261
13 1 1 12.8098 8.36942 8.13519
8 1 1 11.2308 5.40785 9.12204
9 1 1 11.7737 5.52405 9.95196
17 1 1 10.6471 7.8486 7.10939
11 1 1 12.7067 7.07458 9.30108
10 1 1 12.1912 6.38931 9.81734
5 1 1 12.3374 3.3926 10.2812
6 1 1 12.1232 4.06981 9.61365
7 1 1 11.9273 4.77764 9.0072
2 1 1 11.9123 3.10381 11.8297
4 1 1 11.7872 2.55554 10.1787
1 1 1 12.2112 2.23041 12.1778
3 1 1 11.8001 2.3512 11.1961
ITEM: TIMESTEP
5700
ITEM: NUMBER OF ATOMS
20
ITEM: BOX BOUNDS pp pp pp
0.0000000000000000e+00 2.0000000000000000e+01
0.0000000000000000e+00 2.0000000000000000e+01
0.0000000000000000e+00 2.0000000000000000e+01
ITEM: ATOMS id mol type x y z
15 1 1 12.7231 7.86895 6.30145
14 1 1 12.3657 8.08771 7.17332
20 1 1 10.5116 7.45313 8.7211
19 1 1 10.7096 8.20046 8.08219
18 1 1 10.569 7.67018 7.2928
12 1 1 12.0293 7.47321 8.93304
16 1 1 11.9258 8.32381 6.168
13 1 1 12.1569 7.99057 8.08472
8 1 1 11.3539 5.11287 9.05083
9 1 1 11.3183 5.7437 9.81664
17 1 1 11.1031 8.1995 6.75722
11 1 1 12.5429 6.78756 9.31664
10 1 1 12.1485 6.12042 9.85945
5 1 1 11.9815 3.63641 10.2322
6 1 1 11.7299 4.55566 10.1572
7 1 1 12.067 4.46953 9.24921
2 1 1 12.8018 2.24986 11.5011
4 1 1 12.384 2.83709 10.4544
1 1 1 12.4492 2.45075 12.3518
3 1 1 11.9799 2.1996 10.9407
ITEM: TIMESTEP
5800
ITEM: NUMBER OF ATOMS
20
ITEM: BOX BOUNDS pp pp pp
0.0000000000000000e+00 2.0000000000000000e+01
0.0000000000000000e+00 2.0000000000000000e+01
0.0000000000000000e+00 2.0000000000000000e+01
ITEM: ATOMS id mol type x y z
15 1 1 12.6221 8.18855 6.71117
14 1 1 12.4345 7.6305 7.43179
20 1 1 10.366 8.16275 8.506
19 1 1 10.4848 7.89012 7.59112
18 1 1 10.7087 8.6511 7.04203
12 1 1 11.8744 7.41655 8.97812
16 1 1 11.9532 8.43131 6.07843
13 1 1 11.6739 7.473 8.03629
8 1 1 11.4718 5.1288 9.07958
9 1 1 11.0823 5.95731 9.29368
17 1 1 11.3256 8.03412 6.73309
11 1 1 12.3375 6.62772 9.31543
10 1 1 11.7888 6.07087 9.88558
5 1 1 11.726 3.53465 10.5268
6 1 1 11.7851 4.4546 10.5491
7 1 1 11.8684 4.44134 9.57392
2 1 1 12.7067 1.64916 11.6203
4 1 1 12.4723 2.94815 10.5951
1 1 1 13.0427 2.50967 11.9688
3 1 1 13.1262 2.23073 10.9277
ITEM: TIMESTEP
5900
ITEM: NUMBER OF ATOMS
20
ITEM: BOX BOUNDS pp pp pp
0.0000000000000000e+00 2.0000000000000000e+01
0.0000000000000000e+00 2.0000000000000000e+01
0.0000000000000000e+00 2.0000000000000000e+01
ITEM: ATOMS id mol type x y z
15 1 1 12.1828 8.28556 7.37444
14 1 1 12.3132 7.41347 7.54777
20 1 1 10.1157 8.77095 7.85745
19 1 1 10.3385 8.65773 6.93272
18 1 1 11.253 8.72137 7.21877
12 1 1 11.7511 7.30347 8.80514
16 1 1 12.0468 8.38112 6.38476
13 1 1 11.5217 6.96833 7.91316
8 1 1 11.4093 4.8941 9.2116
9 1 1 11.4442 5.84643 9.00747
17 1 1 11.3257 7.8835 6.71036
11 1 1 12.0999 6.61047 9.34419
10 1 1 11.2257 6.41953 9.68896
5 1 1 11.9427 3.30474 11.0598
6 1 1 11.794 3.97771 10.2493
7 1 1 11.3924 4.92654 10.1374
2 1 1 13.3872 1.70828 11.515
4 1 1 12.5875 2.9734 10.4018
1 1 1 13.5279 2.14697 12.3427
3 1 1 13.1916 2.23733 10.7411
ITEM: TIMESTEP
6000
ITEM: NUMBER OF ATOMS
20
ITEM: BOX BOUNDS pp pp pp
0.0000000000000000e+00 2.0000000000000000e+01
0.0000000000000000e+00 2.0000000000000000e+01
0.0000000000000000e+00 2.0000000000000000e+01
ITEM: ATOMS id mol type x y z
17 1 1 11.3688 7.97697 6.7899
18 1 1 10.9299 8.81515 6.67151
19 1 1 10.4122 9.63467 6.8645
14 1 1 12.205 7.22299 7.46074
16 1 1 12.2578 8.26796 7.02357
20 1 1 9.57276 9.26167 7.1575
13 1 1 11.5141 6.63496 7.8463
15 1 1 12.4658 7.96735 7.8814
9 1 1 11.5229 5.47566 9.08925
10 1 1 11.0111 6.35866 9.01179
12 1 1 11.6992 7.21026 8.63548
8 1 1 11.4647 4.82747 9.9213
11 1 1 11.655 6.84495 9.51376
4 1 1 12.924 2.82351 10.6478
6 1 1 11.51 3.73336 10.1584
5 1 1 12.5011 3.61851 10.3658
7 1 1 11.2468 4.446 10.7611
3 1 1 12.844 2.35924 11.4468
2 1 1 13.7939 2.37216 11.3088
1 1 1 13.9518 1.57949 11.8883
ITEM: TIMESTEP
6100
ITEM: NUMBER OF ATOMS
20
ITEM: BOX BOUNDS pp pp pp
0.0000000000000000e+00 2.0000000000000000e+01
0.0000000000000000e+00 2.0000000000000000e+01
0.0000000000000000e+00 2.0000000000000000e+01
ITEM: ATOMS id mol type x y z
17 1 1 11.4686 8.82119 6.93721
18 1 1 10.6464 8.87362 6.48503
19 1 1 10.4128 9.66321 6.91792
14 1 1 12.192 7.01918 7.3942
16 1 1 11.9281 8.23563 7.59657
20 1 1 9.67166 9.90983 6.24257
13 1 1 11.5526 6.46449 7.92677
15 1 1 12.6221 7.6118 7.96691
9 1 1 11.2499 5.37087 9.69576
10 1 1 11.2276 5.86864 8.81523
12 1 1 11.7296 7.08418 8.67796
8 1 1 11.4812 4.84967 10.4722
11 1 1 10.9018 6.81478 8.97452
4 1 1 12.7176 3.27047 11.0012
6 1 1 12.0154 3.69381 10.3045
5 1 1 12.7252 3.0158 10.0542
7 1 1 11.2869 3.93402 10.8757
3 1 1 12.959 2.68885 11.7232
2 1 1 13.8965 2.33249 11.6206
1 1 1 14.1659 1.90847 10.7617
ITEM: TIMESTEP
6200
ITEM: NUMBER OF ATOMS
20
ITEM: BOX BOUNDS pp pp pp
0.0000000000000000e+00 2.0000000000000000e+01
0.0000000000000000e+00 2.0000000000000000e+01
0.0000000000000000e+00 2.0000000000000000e+01
ITEM: ATOMS id mol type x y z
17 1 1 11.6805 9.19818 7.47927
18 1 1 10.8614 9.09235 6.83535
19 1 1 10.1341 9.54295 6.4132
14 1 1 12.2205 6.87957 7.20905
16 1 1 11.3987 8.28458 7.77281
20 1 1 10.2832 10.2765 5.83751
13 1 1 11.8215 6.42865 8.0495
15 1 1 12.1845 7.78937 7.50589
9 1 1 11.1615 5.40751 10.1676
10 1 1 11.1118 5.79327 9.28088
12 1 1 11.2674 6.79659 8.74588
8 1 1 11.2299 4.6805 10.757
11 1 1 10.7006 6.11233 8.39787
4 1 1 13.1783 3.23311 11.2331
6 1 1 12.2131 3.53292 9.86527
5 1 1 12.3485 3.13487 10.7403
7 1 1 11.5569 3.77323 10.5731
3 1 1 13.6385 2.73042 11.8649
2 1 1 13.7919 2.00479 11.1629
1 1 1 14.0682 2.73931 10.5526
ITEM: TIMESTEP
6300
ITEM: NUMBER OF ATOMS
20
ITEM: BOX BOUNDS pp pp pp
0.0000000000000000e+00 2.0000000000000000e+01
0.0000000000000000e+00 2.0000000000000000e+01
0.0000000000000000e+00 2.0000000000000000e+01
ITEM: ATOMS id mol type x y z
17 1 1 11.2931 9.23865 7.63681
18 1 1 10.7771 9.79544 7.01227
19 1 1 10.7433 9.33125 6.17078
14 1 1 12.1304 7.06502 7.32186
16 1 1 11.1739 8.35161 7.75077
20 1 1 10.8625 10.2551 5.80782
13 1 1 11.9181 6.79043 8.21105
15 1 1 11.5318 7.7755 7.11891
9 1 1 11.018 5.31329 10.3624
10 1 1 10.6132 5.34903 9.53826
12 1 1 11.031 6.32542 7.99656
8 1 1 11.095 4.40489 10.8078
11 1 1 10.9889 5.8231 8.81336
4 1 1 13.4148 3.04168 11.6897
6 1 1 11.9792 3.31478 10.4377
5 1 1 12.6617 3.10659 11.0943
7 1 1 11.5745 4.0739 9.99283
3 1 1 14.229 2.48264 11.5355
2 1 1 13.7031 2.42867 10.7751
1 1 1 14.1124 3.16402 10.3702
ITEM: TIMESTEP
6400
ITEM: NUMBER OF ATOMS
20
ITEM: BOX BOUNDS pp pp pp
0.0000000000000000e+00 2.0000000000000000e+01
0.0000000000000000e+00 2.0000000000000000e+01
0.0000000000000000e+00 2.0000000000000000e+01
ITEM: ATOMS id mol type x y z
17 1 1 10.5889 9.36478 7.57509
18 1 1 10.8289 10.0307 6.84332
19 1 1 11.5104 9.46117 6.5277
14 1 1 11.7694 7.26789 7.59168
16 1 1 11.0767 8.52225 7.3816
20 1 1 11.4019 10.1343 5.83561
13 1 1 11.1161 6.55771 7.86741
15 1 1 10.9385 7.53585 7.19477
9 1 1 10.6915 4.99759 10.4443
10 1 1 10.5925 5.29192 9.46536
12 1 1 11.7188 5.8817 8.25405
8 1 1 11.1985 4.17448 10.3291
11 1 1 11.1035 5.96889 8.97338
4 1 1 13.3725 2.63447 11.7061
6 1 1 11.9944 3.72305 11.236
5 1 1 12.8436 3.27199 11.2185
7 1 1 11.987 3.61877 10.3206
3 1 1 14.2054 2.57694 11.2049
2 1 1 13.6525 2.89308 10.4503
1 1 1 14.2599 3.52339 10.0242
ITEM: TIMESTEP
6500
ITEM: NUMBER OF ATOMS
20
ITEM: BOX BOUNDS pp pp pp
0.0000000000000000e+00 2.0000000000000000e+01
0.0000000000000000e+00 2.0000000000000000e+01
0.0000000000000000e+00 2.0000000000000000e+01
ITEM: ATOMS id mol type x y z
17 1 1 10.2367 9.26703 7.04812
18 1 1 11.0386 9.79181 6.87101
19 1 1 11.9876 9.85155 6.93858
14 1 1 10.7269 6.88915 7.92106
16 1 1 10.6585 8.46043 6.88813
20 1 1 11.9668 9.92905 6.01129
13 1 1 11.3224 6.22875 7.63043
15 1 1 10.5218 7.75667 7.63472
9 1 1 10.7301 4.36665 9.9298
10 1 1 10.7965 5.27129 9.70667
12 1 1 11.828 6.40703 8.45201
8 1 1 11.562 3.94932 10.0769
11 1 1 11.1731 5.85966 9.0159
4 1 1 13.2375 2.45009 11.3479
6 1 1 12.3084 4.02061 11.676
5 1 1 12.9494 3.34267 11.5014
7 1 1 11.7663 3.64292 10.9722
3 1 1 14.016 2.75224 10.8433
2 1 1 13.6405 3.37016 10.2509
1 1 1 14.384 3.82393 9.72778
ITEM: TIMESTEP
6600
ITEM: NUMBER OF ATOMS
20
ITEM: BOX BOUNDS pp pp pp
0.0000000000000000e+00 2.0000000000000000e+01
0.0000000000000000e+00 2.0000000000000000e+01
0.0000000000000000e+00 2.0000000000000000e+01
ITEM: ATOMS id mol type x y z
17 1 1 10.6141 8.81467 6.54285
18 1 1 11.3406 9.30459 7.00985
19 1 1 11.816 10.1323 7.04171
14 1 1 10.3679 6.83587 7.42756
16 1 1 9.90782 8.2845 6.91261
20 1 1 12.549 9.71793 6.4904
13 1 1 10.8079 6.89191 8.27991
15 1 1 10.3336 7.71386 7.72199
9 1 1 11.6364 4.06235 9.42251
10 1 1 11.1568 4.86386 9.7578
12 1 1 11.4795 6.40769 8.66591
8 1 1 11.4586 3.80202 10.3498
11 1 1 11.3509 5.63779 9.15775
4 1 1 13.0317 2.6473 10.9555
6 1 1 12.4501 4.0182 11.6913
5 1 1 13.048 3.18969 11.7523
7 1 1 11.6049 4.1727 11.2835
3 1 1 13.7983 3.00552 10.4157
2 1 1 13.6589 3.88555 10.0494
1 1 1 14.4398 4.04266 9.51572
ITEM: TIMESTEP
6700
ITEM: NUMBER OF ATOMS
20
ITEM: BOX BOUNDS pp pp pp
0.0000000000000000e+00 2.0000000000000000e+01
0.0000000000000000e+00 2.0000000000000000e+01
0.0000000000000000e+00 2.0000000000000000e+01
ITEM: ATOMS id mol type x y z
17 1 1 10.8733 7.95448 6.85202
18 1 1 11.3441 8.75039 6.85743
19 1 1 11.8386 9.61717 6.74541
14 1 1 10.3901 7.7066 8.05263
16 1 1 10.1087 8.60291 6.68346
20 1 1 12.52 9.77196 7.37662
13 1 1 10.3439 6.79508 8.4442
15 1 1 9.8841 7.81325 7.18931
9 1 1 12.2322 3.97392 10.0367
10 1 1 11.9806 4.55734 9.29838
12 1 1 10.8011 6.08195 8.94918
8 1 1 11.4354 3.89004 10.4926
11 1 1 11.4328 5.41477 9.24206
4 1 1 12.8995 3.1927 10.7702
6 1 1 12.3611 3.78399 11.4407
5 1 1 12.9759 3.05357 11.6767
7 1 1 11.8403 4.49051 11.165
3 1 1 13.4379 3.41879 9.95286
2 1 1 13.6803 4.34779 9.87175
1 1 1 14.471 4.21379 9.34679
ITEM: TIMESTEP
6800
ITEM: NUMBER OF ATOMS
20
ITEM: BOX BOUNDS pp pp pp
0.0000000000000000e+00 2.0000000000000000e+01
0.0000000000000000e+00 2.0000000000000000e+01
0.0000000000000000e+00 2.0000000000000000e+01
ITEM: ATOMS id mol type x y z
17 1 1 11.3794 7.53644 6.9218
18 1 1 11.7215 8.40106 6.66852
19 1 1 12.3785 8.98837 7.12126
14 1 1 9.73824 6.80552 8.42477
16 1 1 10.5366 7.77338 7.18353
20 1 1 11.7433 9.59695 7.61355
13 1 1 10.6621 6.92696 8.71751
15 1 1 10.0109 7.65764 8.03853
9 1 1 11.829 4.84847 9.92719
10 1 1 11.867 5.58242 9.31693
12 1 1 10.7552 6.00393 8.56374
8 1 1 11.7512 4.04919 10.4501
11 1 1 11.1877 5.16378 8.78367
4 1 1 13.1027 3.49914 10.3984
6 1 1 12.0603 3.7765 11.5745
5 1 1 12.7277 3.14566 11.2176
7 1 1 12.1909 4.61052 11.1101
3 1 1 13.1242 3.987 9.49603
2 1 1 13.6772 4.76097 9.7022
1 1 1 14.4073 4.31709 9.21402
ITEM: TIMESTEP
6900
ITEM: NUMBER OF ATOMS
20
ITEM: BOX BOUNDS pp pp pp
0.0000000000000000e+00 2.0000000000000000e+01
0.0000000000000000e+00 2.0000000000000000e+01
0.0000000000000000e+00 2.0000000000000000e+01
ITEM: ATOMS id mol type x y z
17 1 1 11.1788 7.83315 7.36561
18 1 1 12.2306 7.79219 7.05598
19 1 1 12.1206 8.50549 7.70189
14 1 1 9.90111 6.3645 8.15121
16 1 1 11.1282 7.10277 7.982
20 1 1 11.3687 8.86879 7.30916
13 1 1 10.3995 6.55912 9.00761
15 1 1 10.2073 7.31578 8.13415
9 1 1 11.2876 5.24913 10.0331
10 1 1 11.5127 5.94616 9.43347
12 1 1 11.021 6.08142 8.42413
8 1 1 12.2293 5.00196 10.0707
11 1 1 11.4004 5.2405 8.69723
4 1 1 13.1249 3.78671 10.0463
6 1 1 12.2191 3.75563 11.4537
5 1 1 12.3492 3.48252 10.5439
7 1 1 12.3496 4.58359 10.9847
3 1 1 12.9859 4.44756 9.43731
2 1 1 13.651 5.1219 9.47813
1 1 1 14.1855 4.39213 9.13375
ITEM: TIMESTEP
7000
ITEM: NUMBER OF ATOMS
20
ITEM: BOX BOUNDS pp pp pp
0.0000000000000000e+00 2.0000000000000000e+01
0.0000000000000000e+00 2.0000000000000000e+01
0.0000000000000000e+00 2.0000000000000000e+01
ITEM: ATOMS id mol type x y z
17 1 1 11.3167 7.31473 7.40427
18 1 1 12.1972 7.4179 7.83608
19 1 1 11.6937 8.29883 7.70167
14 1 1 9.69246 6.27637 7.78318
16 1 1 11.052 7.4259 8.33349
20 1 1 11.7481 9.2144 7.28499
13 1 1 9.90082 6.12926 8.71555
15 1 1 10.5199 6.72895 7.97101
9 1 1 11.7979 5.30393 10.2047
10 1 1 11.751 6.05351 9.59076
12 1 1 10.6221 5.48086 8.68128
8 1 1 12.5293 5.67313 10.7247
11 1 1 11.6174 5.27968 8.97489
4 1 1 12.904 3.96091 9.72624
6 1 1 12.5138 3.86555 10.7932
5 1 1 12.1499 3.39313 10.025
7 1 1 12.3284 4.77383 10.975
3 1 1 12.9349 4.85143 9.44139
2 1 1 13.6622 5.46612 9.19246
1 1 1 13.9193 4.52257 9.08413
ITEM: TIMESTEP
7100
ITEM: NUMBER OF ATOMS
20
ITEM: BOX BOUNDS pp pp pp
0.0000000000000000e+00 2.0000000000000000e+01
0.0000000000000000e+00 2.0000000000000000e+01
0.0000000000000000e+00 2.0000000000000000e+01
ITEM: ATOMS id mol type x y z
17 1 1 11.4948 6.9955 8.11662
19 1 1 12.0907 8.55789 7.67654
20 1 1 12.2066 9.4614 7.4981
14 1 1 9.65351 5.92119 8.22764
15 1 1 10.4577 6.29451 7.8621
16 1 1 10.8325 7.07493 7.45249
18 1 1 12.1029 7.65721 8.07621
1 1 1 13.8537 4.65753 8.97795
13 1 1 9.60432 4.92074 8.36458
12 1 1 10.3153 5.314 8.8786
11 1 1 10.9285 5.94274 9.24559
2 1 1 13.4908 5.55141 8.97104
5 1 1 12.5909 3.935 9.76795
4 1 1 12.5816 4.29809 8.83029
3 1 1 12.8609 4.94608 9.4716
10 1 1 11.8189 5.93734 9.53849
9 1 1 12.4481 5.84606 10.2746
6 1 1 12.322 4.00869 10.6664
7 1 1 12.7274 4.59247 11.3275
8 1 1 12.4697 5.51822 11.2197
ITEM: TIMESTEP
7200
ITEM: NUMBER OF ATOMS
20
ITEM: BOX BOUNDS pp pp pp
0.0000000000000000e+00 2.0000000000000000e+01
0.0000000000000000e+00 2.0000000000000000e+01
0.0000000000000000e+00 2.0000000000000000e+01
ITEM: ATOMS id mol type x y z
17 1 1 11.1595 7.11952 7.72803
19 1 1 12.4219 8.53571 7.95538
20 1 1 12.5859 9.45558 7.70183
14 1 1 9.65142 5.34456 7.90633
15 1 1 10.2361 6.08368 7.71241
16 1 1 11.1541 6.22735 7.98202
18 1 1 11.6253 7.94095 8.00814
1 1 1 13.7898 4.83151 8.86429
13 1 1 10.3816 5.28017 8.51963
12 1 1 10.2472 5.14125 9.48968
11 1 1 10.9534 5.83709 9.55994
2 1 1 13.493 5.73047 8.59749
5 1 1 12.6852 3.79699 9.48159
4 1 1 12.4138 4.66139 9.09985
3 1 1 12.7096 5.56293 9.13915
10 1 1 11.4916 5.40951 10.2989
9 1 1 12.1121 6.20262 10.351
6 1 1 12.4355 4.24331 10.2839
7 1 1 12.745 4.60147 11.1538
8 1 1 12.559 5.42493 10.6107
ITEM: TIMESTEP
7300
ITEM: NUMBER OF ATOMS
20
ITEM: BOX BOUNDS pp pp pp
0.0000000000000000e+00 2.0000000000000000e+01
0.0000000000000000e+00 2.0000000000000000e+01
0.0000000000000000e+00 2.0000000000000000e+01
ITEM: ATOMS id mol type x y z
17 1 1 11.5607 6.92554 7.72926
19 1 1 11.8355 8.27121 8.16148
20 1 1 12.7837 8.6731 8.10427
14 1 1 10.7462 5.11666 8.19811
15 1 1 10.7474 5.98213 7.78756
16 1 1 10.6827 6.88485 8.18131
18 1 1 11.3139 7.7865 7.43265
1 1 1 13.7464 5.04212 8.72363
13 1 1 10.2075 5.65581 8.77698
12 1 1 10.2826 4.92691 9.39734
11 1 1 10.9139 5.37553 9.96737
2 1 1 13.3738 5.8345 8.33332
5 1 1 12.4713 4.2607 9.08679
4 1 1 12.7255 5.1028 9.47368
3 1 1 12.471 5.59572 8.71502
10 1 1 11.218 5.39029 10.9132
9 1 1 11.8223 6.00521 10.5317
6 1 1 12.681 3.98098 10.0547
7 1 1 12.5036 4.83246 10.4263
8 1 1 12.7641 5.78798 10.4492
ITEM: TIMESTEP
7400
ITEM: NUMBER OF ATOMS
20
ITEM: BOX BOUNDS pp pp pp
0.0000000000000000e+00 2.0000000000000000e+01
0.0000000000000000e+00 2.0000000000000000e+01
0.0000000000000000e+00 2.0000000000000000e+01
ITEM: ATOMS id mol type x y z
17 1 1 11.4769 7.0834 7.93795
19 1 1 11.8445 8.28646 7.86112
20 1 1 12.1621 7.63505 8.56478
14 1 1 11.2897 5.65843 9.09154
15 1 1 11.0544 6.19938 8.33282
16 1 1 10.654 6.78845 7.70791
18 1 1 11.5063 7.65376 7.18646
1 1 1 13.9765 5.26742 8.2867
13 1 1 10.5682 5.25263 8.61943
12 1 1 10.5405 4.91032 9.5204
11 1 1 10.7112 4.80029 10.4307
2 1 1 13.2415 5.85086 8.02884
5 1 1 12.2825 4.91916 9.21967
4 1 1 12.8789 5.77121 9.09889
3 1 1 12.3764 5.52655 8.31708
10 1 1 10.9501 5.34418 11.165
9 1 1 11.7297 5.67334 10.7435
6 1 1 12.8137 4.33929 9.74377
7 1 1 12.189 4.82401 10.2809
8 1 1 12.605 5.64683 10.3066
ITEM: TIMESTEP
7500
ITEM: NUMBER OF ATOMS
20
ITEM: BOX BOUNDS pp pp pp
0.0000000000000000e+00 2.0000000000000000e+01
0.0000000000000000e+00 2.0000000000000000e+01
0.0000000000000000e+00 2.0000000000000000e+01
ITEM: ATOMS id mol type x y z
17 1 1 11.1114 7.01625 7.03112
19 1 1 12.3587 8.03045 8.12098
20 1 1 11.483 8.06052 8.49382
14 1 1 11.1128 5.84567 9.44292
15 1 1 10.7869 6.25765 8.64665
16 1 1 10.9259 6.33075 7.67691
18 1 1 11.8567 7.32214 7.69517
1 1 1 14.2948 5.60363 7.58678
13 1 1 11.2892 4.94804 9.08437
12 1 1 10.8029 4.77843 9.90658
11 1 1 10.3979 4.3552 10.7537
2 1 1 13.366 5.79514 7.42302
5 1 1 12.4301 5.51711 9.25633
4 1 1 12.4572 6.41149 8.72058
3 1 1 12.6143 5.78715 7.99371
10 1 1 10.7037 5.16801 11.1397
9 1 1 11.6045 5.57749 11.0731
6 1 1 12.842 4.73273 9.68057
7 1 1 12.1831 4.44828 10.3335
8 1 1 12.2302 5.44487 10.3845
ITEM: TIMESTEP
7600
ITEM: NUMBER OF ATOMS
20
ITEM: BOX BOUNDS pp pp pp
0.0000000000000000e+00 2.0000000000000000e+01
0.0000000000000000e+00 2.0000000000000000e+01
0.0000000000000000e+00 2.0000000000000000e+01
ITEM: ATOMS id mol type x y z
17 1 1 11.4452 6.46892 7.71782
19 1 1 12.217 7.92727 8.6311
20 1 1 11.7276 8.55416 8.09094
14 1 1 10.9109 5.71387 9.1203
15 1 1 10.5952 6.11575 8.29433
16 1 1 10.6877 5.85056 7.35466
18 1 1 11.798 7.34539 7.97397
1 1 1 14.3988 5.97632 6.82796
13 1 1 11.1533 4.97451 9.65281
12 1 1 10.9225 4.33521 10.3279
11 1 1 10.2387 4.12959 10.9461
2 1 1 13.4749 5.72334 7.07877
5 1 1 13.0921 6.0116 9.03089
4 1 1 12.3784 6.30083 8.47224
3 1 1 13.0727 6.28136 7.78107
10 1 1 10.4719 5.00661 11.2082
9 1 1 11.3224 5.41099 11.4444
6 1 1 12.5275 5.58109 9.56171
7 1 1 12.4983 4.79435 10.082
8 1 1 11.9182 4.92929 10.8468
ITEM: TIMESTEP
7700
ITEM: NUMBER OF ATOMS
20
ITEM: BOX BOUNDS pp pp pp
0.0000000000000000e+00 2.0000000000000000e+01
0.0000000000000000e+00 2.0000000000000000e+01
0.0000000000000000e+00 2.0000000000000000e+01
ITEM: ATOMS id mol type x y z
17 1 1 11.4876 6.17611 7.62886
19 1 1 11.5547 7.93148 8.28677
20 1 1 12.2665 8.53249 8.01772
14 1 1 10.5503 5.10231 9.0135
15 1 1 10.3941 5.44477 8.15275
16 1 1 10.739 6.31771 8.27267
18 1 1 11.5885 7.01964 8.07759
1 1 1 14.156 6.25482 6.12873
13 1 1 10.672 5.11769 9.92262
12 1 1 10.958 4.26883 10.3476
11 1 1 10.3278 4.04841 10.9821
2 1 1 13.7483 5.95203 6.94566
5 1 1 13.4215 6.20698 9.24258
4 1 1 13.3071 5.97939 8.32516
3 1 1 13.4254 6.61056 7.6069
10 1 1 10.3914 4.89455 11.4534
9 1 1 11.3642 4.80933 11.2516
6 1 1 12.5506 6.10282 9.72639
7 1 1 11.9166 5.7952 10.4654
8 1 1 12.0314 4.86589 10.596
ITEM: TIMESTEP
7800
ITEM: NUMBER OF ATOMS
20
ITEM: BOX BOUNDS pp pp pp
0.0000000000000000e+00 2.0000000000000000e+01
0.0000000000000000e+00 2.0000000000000000e+01
0.0000000000000000e+00 2.0000000000000000e+01
ITEM: ATOMS id mol type x y z
17 1 1 10.5452 6.46807 8.17545
19 1 1 11.5511 7.81035 7.51049
20 1 1 12.1613 7.89699 8.21669
14 1 1 10.083 4.74525 8.8399
15 1 1 10.8722 5.10365 8.3954
16 1 1 10.9467 5.92972 8.87373
18 1 1 11.3526 7.07614 8.11218
1 1 1 13.7977 6.41124 5.93041
13 1 1 10.0719 4.99748 9.70958
12 1 1 10.6159 4.22968 9.88507
11 1 1 10.5463 4.09382 10.849
2 1 1 13.9649 6.49266 6.89879
5 1 1 13.1734 5.99407 9.08714
4 1 1 13.9555 6.50563 8.71195
3 1 1 14.0457 6.1534 7.8123
10 1 1 10.9824 4.65883 11.5326
9 1 1 11.7397 4.67674 10.9553
6 1 1 12.8628 6.17894 10.0528
7 1 1 11.9098 6.45057 10.2795
8 1 1 11.6729 5.55777 10.6157
ITEM: TIMESTEP
7900
ITEM: NUMBER OF ATOMS
20
ITEM: BOX BOUNDS pp pp pp
0.0000000000000000e+00 2.0000000000000000e+01
0.0000000000000000e+00 2.0000000000000000e+01
0.0000000000000000e+00 2.0000000000000000e+01
ITEM: ATOMS id mol type x y z
17 1 1 10.9103 6.78793 8.86989
19 1 1 11.382 7.04738 7.49225
20 1 1 11.83 7.17244 8.336
14 1 1 10.0708 4.7224 8.57859
15 1 1 10.9092 4.93833 8.9856
16 1 1 10.7734 5.85712 8.69937
18 1 1 10.5836 7.09074 7.9757
1 1 1 13.4933 6.505 6.59694
13 1 1 9.52224 4.69503 9.34611
12 1 1 10.188 4.18397 9.91277
11 1 1 10.9937 4.38119 10.3949
2 1 1 14.2699 6.85981 7.07971
5 1 1 13.5553 5.94013 9.11861
4 1 1 13.8525 6.53577 8.45084
3 1 1 14.6579 6.35173 7.87128
10 1 1 11.7204 4.35643 10.988
9 1 1 11.8375 5.30047 10.6984
6 1 1 12.857 6.24025 9.78729
7 1 1 12.1364 6.37078 10.4004
8 1 1 11.3075 6.09411 10.8614
ITEM: TIMESTEP
8000
ITEM: NUMBER OF ATOMS
20
ITEM: BOX BOUNDS pp pp pp
0.0000000000000000e+00 2.0000000000000000e+01
0.0000000000000000e+00 2.0000000000000000e+01
0.0000000000000000e+00 2.0000000000000000e+01
ITEM: ATOMS id mol type x y z
17 1 1 10.7741 6.49868 9.10401
19 1 1 11.0858 6.41277 8.07845
20 1 1 11.9518 6.61948 7.65493
14 1 1 10.2112 4.76133 8.69037
15 1 1 10.4925 5.38051 9.41144
16 1 1 10.3594 5.82756 8.61141
18 1 1 10.307 6.81529 8.35624
1 1 1 13.6303 6.72185 6.85548
13 1 1 9.79407 4.10281 9.30025
12 1 1 10.1296 4.59893 9.98385
11 1 1 11.0832 4.47203 9.84062
2 1 1 14.5155 6.69636 7.22538
5 1 1 13.7527 6.31196 9.20377
4 1 1 14.3921 6.24632 8.45844
3 1 1 14.1922 7.06694 8.03168
10 1 1 11.925 4.94389 9.87881
9 1 1 11.5111 5.23366 10.727
6 1 1 12.9179 6.1025 9.68498
7 1 1 12.3295 6.40357 10.4794
8 1 1 11.496 6.21458 10.8675
ITEM: TIMESTEP
8100
ITEM: NUMBER OF ATOMS
20
ITEM: BOX BOUNDS pp pp pp
0.0000000000000000e+00 2.0000000000000000e+01
0.0000000000000000e+00 2.0000000000000000e+01
0.0000000000000000e+00 2.0000000000000000e+01
ITEM: ATOMS id mol type x y z
1 1 1 14.0561 6.75833 6.84648
20 1 1 11.4033 6.04438 7.19252
2 1 1 13.7573 6.97889 7.73803
18 1 1 10.6864 7.12151 8.14748
19 1 1 11.4883 6.68863 7.96587
3 1 1 14.5997 7.15406 8.13836
14 1 1 10.1311 4.44376 9.00603
16 1 1 9.79275 5.82572 9.02319
17 1 1 10.3823 6.63644 8.97024
5 1 1 13.609 6.69221 9.14819
4 1 1 14.4655 6.42189 8.78241
13 1 1 10.2953 3.57771 9.44183
11 1 1 11.134 4.58231 9.56355
10 1 1 11.0796 5.52973 9.56811
15 1 1 9.963 5.17462 9.71417
6 1 1 13.3645 5.98641 9.70651
12 1 1 10.4501 4.23362 10.1438
9 1 1 11.5821 5.23428 10.3536
7 1 1 12.6669 6.33639 10.2251
8 1 1 11.9439 6.01011 10.7685
ITEM: TIMESTEP
8200
ITEM: NUMBER OF ATOMS
20
ITEM: BOX BOUNDS pp pp pp
0.0000000000000000e+00 2.0000000000000000e+01
0.0000000000000000e+00 2.0000000000000000e+01
0.0000000000000000e+00 2.0000000000000000e+01
ITEM: ATOMS id mol type x y z
1 1 1 13.8349 6.91876 6.91875
20 1 1 10.7898 6.03588 7.47132
2 1 1 14.2692 7.3395 7.70453
18 1 1 10.8885 6.66364 8.30532
19 1 1 11.4042 6.71212 7.47887
3 1 1 14.7309 6.77602 8.35792
14 1 1 9.67897 4.23081 9.61432
16 1 1 9.97396 5.91241 9.38076
17 1 1 10.0342 6.3773 8.58724
5 1 1 13.5272 6.74124 9.33168
4 1 1 14.2919 7.24215 9.03542
13 1 1 10.4513 3.71866 9.31637
11 1 1 10.9652 4.65469 9.26344
10 1 1 10.8637 5.09316 10.1293
15 1 1 9.55183 5.09551 9.08088
6 1 1 13.8168 5.86325 9.68104
12 1 1 11.1264 3.95995 9.93652
9 1 1 11.4544 5.86441 10.0576
7 1 1 12.9824 6.21849 10.1056
8 1 1 12.2152 6.01303 10.687
ITEM: TIMESTEP
8300
ITEM: NUMBER OF ATOMS
20
ITEM: BOX BOUNDS pp pp pp
0.0000000000000000e+00 2.0000000000000000e+01
0.0000000000000000e+00 2.0000000000000000e+01
0.0000000000000000e+00 2.0000000000000000e+01
ITEM: ATOMS id mol type x y z
1 1 1 14.0472 7.47071 7.53854
20 1 1 10.1872 5.83137 7.29856
2 1 1 14.6449 6.67283 7.59614
18 1 1 11.0689 6.19442 8.4723
19 1 1 10.7128 6.65551 7.6967
3 1 1 14.4575 7.22519 8.36758
14 1 1 9.57299 4.70673 9.88619
16 1 1 10.1348 5.51238 9.15413
17 1 1 10.1445 6.03211 8.3382
5 1 1 13.9817 6.89632 9.32273
4 1 1 13.9976 7.81312 8.97647
13 1 1 10.2729 4.11428 9.60487
11 1 1 11.0788 4.88993 9.61728
10 1 1 11.5268 5.09019 10.4185
15 1 1 9.73816 4.67879 8.93577
6 1 1 13.8813 5.9409 9.72826
12 1 1 11.0448 4.09745 9.07023
9 1 1 11.186 5.9562 10.1886
7 1 1 13.0446 5.76562 10.2378
8 1 1 12.1276 5.88693 9.99519
ITEM: TIMESTEP
8400
ITEM: NUMBER OF ATOMS
20
ITEM: BOX BOUNDS pp pp pp
0.0000000000000000e+00 2.0000000000000000e+01
0.0000000000000000e+00 2.0000000000000000e+01
0.0000000000000000e+00 2.0000000000000000e+01
ITEM: ATOMS id mol type x y z
1 1 1 14.4164 7.46507 7.07321
20 1 1 10.0678 6.09314 6.86378
2 1 1 14.1364 7.30405 7.98849
18 1 1 10.4187 6.01567 7.90567
19 1 1 10.7248 6.63698 7.26889
3 1 1 14.8973 7.46669 8.52609
14 1 1 9.49898 4.12102 9.9139
16 1 1 10.1926 5.58745 9.50991
17 1 1 9.86056 5.64778 8.58946
5 1 1 14.1361 6.98359 9.82853
4 1 1 14.0455 7.45508 8.98402
13 1 1 10.4313 4.1748 9.94055
11 1 1 11.5863 4.68776 9.63831
10 1 1 11.9316 4.94982 10.4758
15 1 1 9.53595 4.93491 9.26925
6 1 1 13.3629 6.36751 9.941
12 1 1 10.8894 4.2318 9.10314
9 1 1 11.678 5.91347 10.2526
7 1 1 12.8631 5.49723 9.93747
8 1 1 12.1773 5.89716 9.43395
ITEM: TIMESTEP
8500
ITEM: NUMBER OF ATOMS
20
ITEM: BOX BOUNDS pp pp pp
0.0000000000000000e+00 2.0000000000000000e+01
0.0000000000000000e+00 2.0000000000000000e+01
0.0000000000000000e+00 2.0000000000000000e+01
ITEM: ATOMS id mol type x y z
1 1 1 14.6717 7.3058 7.05964
20 1 1 10.0856 6.50847 6.20317
2 1 1 14.4442 7.91475 7.74579
18 1 1 9.71745 6.03189 7.83616
19 1 1 10.3335 6.10443 7.05579
3 1 1 14.1502 7.59902 8.63583
14 1 1 9.56822 4.06359 9.73764
16 1 1 9.40816 5.57323 9.39864
17 1 1 10.0446 5.9371 8.7245
5 1 1 13.8613 6.97435 10.1458
4 1 1 14.5198 7.2221 9.46194
13 1 1 10.4954 4.20342 9.82947
11 1 1 12.0415 4.43051 9.51219
10 1 1 12.2339 4.85379 10.3585
15 1 1 9.48855 5.00133 10.1634
6 1 1 13.0436 6.51442 10.1098
12 1 1 11.3303 3.74267 9.64794
9 1 1 12.1169 5.80489 10.1734
7 1 1 13.0892 5.74438 9.42953
8 1 1 12.2069 5.90085 9.21492
ITEM: TIMESTEP
8600
ITEM: NUMBER OF ATOMS
20
ITEM: BOX BOUNDS pp pp pp
0.0000000000000000e+00 2.0000000000000000e+01
0.0000000000000000e+00 2.0000000000000000e+01
0.0000000000000000e+00 2.0000000000000000e+01
ITEM: ATOMS id mol type x y z
1 1 1 14.6355 7.58585 7.54211
20 1 1 10.1408 6.22421 6.82848
2 1 1 14.9332 7.85545 8.36738
18 1 1 9.78591 5.96951 7.78355
19 1 1 9.19667 6.13569 7.03766
3 1 1 13.9967 7.62789 8.57204
14 1 1 10.0511 4.55878 9.82758
16 1 1 9.23539 5.08622 9.05371
17 1 1 9.24884 5.95664 8.58001
5 1 1 13.5251 7.15019 9.83219
4 1 1 14.3311 7.07651 9.31415
13 1 1 10.7692 3.95351 9.57796
11 1 1 12.2044 3.88964 9.65129
10 1 1 12.5267 4.72128 10.0569
15 1 1 9.65413 5.44101 9.80049
6 1 1 13.0716 6.39025 10.0138
12 1 1 11.505 3.82526 10.2393
9 1 1 12.2232 5.67981 10.0791
7 1 1 13.2933 6.41726 9.05874
8 1 1 12.5231 5.88602 9.22752
ITEM: TIMESTEP
8700
ITEM: NUMBER OF ATOMS
20
ITEM: BOX BOUNDS pp pp pp
0.0000000000000000e+00 2.0000000000000000e+01
0.0000000000000000e+00 2.0000000000000000e+01
0.0000000000000000e+00 2.0000000000000000e+01
ITEM: ATOMS id mol type x y z
1 1 1 14.5356 7.89921 7.60102
20 1 1 9.64137 6.01153 6.52015
2 1 1 14.9569 8.04833 8.46985
18 1 1 9.1111 5.99545 8.20937
19 1 1 9.52599 6.34942 7.43748
3 1 1 14.949 7.37538 9.12706
14 1 1 10.8181 5.12288 9.72766
16 1 1 9.04812 5.05723 9.03683
17 1 1 8.35105 5.4455 8.42428
5 1 1 13.3647 7.47861 9.80036
4 1 1 13.9994 7.36045 9.15858
13 1 1 10.8571 4.17315 9.79157
11 1 1 12.3288 3.5889 10.0636
10 1 1 12.5766 4.36497 9.52392
15 1 1 10.0009 4.95582 9.11116
6 1 1 13.5126 6.56329 9.99553
12 1 1 11.506 4.11495 10.4992
9 1 1 12.2251 5.2886 9.53025
7 1 1 12.646 6.54256 9.43526
8 1 1 12.8965 5.69477 8.9809
ITEM: TIMESTEP
8800
ITEM: NUMBER OF ATOMS
20
ITEM: BOX BOUNDS pp pp pp
0.0000000000000000e+00 2.0000000000000000e+01
0.0000000000000000e+00 2.0000000000000000e+01
0.0000000000000000e+00 2.0000000000000000e+01
ITEM: ATOMS id mol type x y z
1 1 1 14.7678 8.19864 8.05618
20 1 1 8.84752 6.23954 6.96587
2 1 1 15.4291 7.63733 8.42051
18 1 1 8.53944 5.64969 7.89721
19 1 1 9.44792 5.95692 7.65512
3 1 1 14.8126 7.7614 9.13785
14 1 1 10.5875 4.98086 9.08967
16 1 1 9.29573 4.90769 9.30061
17 1 1 9.19544 5.57166 8.62091
5 1 1 13.2657 7.5338 9.55184
4 1 1 13.9854 8.12581 9.39275
13 1 1 11.0336 5.08611 9.94767
11 1 1 12.3189 3.9416 10.2373
10 1 1 12.3608 3.99645 9.23691
15 1 1 9.96492 4.32516 8.79897
6 1 1 13.3818 6.59661 9.75191
12 1 1 11.4643 4.38207 10.4238
9 1 1 12.7459 4.77191 8.81431
7 1 1 12.6067 6.1863 9.93372
8 1 1 12.7999 5.58145 9.21085
ITEM: TIMESTEP
8900
ITEM: NUMBER OF ATOMS
20
ITEM: BOX BOUNDS pp pp pp
0.0000000000000000e+00 2.0000000000000000e+01
0.0000000000000000e+00 2.0000000000000000e+01
0.0000000000000000e+00 2.0000000000000000e+01
ITEM: ATOMS id mol type x y z
1 1 1 15.6847 8.25715 7.82248
20 1 1 8.19444 6.39485 7.27966
2 1 1 15.0198 8.15642 8.54891
18 1 1 9.57484 5.50133 8.00511
19 1 1 8.71604 5.60864 7.52654
3 1 1 14.7274 7.91024 9.41154
14 1 1 10.6116 4.5199 9.44929
16 1 1 9.53681 4.71715 9.40868
17 1 1 9.1402 5.40302 8.91403
5 1 1 13.3673 7.52587 9.55534
4 1 1 13.9496 8.23766 9.78824
13 1 1 10.8798 5.42677 9.28073
11 1 1 11.9753 4.3079 9.96452
10 1 1 12.385 3.93444 9.17818
15 1 1 10.0135 4.21928 8.73008
6 1 1 12.8792 6.67609 9.76334
12 1 1 11.4228 5.11712 10.0817
9 1 1 13.0107 4.59048 8.87209
7 1 1 13.2611 5.79545 9.45626
8 1 1 12.5008 5.13122 9.40732
ITEM: TIMESTEP
9000
ITEM: NUMBER OF ATOMS
20
ITEM: BOX BOUNDS pp pp pp
0.0000000000000000e+00 2.0000000000000000e+01
0.0000000000000000e+00 2.0000000000000000e+01
0.0000000000000000e+00 2.0000000000000000e+01
ITEM: ATOMS id mol type x y z
1 1 1 15.4578 7.95576 8.88859
20 1 1 8.07369 6.0556 7.68428
2 1 1 15.194 8.78959 8.48273
18 1 1 9.04171 5.81347 8.15488
19 1 1 8.29311 5.19366 8.10117
3 1 1 14.4174 8.46239 9.08842
14 1 1 10.5001 4.32676 9.34852
16 1 1 9.45872 4.69664 9.24962
17 1 1 9.85572 5.19081 8.52441
5 1 1 13.4725 7.07617 9.97975
4 1 1 14.2439 7.53474 9.46428
13 1 1 10.7653 5.24357 9.19414
11 1 1 11.6884 4.54284 9.69386
10 1 1 12.375 3.87179 9.6493
15 1 1 9.92556 4.12642 8.64455
6 1 1 12.8383 6.68391 9.28427
12 1 1 11.6835 5.48097 9.5039
9 1 1 12.9222 4.62348 9.26843
7 1 1 13.5987 6.20757 8.92219
8 1 1 13.0454 5.55485 9.3167
ITEM: TIMESTEP
9100
ITEM: NUMBER OF ATOMS
20
ITEM: BOX BOUNDS pp pp pp
0.0000000000000000e+00 2.0000000000000000e+01
0.0000000000000000e+00 2.0000000000000000e+01
0.0000000000000000e+00 2.0000000000000000e+01
ITEM: ATOMS id mol type x y z
20 1 1 7.57403 5.86021 7.89423
19 1 1 7.95713 5.10411 8.30111
18 1 1 8.6969 5.68709 8.50961
15 1 1 10.0396 3.89934 8.69505
17 1 1 9.46502 5.30498 7.97622
13 1 1 10.6818 5.32858 9.54999
7 1 1 13.6059 6.33543 8.70753
1 1 1 15.0383 7.97005 9.81634
3 1 1 14.0935 8.30515 8.97039
2 1 1 15.036 8.6502 9.13461
14 1 1 10.629 4.47692 9.11797
11 1 1 11.8781 4.73339 9.88082
10 1 1 12.701 4.13978 9.92106
16 1 1 9.55203 4.73756 8.78883
9 1 1 13.1763 4.90912 9.62432
12 1 1 11.4519 5.09385 9.06821
8 1 1 13.7176 5.42646 9.01961
6 1 1 13.27 7.12969 9.14236
5 1 1 14.1063 6.99061 9.64144
4 1 1 14.1808 7.3485 8.6843
ITEM: TIMESTEP
9200
ITEM: NUMBER OF ATOMS
20
ITEM: BOX BOUNDS pp pp pp
0.0000000000000000e+00 2.0000000000000000e+01
0.0000000000000000e+00 2.0000000000000000e+01
0.0000000000000000e+00 2.0000000000000000e+01
ITEM: ATOMS id mol type x y z
20 1 1 7.13013 5.69114 8.09618
19 1 1 7.77195 5.06501 8.49905
18 1 1 8.23805 5.86239 8.33553
15 1 1 9.81304 3.96261 8.68476
17 1 1 8.64743 5.09334 7.93273
13 1 1 10.9345 5.02166 9.56179
7 1 1 13.4644 6.16296 8.87458
1 1 1 14.5539 8.08312 10.535
3 1 1 14.4344 8.0473 8.88587
2 1 1 14.6015 8.50653 9.67644
14 1 1 10.5685 4.20438 9.25063
11 1 1 12.1084 4.78164 9.92431
10 1 1 13.0978 4.85355 10.1371
16 1 1 9.43958 4.54169 8.02659
9 1 1 13.8506 5.27681 9.71447
12 1 1 11.7442 5.39022 9.19096
8 1 1 14.0665 5.47047 8.80157
6 1 1 13.4883 7.01427 9.30353
5 1 1 14.3751 6.93513 8.90959
4 1 1 14.5226 7.46678 8.10326
ITEM: TIMESTEP
9300
ITEM: NUMBER OF ATOMS
20
ITEM: BOX BOUNDS pp pp pp
0.0000000000000000e+00 2.0000000000000000e+01
0.0000000000000000e+00 2.0000000000000000e+01
0.0000000000000000e+00 2.0000000000000000e+01
ITEM: ATOMS id mol type x y z
20 1 1 6.68848 5.55856 8.27327
19 1 1 7.38258 5.20216 8.8841
18 1 1 7.81304 5.47138 8.05286
15 1 1 9.56774 4.44929 8.47201
17 1 1 8.5239 4.82043 8.03477
13 1 1 11.111 4.79872 9.19334
7 1 1 13.4396 5.96766 9.0965
1 1 1 14.0555 8.36781 10.6339
3 1 1 14.9033 8.05824 9.20073
2 1 1 14.191 7.72616 9.85707
14 1 1 10.2133 4.30298 9.12141
11 1 1 12.7312 5.2183 9.81991
10 1 1 13.5625 5.47282 10.208
16 1 1 9.19854 4.31212 7.61141
9 1 1 14.31 5.56049 9.69022
12 1 1 11.7595 5.04925 9.83657
8 1 1 14.3075 5.65443 8.77403
6 1 1 14.0616 6.7276 9.15327
5 1 1 14.3243 6.90911 8.28432
4 1 1 14.7064 7.8035 8.24631
ITEM: TIMESTEP
9400
ITEM: NUMBER OF ATOMS
20
ITEM: BOX BOUNDS pp pp pp
0.0000000000000000e+00 2.0000000000000000e+01
0.0000000000000000e+00 2.0000000000000000e+01
0.0000000000000000e+00 2.0000000000000000e+01
ITEM: ATOMS id mol type x y z
20 1 1 6.31633 5.42767 8.45491
19 1 1 7.16175 5.45351 8.8551
18 1 1 7.32902 4.75097 8.18936
15 1 1 9.89648 4.75471 8.32687
17 1 1 8.26929 4.66396 8.07201
13 1 1 11.214 4.55023 9.44649
7 1 1 13.8327 6.10706 8.5757
1 1 1 13.5954 8.16879 9.99311
3 1 1 14.7943 7.8514 9.70451
2 1 1 14.18 7.49786 10.3064
14 1 1 10.6937 4.99922 8.74027
11 1 1 12.5296 5.40754 10.1215
10 1 1 13.4498 5.6958 9.94835
16 1 1 9.13024 4.30561 7.84825
9 1 1 14.3732 5.71594 9.80734
12 1 1 12.1516 4.71152 9.56723
8 1 1 14.3725 5.31196 8.92709
6 1 1 14.4092 6.8772 8.87071
5 1 1 14.3853 7.38441 7.96499
4 1 1 14.7664 7.79564 8.72381
ITEM: TIMESTEP
9500
ITEM: NUMBER OF ATOMS
20
ITEM: BOX BOUNDS pp pp pp
0.0000000000000000e+00 2.0000000000000000e+01
0.0000000000000000e+00 2.0000000000000000e+01
0.0000000000000000e+00 2.0000000000000000e+01
ITEM: ATOMS id mol type x y z
20 1 1 6.0361 5.29083 8.65218
19 1 1 6.9862 5.21582 8.36991
18 1 1 7.59882 4.44336 8.55921
15 1 1 10.0178 4.77022 8.36183
17 1 1 8.51856 4.38409 8.38557
13 1 1 11.212 4.81312 9.29076
7 1 1 14.5961 5.8165 8.2514
1 1 1 13.4857 7.49252 9.5895
3 1 1 14.6226 7.63619 9.85095
2 1 1 13.8772 7.80495 10.4252
14 1 1 10.9468 5.03399 8.33578
11 1 1 12.5833 4.92181 10.1431
10 1 1 13.1041 5.6564 9.66002
16 1 1 9.16648 5.07944 8.63563
9 1 1 14.0345 5.72302 9.8759
12 1 1 12.122 5.0992 9.29061
8 1 1 13.928 5.6221 8.92332
6 1 1 14.4512 6.73458 8.07722
5 1 1 14.6356 7.59149 8.61779
4 1 1 14.9279 8.30139 9.14812
ITEM: TIMESTEP
9600
ITEM: NUMBER OF ATOMS
20
ITEM: BOX BOUNDS pp pp pp
0.0000000000000000e+00 2.0000000000000000e+01
0.0000000000000000e+00 2.0000000000000000e+01
0.0000000000000000e+00 2.0000000000000000e+01
ITEM: ATOMS id mol type x y z
20 1 1 6.54563 4.96305 8.59991
19 1 1 7.17487 4.2984 8.44242
18 1 1 7.97433 4.83882 8.51937
15 1 1 9.83154 5.08738 8.60929
17 1 1 8.68366 4.62706 9.08873
13 1 1 10.9149 5.10238 8.80108
7 1 1 14.7964 6.14327 8.22886
1 1 1 13.472 6.93525 9.70671
3 1 1 14.3962 7.69454 10.0669
2 1 1 13.4703 7.85779 9.84922
14 1 1 10.4948 4.71518 7.99512
11 1 1 12.555 4.69844 9.63447
10 1 1 13.0266 5.5818 9.76441
16 1 1 9.08555 5.46256 9.09945
9 1 1 14.0169 5.81257 9.49746
12 1 1 11.7826 5.19763 9.24365
8 1 1 13.9376 6.22316 8.69658
6 1 1 15.0443 7.09423 8.26242
5 1 1 14.96 7.10659 9.19263
4 1 1 14.6878 7.9909 9.14528
ITEM: TIMESTEP
9700
ITEM: NUMBER OF ATOMS
20
ITEM: BOX BOUNDS pp pp pp
0.0000000000000000e+00 2.0000000000000000e+01
0.0000000000000000e+00 2.0000000000000000e+01
0.0000000000000000e+00 2.0000000000000000e+01
ITEM: ATOMS id mol type x y z
20 1 1 7.16011 4.26419 8.42435
19 1 1 7.99892 3.91273 8.84599
18 1 1 8.30473 4.81363 8.57645
15 1 1 9.49026 5.38327 8.70976
17 1 1 8.26475 5.2114 9.48613
13 1 1 10.8048 5.06235 8.23346
7 1 1 15.0662 6.85874 8.13755
1 1 1 13.3196 6.6894 9.94122
3 1 1 13.8545 7.89035 10.0587
2 1 1 13.5216 7.44577 9.30811
14 1 1 9.95958 4.77572 8.17794
11 1 1 12.341 5.36223 9.14963
10 1 1 13.2707 5.15381 9.46356
16 1 1 9.10265 5.67083 9.51995
9 1 1 13.807 5.94081 9.19731
12 1 1 11.4469 4.94754 8.98698
8 1 1 14.2091 6.48871 8.57399
6 1 1 15.1705 6.39136 8.95384
5 1 1 15.2393 7.28467 9.29974
4 1 1 14.5187 7.88349 9.39932
ITEM: TIMESTEP
9800
ITEM: NUMBER OF ATOMS
20
ITEM: BOX BOUNDS pp pp pp
0.0000000000000000e+00 2.0000000000000000e+01
0.0000000000000000e+00 2.0000000000000000e+01
0.0000000000000000e+00 2.0000000000000000e+01
ITEM: ATOMS id mol type x y z
20 1 1 7.83603 3.19667 8.49478
19 1 1 8.35547 3.85767 8.97844
18 1 1 8.58799 4.7454 9.32862
15 1 1 9.41043 5.88096 8.97443
17 1 1 8.1658 5.63743 9.24601
13 1 1 10.7133 4.71019 8.07868
7 1 1 15.0962 6.65839 8.33469
1 1 1 13.1771 6.72706 10.075
3 1 1 13.6047 7.86672 9.49219
2 1 1 13.6169 6.90653 9.21833
14 1 1 9.95816 5.24404 8.47958
11 1 1 12.1128 5.63466 8.88634
10 1 1 12.8736 5.20668 8.53421
16 1 1 8.94794 5.76292 9.76319
9 1 1 13.4653 5.94479 8.56922
12 1 1 11.584 5.07271 8.38461
8 1 1 14.1573 6.63125 8.27082
6 1 1 15.3756 7.03228 9.20695
5 1 1 15.3558 7.22024 10.1918
4 1 1 14.4566 7.49442 9.9361
ITEM: TIMESTEP
9900
ITEM: NUMBER OF ATOMS
20
ITEM: BOX BOUNDS pp pp pp
0.0000000000000000e+00 2.0000000000000000e+01
0.0000000000000000e+00 2.0000000000000000e+01
0.0000000000000000e+00 2.0000000000000000e+01
ITEM: ATOMS id mol type x y z
20 1 1 8.98638 2.99941 9.07533
19 1 1 8.40035 3.79093 9.05766
18 1 1 8.09091 4.51502 9.61156
15 1 1 9.79408 6.18309 9.3126
17 1 1 8.48155 5.16609 9.093
13 1 1 10.5098 4.87493 8.34594
7 1 1 14.7385 6.63567 9.14391
1 1 1 13.0773 6.83998 10.1205
3 1 1 13.9319 7.48044 9.2961
2 1 1 13.6237 6.60589 9.35666
14 1 1 10.3438 5.74268 8.72196
11 1 1 11.9105 5.59518 8.3241
10 1 1 12.7193 5.7663 7.7178
16 1 1 8.88099 5.86376 9.62631
9 1 1 13.5685 6.16003 7.79596
12 1 1 11.2506 5.2523 7.85906
8 1 1 14.3748 6.18823 8.36168
6 1 1 15.0446 7.51975 9.28744
5 1 1 15.053 7.05244 10.1263
4 1 1 14.0705 7.19889 10.2101
ITEM: TIMESTEP
10000
ITEM: NUMBER OF ATOMS
20
ITEM: BOX BOUNDS pp pp pp
0.0000000000000000e+00 2.0000000000000000e+01
0.0000000000000000e+00 2.0000000000000000e+01
0.0000000000000000e+00 2.0000000000000000e+01
ITEM: ATOMS id mol type x y z
20 1 1 9.6828 3.60547 9.6908
19 1 1 8.68477 3.48191 9.47003
18 1 1 8.0518 4.1849 9.24392
15 1 1 9.78391 6.1325 9.58076
17 1 1 8.76823 4.80902 9.47987
13 1 1 10.5734 5.40677 8.41438
7 1 1 14.8927 6.23404 8.74912
1 1 1 12.6054 6.60994 10.1429
3 1 1 13.227 7.5894 9.70458
2 1 1 13.3497 6.70481 9.46722
14 1 1 10.5873 6.13895 9.09608
11 1 1 11.9587 5.72976 7.15981
10 1 1 12.7322 6.3403 7.43795
16 1 1 9.17621 5.62012 9.06517
9 1 1 13.695 6.13634 7.57934
12 1 1 11.2598 5.50815 7.76889
8 1 1 14.1006 5.77225 8.35729
6 1 1 14.8185 6.68362 9.56513
5 1 1 14.9268 7.37878 10.2487
4 1 1 13.9761 7.36396 10.2221
