LAMMPS (30 Mar 2026)
OMP_NUM_THREADS environment is not set. Defaulting to 1 thread.
  using 1 OpenMP thread(s) per MPI task
Loaded 1 plugins from C:\Users\abhis\AppData\Local\LAMMPS 64-bit 30Mar2026\plugins
# ==============================================================
# Polymer Melt NPT Compression
# ==============================================================

# ==============================================================
# Log File
# ==============================================================

log             ../outputs/logs/npt.log
