LAMMPS data file via write_data, version 30 Mar 2026, timestep = 508, units = lj

500 atoms
1 atom types
475 bonds
1 bond types

0 60 xlo xhi
0 60 ylo yhi
0 60 zlo zhi

Masses

1 1

Pair Coeffs # lj/cut

1 1 1

Bond Coeffs # harmonic

1 100 1

Atoms # bond

183 10 1 35.78288972746611 27.505613468957034 14.590129998640938 0 0 0
303 16 1 11.23421894100613 42.51551769422605 13.324747814252195 0 0 0
302 16 1 12.196960160500181 42.26189295540901 13.225872061949525 0 0 0
301 16 1 12.023859804654338 43.199394892298834 12.938462355713703 0 0 0
184 10 1 36.69365978266793 27.303906912453083 14.939780293714058 0 0 0
185 10 1 36.716933492212355 27.75823848152279 14.054054343319597 0 0 0
186 10 1 36.43200124812829 26.795035039007928 14.015837893845012 0 0 0
181 10 1 35.97265137181502 27.715851054175335 15.654061268276905 0 0 0
182 10 1 36.28513292714553 28.312376711697755 14.918965493864652 0 0 0
318 16 1 11.447782437591247 40.916183783684744 14.135143572571499 0 0 0
317 16 1 12.371860745695892 41.17046500987238 13.85095604540036 0 0 0
316 16 1 12.183237558621373 41.40927299898421 14.816811651985374 0 0 0
304 16 1 11.174007077274997 43.47265867065694 13.60495049627712 0 0 0
305 16 1 11.920408986630973 43.00333367685009 14.031678804614009 0 0 0
309 16 1 11.564169137230298 44.04966221865511 14.457537034835742 0 0 0
306 16 1 12.840756762107857 43.11887777314456 13.693325156942374 0 0 0
192 10 1 36.29304752025182 25.75319775773774 15.608585420469762 0 0 0
190 10 1 36.93963598140399 26.24405421293621 14.851073467626954 0 0 0
191 10 1 35.9893574179889 26.499816599343443 15.028428628458053 0 0 0
189 10 1 37.657911798397194 26.85058944364266 15.201888899430756 0 0 0
187 10 1 37.417428075338 26.92293407870975 14.127299402218563 0 0 0
188 10 1 37.65816432292426 27.713414549748077 14.692826593723655 0 0 0
360 18 1 11.494135601045215 32.67316873559781 16.795601959281214 0 0 0
319 16 1 11.436828798479068 41.421423717797346 13.271437701822887 0 0 0
320 16 1 10.706860566715761 41.71564890271559 13.896459511265888 0 0 0
315 16 1 11.728672261957104 41.977267536637264 14.160836768861119 0 0 0
299 15 1 49.22224876975899 38.75006603456631 17.699935490088443 0 0 0
313 16 1 12.247595185978701 42.538561233738776 14.978713092049297 0 0 0
314 16 1 12.705227039320475 42.165339246904836 14.192910946749853 0 0 0
311 16 1 10.930883939891421 42.69308832391329 14.390708906952343 0 0 0
312 16 1 11.33572297708536 42.15404797114774 15.13595226776813 0 0 0
310 16 1 11.443646101322956 43.258919924798754 15.021417961808261 0 0 0
308 16 1 12.471810879181136 43.66650497327885 14.648246498265795 0 0 0
307 16 1 12.32349063875483 43.964938495285494 13.691831349914507 0 0 0
193 10 1 37.040185342057505 26.32253731195447 15.940524424281033 0 0 0
194 10 1 36.98655882254453 27.317313624465115 15.971184307253058 0 0 0
355 18 1 11.05540774347952 31.211760367119712 17.835137587134767 0 0 0
356 18 1 10.836127813532189 32.136646779929706 18.134981470617085 0 0 0
357 18 1 10.695410889894559 32.001640479894505 17.157021815817632 0 0 0
358 18 1 10.580115256388092 32.956067335044516 17.406450751910082 0 0 0
359 18 1 11.509923552917572 32.93506943462949 17.754246322797886 0 0 0
297 15 1 48.62681098371548 38.37506522443497 18.5418828049671 0 0 0
296 15 1 48.388010662031206 39.28476771156119 18.2475473469071 0 0 0
298 15 1 49.56248576791027 38.672716958149 18.63731983759362 0 0 0
300 15 1 49.44368552667584 39.6416124202424 18.082011747547263 0 0 0
198 10 1 36.04312984263057 26.730462386432652 16.103175281768994 0 0 0
199 10 1 36.29105832380661 25.965473689038184 16.691865088377828 0 0 0
200 10 1 36.425469294488046 26.24030129906994 17.641086617004436 0 0 0
195 10 1 36.858847611293726 26.90407245253082 16.865913921445163 0 0 0
197 10 1 35.73583367752567 26.872211746708746 17.03595778579687 0 0 0
196 10 1 36.24110341991401 27.667599179868308 16.720360870483685 0 0 0
353 18 1 11.901579341315982 32.1844806132144 18.456094677401055 0 0 0
354 18 1 11.740130147532348 31.8638809576126 17.528825838521808 0 0 0
295 15 1 48.92285374375199 39.515488912481324 19.044926668357554 0 0 0
294 15 1 48.153750000313565 38.949013662516315 19.33891715077654 0 0 0
89 5 1 48.408261687807666 48.951613168029276 18.55993468304776 0 0 0
86 5 1 47.233256017824175 48.80778475315753 18.506148758645004 0 0 0
87 5 1 47.597172477822504 49.72930878593742 18.43433250303862 0 0 0
90 5 1 48.60009460058805 49.668595923472616 17.90154133776438 0 0 0
91 5 1 49.42148665752812 49.16754069244074 18.152048568715234 0 0 0
92 5 1 49.321539617404625 49.352204427124484 19.12403648069973 0 0 0
94 5 1 48.496600303197376 50.00168627869169 18.934557114735956 0 0 0
16 1 1 21.921377228440402 5.916352792273885 20.628931595322925 0 0 0
345 18 1 9.652309055010816 30.286602536508184 19.132081734763755 0 0 0
342 18 1 11.308080778225186 30.369729931328894 18.48484010416993 0 0 0
343 18 1 11.212550234967662 29.66668014875206 19.18912152081956 0 0 0
344 18 1 10.38035354016648 29.80264456145058 18.65279247753565 0 0 0
351 18 1 11.219746927016466 31.433880355127634 18.897341666806337 0 0 0
341 18 1 11.839207279836367 30.579998725966558 19.289691628481194 0 0 0
352 18 1 12.036864397970474 31.20201938920548 18.381735012255355 0 0 0
202 11 1 37.71773123142591 32.77197395908368 20.86926343864234 0 0 0
201 11 1 38.07483568087128 32.53962209244838 19.97133478297685 0 0 0
290 15 1 48.23035182861056 38.4179242698476 20.33038928225255 0 0 0
293 15 1 49.049327885570904 38.59739563352299 19.594486566711424 0 0 0
292 15 1 48.784957027987474 39.37668963604291 20.150998549448325 0 0 0
85 5 1 46.536692085209204 49.51546549034751 18.63022438487443 0 0 0
84 5 1 47.01259175783697 49.948144047036145 19.388509917784926 0 0 0
88 5 1 47.830849501835026 49.2540075545948 19.290972797669625 0 0 0
93 5 1 49.375034453842176 50.19661864931798 18.571107948305823 0 0 0
95 5 1 48.70832238091213 50.94838589693857 19.115363132396304 0 0 0
96 5 1 49.20841614637157 50.32020226906529 19.69846304036783 0 0 0
100 5 1 48.22839365870724 50.67673713644935 18.132635081145573 0 0 0
99 5 1 47.64352481894249 50.71408748632809 18.93801326867233 0 0 0
17 1 1 21.360285204862677 5.803590463128997 21.444964068332272 0 0 0
18 1 1 21.579825686727307 4.930942037182061 21.016337353179097 0 0 0
19 1 1 22.374988553255513 5.3334774519526 21.468500590608215 0 0 0
20 1 1 22.38273845858975 6.325079342663357 21.566640504793618 0 0 0
14 1 1 22.088940819391706 6.995046271103567 20.743662573448553 0 0 0
15 1 1 21.18285235143965 6.585807901923594 20.662444948857583 0 0 0
346 18 1 10.262668762005253 29.809607090545292 19.76439728551544 0 0 0
347 18 1 10.679044804628022 30.620832645823786 19.361180536160575 0 0 0
348 18 1 11.201268076012445 30.2809504307727 20.136246272505467 0 0 0
349 18 1 11.319762067689066 31.264175531276955 19.995410529785392 0 0 0
350 18 1 12.03671202193395 31.656447670805306 19.420624961892912 0 0 0
61 4 1 12.905829068468286 34.15116809929518 21.48143298280487 0 0 0
203 11 1 38.65194610613339 32.41037847274859 20.949795905218405 0 0 0
204 11 1 38.460769662503736 33.16226213261523 21.563824147439604 0 0 0
365 19 1 45.70091833994651 33.47799636534937 21.9253362167335 0 0 0
368 19 1 44.779777719094014 33.55006383843533 21.29520295355498 0 0 0
366 19 1 45.78512334257235 33.326481301544284 20.948462711263197 0 0 0
367 19 1 45.422578344864895 34.26096098861358 21.053743543038845 0 0 0
65 4 1 12.214759392039452 35.016324069953285 21.44105604017399 0 0 0
205 11 1 37.84898701020223 33.84328501646853 21.201707035729193 0 0 0
207 11 1 37.65794330799808 33.59901530054978 20.12548659362604 0 0 0
208 11 1 38.56763155183965 33.38946933193473 20.455652663181986 0 0 0
210 11 1 38.938614052858746 34.10134427477377 21.202982476839082 0 0 0
209 11 1 39.40504097771846 33.25012364578722 20.956929103327525 0 0 0
70 4 1 10.37753090937178 34.74329930207705 21.79035578876333 0 0 0
67 4 1 11.25103007611733 34.55693326830381 21.15146507789452 0 0 0
206 11 1 38.159294215339436 34.408366345405504 20.444240681321073 0 0 0
372 19 1 43.72192979461857 35.09954300622302 21.44702156750361 0 0 0
69 4 1 10.375861470933609 35.21752295516337 20.91524606090646 0 0 0
68 4 1 11.30812326010504 35.54465972736422 21.057149641982047 0 0 0
286 15 1 48.760218345998 36.85472795249875 19.58478629607079 0 0 0
287 15 1 49.20163950115877 37.61745921396012 19.098003046692327 0 0 0
288 15 1 48.27152948539389 37.826251857098484 19.404789497199097 0 0 0
289 15 1 48.02461941891358 37.43373449066568 20.28096545597923 0 0 0
291 15 1 49.12400068213802 38.63806519881856 20.72984324304644 0 0 0
83 5 1 46.813418272834504 48.98087724448246 19.557590961223344 0 0 0
81 5 1 47.50676322955808 49.49103111656145 20.303529010554303 0 0 0
82 5 1 46.51268480159106 49.57621562767437 20.299493307682106 0 0 0
97 5 1 48.60263085295806 49.58429218392544 19.970176097023334 0 0 0
98 5 1 47.986266677229004 50.35120126842501 19.802321605653212 0 0 0
8 1 1 20.58875977998052 7.110989142423917 22.303628290292565 0 0 0
9 1 1 20.443239771119146 7.114276399645533 21.31529460665985 0 0 0
10 1 1 21.272170798789944 7.625296501937483 21.09685558361357 0 0 0
11 1 1 21.443042483253443 6.851225734696154 21.694268595343395 0 0 0
12 1 1 21.54023217532705 7.70760708684192 22.18502750233165 0 0 0
6 1 1 19.57309369629094 7.788936693679976 21.557611301290237 0 0 0
13 1 1 22.307853916094377 7.495204495911308 21.575734115623725 0 0 0
5 1 1 19.888428876301283 7.928984171213957 22.49251728980254 0 0 0
4 1 1 20.59249551385951 8.095585107404618 21.80228603188745 0 0 0
3 1 1 20.5859655515548 8.79634045395797 22.49899657081305 0 0 0
1 1 1 19.518603238408883 8.920214023521398 22.823779797300443 0 0 0
2 1 1 19.802841335616147 8.854691290490901 21.87019084245099 0 0 0
406 21 1 46.611539234039626 18.84763019124806 23.615873371507202 0 0 0
407 21 1 45.840915591855385 18.598321905584825 23.039889110144035 0 0 0
408 21 1 46.65453345070884 18.80936582845289 22.504823424880687 0 0 0
62 4 1 12.68649013434753 33.603700127631626 22.287419618154757 0 0 0
63 4 1 11.87243580452529 34.01314107337997 21.880838195809705 0 0 0
361 19 1 44.350858622747175 32.16539466438785 22.280795266818064 0 0 0
362 19 1 44.00935854369546 32.905887444319916 21.70521450464534 0 0 0
363 19 1 44.681620209606926 33.22797163984134 22.361219006460775 0 0 0
364 19 1 45.18693805859812 32.64667421353037 21.72089062241666 0 0 0
64 4 1 12.434056724974678 34.68927950418559 22.356163141762554 0 0 0
211 11 1 38.927248179542474 33.92968371956572 22.184526006637256 0 0 0
212 11 1 39.83302746440119 33.82278039150217 21.79097036701867 0 0 0
215 11 1 40.51291945774441 32.99852909673632 22.013570003810212 0 0 0
369 19 1 44.91994139244863 34.227243734777794 22.019079513159042 0 0 0
370 19 1 43.96353345559724 34.0399499512931 21.846645955167883 0 0 0
66 4 1 11.414614125699906 35.007071083322614 22.03499056005222 0 0 0
371 19 1 44.24952753683575 34.41443689344298 20.963691518039138 0 0 0
373 19 1 44.24855833683942 35.034876637394106 22.280166649743947 0 0 0
283 15 1 48.91651746906659 36.879596409393294 20.70086089181237 0 0 0
284 15 1 49.06877832915463 37.71026226432509 20.181697057015885 0 0 0
72 4 1 9.63017870483634 35.54932619361031 21.693915922592552 0 0 0
73 4 1 9.78031190953892 36.30866791232121 22.31922904093685 0 0 0
71 4 1 10.597368396197421 35.720281507576786 21.878276178936503 0 0 0
428 22 1 17.23520311000012 36.86782256344283 22.668703989901825 0 0 0
374 19 1 44.844033868441905 35.15565285355375 21.474504755155994 0 0 0
375 19 1 44.3651742091131 35.990031681496696 21.731511114809912 0 0 0
285 15 1 49.69634483242895 37.002181765509974 19.911754887795333 0 0 0
421 22 1 17.88716918338493 37.780210264968254 22.89352775720014 0 0 0
376 19 1 45.09748049986566 35.73427026163552 22.367693251757935 0 0 0
377 19 1 45.1690850039759 36.68610271837246 22.086930734896246 0 0 0
378 19 1 45.397863514022895 36.08840044764843 21.320701907320352 0 0 0
379 19 1 46.08914448549675 36.7938444877692 21.462066875039866 0 0 0
380 19 1 46.12674118570272 36.08356231073701 22.163281382712775 0 0 0
393 20 1 26.90813837041226 39.56370577347043 23.25884833178017 0 0 0
394 20 1 27.190158887861486 40.39083443058483 22.779841076688648 0 0 0
395 20 1 27.003139956301695 41.324744861294654 23.086129809412142 0 0 0
397 20 1 27.798937241423754 40.04284827506649 23.665660307181177 0 0 0
7 1 1 19.64026456069686 6.931352638046819 22.061327838048445 0 0 0
57 3 1 27.491119112113157 14.24266566525547 24.373672857162774 0 0 0
56 3 1 28.326530878772115 13.785882049471878 24.078017343018598 0 0 0
58 3 1 27.992703648111306 14.818139041362095 23.7294936738243 0 0 0
59 3 1 28.461789879967192 14.74617080919165 24.596308505491084 0 0 0
60 3 1 28.56646837631245 15.662716182294766 24.22614483664587 0 0 0
46 3 1 29.83295158206318 15.962139419370203 24.405474011475377 0 0 0
401 21 1 45.120825672698665 17.595418830669207 24.36531302513038 0 0 0
402 21 1 45.9461275242479 17.992575280043017 23.972249403124525 0 0 0
403 21 1 45.17863713138972 18.626653390651853 23.94691959742614 0 0 0
404 21 1 45.35329731033186 18.52931376978047 24.925413334397902 0 0 0
405 21 1 46.11994383487695 18.945624949472116 24.45231081706464 0 0 0
409 21 1 46.401114375814494 19.677371940033215 22.92578656597772 0 0 0
410 21 1 45.67954022130744 19.527376249198763 23.580399533937747 0 0 0
214 11 1 39.989811214729514 32.48885197675305 22.694997925307995 0 0 0
279 14 1 32.48944231477277 36.14678603389971 26.46291462034183 0 0 0
213 11 1 39.420621383219256 32.92791649252659 22.00122581587106 0 0 0
218 11 1 40.51143354849256 33.98075984194722 23.498217178868746 0 0 0
219 11 1 40.07193556807034 33.09194021628241 23.66267092926064 0 0 0
220 11 1 39.74006447450662 33.54455468350997 22.84673811529023 0 0 0
216 11 1 40.88414756755628 33.114012938205 22.922468756361344 0 0 0
217 11 1 40.67822529050656 33.996263814875206 22.50858963528973 0 0 0
281 15 1 48.55406980811712 37.80371331948503 21.190207465147427 0 0 0
282 15 1 49.51938552155941 37.55378788079541 21.1413251023351 0 0 0
426 22 1 16.865531585708315 35.66718431870052 24.21734133258074 0 0 0
74 4 1 9.045272446307353 35.719375248851726 22.632905906881152 0 0 0
75 4 1 8.598788758730334 35.94242792524387 23.495440259024175 0 0 0
80 4 1 10.04693995737485 35.2568182708996 22.703879912079174 0 0 0
427 22 1 17.060703917304416 36.241134337504384 23.43151751106853 0 0 0
423 22 1 18.31412427830697 36.86042197479734 24.285809590454853 0 0 0
424 22 1 17.94138877591621 35.96486797032046 24.05914225782094 0 0 0
429 22 1 18.02993002657583 36.74427715000803 23.25366960814005 0 0 0
431 22 1 17.225955188956455 36.68509323707408 24.462150300145886 0 0 0
383 20 1 26.916450524550182 37.61021378099206 24.16169761923789 0 0 0
78 4 1 10.131572307620893 36.14879311143414 23.34710147513027 0 0 0
422 22 1 18.29266073708521 37.726730781358114 23.80874395606785 0 0 0
430 22 1 17.305933608326338 37.280642710739386 23.688795669845064 0 0 0
382 20 1 26.12155016457538 38.21956675427814 24.267019486367822 0 0 0
381 20 1 26.745699648608472 38.521874820821935 23.55927275853258 0 0 0
390 20 1 26.00780428146472 39.25951512533484 23.82719507637338 0 0 0
392 20 1 26.138429897310267 40.191774804619214 23.21545394157604 0 0 0
391 20 1 26.014927654828423 40.16647211527275 24.214158703580058 0 0 0
398 20 1 26.951737607457243 40.5430695483441 23.83107009459057 0 0 0
396 20 1 27.878762965478757 41.00625106028847 23.45040178296177 0 0 0
54 3 1 27.714193900544057 14.560684708473875 25.403938716518027 0 0 0
55 3 1 28.26030227943012 13.790420964097969 25.07645819028201 0 0 0
49 3 1 29.041666589255698 15.728914818089434 25.896416692318496 0 0 0
47 3 1 29.32085202578968 15.299337150791807 24.938406884920987 0 0 0
48 3 1 29.005227256490407 16.248187259040055 25.05022252144378 0 0 0
45 3 1 30.04032109279917 15.979837712825473 25.390504370014522 0 0 0
44 3 1 29.895235271622887 16.89739623186049 25.03262941256515 0 0 0
420 21 1 45.05597995973244 20.3642435638009 25.252765411033508 0 0 0
411 21 1 46.4637205130882 19.901309197587036 24.05130860309725 0 0 0
412 21 1 45.627655042229456 20.411255585860847 24.257874504506876 0 0 0
413 21 1 45.22958931311766 19.553965541039325 24.563558389938017 0 0 0
280 14 1 32.38531549577826 35.930691193475724 25.484901505952944 0 0 0
425 22 1 17.625530688022668 35.320329238530945 24.75541672236902 0 0 0
277 14 1 32.92626627433889 36.82828782552402 25.755295161967215 0 0 0
278 14 1 31.97403692960045 36.859847556017904 25.974744393140153 0 0 0
76 4 1 9.175798822484783 36.68569893861307 23.169192694145448 0 0 0
77 4 1 9.469147125996834 36.358205506369224 24.06355289855217 0 0 0
79 4 1 9.547492312761777 35.37102245379694 23.556564449244245 0 0 0
434 22 1 17.997399591639567 36.270232611338464 25.13585170654598 0 0 0
385 20 1 27.914087934101197 38.04784043384519 24.526481925831725 0 0 0
384 20 1 27.66149682745416 37.93079521431166 23.575770594227762 0 0 0
273 14 1 33.45588816434481 35.878838405791484 25.75477815826227 0 0 0
432 22 1 17.592561584335872 37.57640735980197 24.710145999918876 0 0 0
433 22 1 18.26282769228672 37.20329784198118 25.34081066995611 0 0 0
386 20 1 27.087789051831898 38.57528117994131 24.646832374599953 0 0 0
387 20 1 27.651378893344745 38.991374301448694 23.94202226094219 0 0 0
388 20 1 26.98745972228382 39.61172944135618 24.34985896528595 0 0 0
271 14 1 33.506528054812875 37.3857171332649 25.036944498733444 0 0 0
272 14 1 33.37834054677437 36.390509077148295 24.890923478898117 0 0 0
389 20 1 26.196013352233592 39.211875938878364 24.798098493065744 0 0 0
399 20 1 27.60149692947037 40.65761021159603 24.556785472846734 0 0 0
400 20 1 27.248540089007555 41.52762192825437 24.196400924917647 0 0 0
53 3 1 28.151908847416717 14.051313927778677 26.144566799795296 0 0 0
50 3 1 28.24337992682415 15.534859886540815 25.316869036818606 0 0 0
51 3 1 28.164968409815465 15.153409835647082 26.232498752821307 0 0 0
52 3 1 28.797493002289116 14.63457824477897 25.653385177621363 0 0 0
43 3 1 29.465236831486006 16.7582407560959 25.927732762118648 0 0 0
41 3 1 29.691656510259477 17.812587698852823 25.636988557244376 0 0 0
42 3 1 28.887994578637592 17.306517638180562 25.326270897899395 0 0 0
419 21 1 45.18212894943151 19.445610363534787 25.656507937952227 0 0 0
418 21 1 45.706753985976846 20.172529829767416 26.103220834166816 0 0 0
414 21 1 46.03989158602307 19.826734381167277 25.092370250309948 0 0 0
415 21 1 46.16692770735582 18.942258043270186 25.535149184814664 0 0 0
436 22 1 17.563268338845653 35.56699438468352 25.86716624635941 0 0 0
275 14 1 33.56436650335863 36.57211481802583 26.615589089636394 0 0 0
437 22 1 16.920146287486645 36.013310331326394 25.26338869396289 0 0 0
439 22 1 16.909525501488627 36.373026171304566 26.308766831570754 0 0 0
440 22 1 16.1468598103019 36.65498884792678 25.72415809642871 0 0 0
435 22 1 18.002571651714376 36.42809491284765 26.11428837236479 0 0 0
438 22 1 17.202708442313288 36.930932991345045 25.535604687297454 0 0 0
274 14 1 34.02770893589714 36.70006085414734 25.74581874716809 0 0 0
276 14 1 32.80431822327734 37.19194475595603 26.654243386845085 0 0 0
268 14 1 33.143238723997186 38.69463798495478 25.68099088940745 0 0 0
269 14 1 32.642048795725906 37.84124179627119 25.61302643995286 0 0 0
270 14 1 33.55394614536471 37.68337023533933 25.996159035180447 0 0 0
265 14 1 32.848638872930955 38.252467725871405 26.6387411282428 0 0 0
267 14 1 32.179359570022704 38.804567843422554 25.938357634395643 0 0 0
264 14 1 31.941113530509558 37.85590120960764 26.43492985758644 0 0 0
266 14 1 32.7611769706754 39.2372948139382 26.61674286228214 0 0 0
416 21 1 46.67002296189079 19.652049479539517 26.008945956649555 0 0 0
417 21 1 45.88885563388379 19.297391679298123 26.53232074394023 0 0 0
262 14 1 32.27508030629024 37.76345948704837 27.464346958291006 0 0 0
263 14 1 31.917282072786076 38.6193971388936 27.067014262715208 0 0 0
176 9 1 9.358228568708132 46.69752009278219 30.404115966806156 0 0 0
177 9 1 8.762636764540195 46.45241009165964 31.16457745288567 0 0 0
178 9 1 8.54668652884079 47.14259520307958 31.84111222736728 0 0 0
180 9 1 8.048354151634987 47.2813578805593 30.888998680159578 0 0 0
174 9 1 8.7341177279257 47.56923905440381 30.105180141456234 0 0 0
462 24 1 33.67665104322891 12.937049740513109 30.263643051567005 0 0 0
463 24 1 32.74877229758641 12.973540700163882 29.901761523799173 0 0 0
221 12 1 17.632812261350537 26.147693420368235 31.51436615717406 0 0 0
222 12 1 17.433087718237758 25.224183465879292 31.843595856687465 0 0 0
223 12 1 18.069363775570736 25.244939886177583 31.059952701729287 0 0 0
340 17 1 31.616027914577824 28.20112745042867 29.979077353159525 0 0 0
331 17 1 29.47122024469744 28.691686203046867 30.287363142667456 0 0 0
261 14 1 31.841903568741895 36.93986411140178 27.079537891000548 0 0 0
119 6 1 19.158186103888433 45.71300000349558 30.243819925902745 0 0 0
120 6 1 19.59657899376871 46.60256704838505 30.356114531258765 0 0 0
118 6 1 18.484003338742983 46.443951176307884 30.336302097605266 0 0 0
173 9 1 9.684590018355845 47.84140538683894 30.112144933170708 0 0 0
162 9 1 11.112689115889507 47.86840492064068 31.08549767101064 0 0 0
161 9 1 10.894005396340502 47.05573116551729 31.632198132888515 0 0 0
179 9 1 8.393648500811233 48.05449807702322 31.42217417912774 0 0 0
175 9 1 9.178739971235853 47.462081571271696 30.994348815288443 0 0 0
172 9 1 9.107561787853507 48.47494066366241 30.62873349340394 0 0 0
480 24 1 30.909121460584142 11.832458219673093 31.322625313354973 0 0 0
464 24 1 32.13482669922839 12.769384567533857 30.643583380251382 0 0 0
465 24 1 32.97672357691673 12.3018367414013 30.853133268865626 0 0 0
468 24 1 32.10207564688499 13.68653725927423 31.311031796576767 0 0 0
469 24 1 32.15605276346711 13.840951341066653 30.32846638849309 0 0 0
470 24 1 31.295020175020298 13.44553605736313 30.614114583226428 0 0 0
461 24 1 33.051753279648665 13.409133649010084 30.878136973250548 0 0 0
472 24 1 30.908555756082695 14.289790040409926 30.0404552884235 0 0 0
473 24 1 30.341949992258158 13.92059922180517 30.780796005848277 0 0 0
474 24 1 30.442897499252066 14.556655240712587 31.53615030044841 0 0 0
471 24 1 31.361721626732997 14.395464623383559 30.91650353667019 0 0 0
225 12 1 18.287184959342305 24.51700763885259 31.834634761274685 0 0 0
226 12 1 19.224459552882227 24.769541589366373 31.62378519358217 0 0 0
224 12 1 18.480318584127613 25.510580902237542 31.92714252750755 0 0 0
322 17 1 27.541150894598005 28.23364093478514 31.212873162792654 0 0 0
321 17 1 28.339017676259285 27.814653303356152 31.6368225324863 0 0 0
328 17 1 28.50344423587026 28.56015149845799 30.809958169135523 0 0 0
329 17 1 29.317728230997545 28.27829145920907 31.30943281974675 0 0 0
338 17 1 30.522319187487422 28.478232380233564 29.99042400516854 0 0 0
339 17 1 30.98090855569152 27.96786148929489 30.71039009105948 0 0 0
327 17 1 28.51637879699521 28.890028098319096 31.754549102764415 0 0 0
330 17 1 29.3092811300772 29.262368527928654 31.09483218824957 0 0 0
332 17 1 30.116791027280836 29.44649168474101 30.357873578059323 0 0 0
333 17 1 30.27783886935423 28.74421365927698 31.053161567223274 0 0 0
336 17 1 30.818155168660113 29.70075867632603 31.177113848173406 0 0 0
335 17 1 31.772386932748084 29.437728504216924 31.31807618822521 0 0 0
337 17 1 31.157494761282475 29.0756425455076 30.473133372239275 0 0 0
165 9 1 10.090480423767788 47.831232466315996 31.437440393534192 0 0 0
163 9 1 10.781376258646851 47.7989373703665 30.15705860294043 0 0 0
164 9 1 10.276447190344651 47.17187259606075 30.74269470900805 0 0 0
116 6 1 19.430548613329975 46.013258873700345 31.276797716747737 0 0 0
117 6 1 18.46366531667112 45.81757543437314 31.102505308022796 0 0 0
169 9 1 10.671882489306121 48.775927191554366 31.573074141397573 0 0 0
170 9 1 10.226480525398694 48.59757809872667 30.70336708815126 0 0 0
101 6 1 17.986821761515888 46.81454712777523 31.290743281027446 0 0 0
171 9 1 9.568551785522445 48.78250092243547 31.44430665027526 0 0 0
478 24 1 30.52030341100737 12.873143809978338 31.148433093091434 0 0 0
479 24 1 31.10390110718442 12.372712702401737 30.507453463879287 0 0 0
477 24 1 31.452873094405415 12.775461647503217 31.492791803776132 0 0 0
475 24 1 30.093949139864613 13.661373201925311 31.82728061475978 0 0 0
476 24 1 31.075361177691835 13.666750083705809 31.69032502607353 0 0 0
467 24 1 32.019828193710886 13.349108519158984 32.23835034503805 0 0 0
466 24 1 32.566662059243754 12.74451263301608 31.653964242606396 0 0 0
227 12 1 19.0186290683966 24.81235376939401 32.60598047905814 0 0 0
228 12 1 18.046809552995057 24.96595134740946 32.794414783887696 0 0 0
229 12 1 18.614630068700105 25.76433800431347 33.00379261662694 0 0 0
323 17 1 27.58653541854678 28.49308144978155 32.169006925258884 0 0 0
324 17 1 26.956842098886433 29.07111415817268 31.654291310283533 0 0 0
325 17 1 27.747249853643567 29.320441289979406 31.099072820580258 0 0 0
326 17 1 27.86541126842277 29.57568639740869 32.05638346474664 0 0 0
334 17 1 31.147817733922707 28.69080028952895 31.530164357979892 0 0 0
241 13 1 9.716526618868135 46.7896511677007 31.63600727735307 0 0 0
242 13 1 10.134096019131622 47.29870463197559 32.35719758310819 0 0 0
115 6 1 19.03983325279133 45.36315097041063 31.93663954007993 0 0 0
166 9 1 9.297619107023282 47.889461511834185 32.018900023418325 0 0 0
167 9 1 10.045094582318518 48.396024155345884 32.41337891345263 0 0 0
104 6 1 17.98843885292843 46.885045748958085 32.41145127645537 0 0 0
105 6 1 18.715046495649656 46.4004122466459 31.969801337636294 0 0 0
114 6 1 19.640054857634528 46.01796454299237 32.38540032694081 0 0 0
113 6 1 19.67141420855706 46.90779838867544 31.94207328468722 0 0 0
168 9 1 10.932098291493448 48.024753955959994 32.16039316010217 0 0 0
102 6 1 18.944241176730422 47.038133884803194 31.129934803455694 0 0 0
103 6 1 18.683876512923142 47.48078112403621 31.987162213643145 0 0 0
239 12 1 16.875938953129268 26.15430532640577 33.29870217012443 0 0 0
231 12 1 17.928077946088337 26.54734492410409 33.39009424923515 0 0 0
230 12 1 17.739251801136323 26.006368928427314 32.58966709161135 0 0 0
243 13 1 9.249158324945112 46.986804994338975 32.65758397176969 0 0 0
244 13 1 9.676270827057719 46.093931093465194 32.50361183750838 0 0 0
106 6 1 17.99388027887436 45.771897109041795 32.13982118480418 0 0 0
107 6 1 18.654682513473283 45.84388923641199 32.897268882274126 0 0 0
108 6 1 19.414567255126887 46.22261162595375 33.44492333388362 0 0 0
109 6 1 18.988203926304095 46.89174339080088 32.869897032724566 0 0 0
112 6 1 20.102837627092377 46.909835128678715 32.83800580964074 0 0 0
110 6 1 19.45324834781374 47.393578203632664 33.58071631602845 0 0 0
111 6 1 19.598870566183457 47.758258734921384 32.65262179718107 0 0 0
260 13 1 12.442284941590602 49.02354819396588 34.45739963274958 0 0 0
240 12 1 16.97737717036841 25.267763388542072 32.85227762148012 0 0 0
235 12 1 17.340978878745165 25.483750163952514 34.6600931936717 0 0 0
232 12 1 17.735370249276084 25.590680001722117 33.629371257632336 0 0 0
236 12 1 16.817592702711785 25.078066866146738 33.91821893491978 0 0 0
237 12 1 16.360021957969476 25.891544741783214 34.252577750584884 0 0 0
238 12 1 16.036697804734494 25.622919448314825 33.34524940511433 0 0 0
234 12 1 17.33279478991626 26.405000162059544 34.293102076781956 0 0 0
233 12 1 18.268602204321425 26.04666602454316 34.32198117131581 0 0 0
246 13 1 10.720900541211904 46.411055731125735 32.53159948348156 0 0 0
245 13 1 10.36788282967994 45.71334919325571 33.14810217217674 0 0 0
247 13 1 10.106656075257673 46.742394162530985 33.26288095937788 0 0 0
251 13 1 11.16353063977844 46.53413189289013 33.540744149436804 0 0 0
252 13 1 10.992996096392204 47.35700654706981 33.0218961066823 0 0 0
253 13 1 11.40790171713412 47.86605279439901 33.75840939130284 0 0 0
254 13 1 10.83075403862991 48.43092237599621 33.1746286681729 0 0 0
255 13 1 10.444484538853507 48.39445656472745 34.084694772199455 0 0 0
256 13 1 10.79349656820216 49.299068001276154 33.86807990845443 0 0 0
257 13 1 11.691148904579853 48.932256025150856 33.6414726233864 0 0 0
258 13 1 11.403115532510359 48.6382210085195 34.55306851532211 0 0 0
259 13 1 11.6346895641904 49.60887713124604 34.53359609515517 0 0 0
248 13 1 9.985618539770366 47.72315137537216 33.33512919022172 0 0 0
249 13 1 10.530273417165493 47.300249926855045 34.07149099429065 0 0 0
250 13 1 10.448925079092357 46.30269481210031 34.18971129200574 0 0 0
484 25 1 21.70600005050803 41.815281838515645 39.207467051659904 0 0 0
486 25 1 22.684813509114136 41.28443408549365 38.96557315875319 0 0 0
485 25 1 22.478098598353792 42.22405375375456 38.706274577649026 0 0 0
488 25 1 23.21257668137368 41.20595972448892 39.99886197057276 0 0 0
481 25 1 22.004567623011887 42.84231020535909 39.54143456836231 0 0 0
482 25 1 22.592862448608418 42.08698796904695 39.76431071364774 0 0 0
483 25 1 22.12559816192797 41.21977494389497 39.88941609629409 0 0 0
487 25 1 23.48580931688155 41.80239305491681 39.22730374397743 0 0 0
149 8 1 44.82489593713894 16.29593595225994 41.773007942260485 0 0 0
150 8 1 45.771087746052686 15.947945382698453 41.674095299240335 0 0 0
151 8 1 45.211029084350535 15.455451643424489 42.33104406179821 0 0 0
489 25 1 23.56492124078003 42.08446909369528 40.28746248062384 0 0 0
490 25 1 23.36123704636742 42.81866971111326 40.90719877782607 0 0 0
492 25 1 22.304260009827967 42.800024873791045 40.61098754455524 0 0 0
493 25 1 21.644907226525792 42.10441767118141 40.3380517016893 0 0 0
491 25 1 23.045374050136104 43.03749879611214 39.98529384498952 0 0 0
147 8 1 44.13399420502622 15.422201542710615 42.07836085517837 0 0 0
148 8 1 44.41890254814711 16.153829296008325 42.68120929099731 0 0 0
152 8 1 45.50936300417134 16.35332710184462 42.64851789056548 0 0 0
153 8 1 45.16480388861189 15.865659922733606 43.42313262450064 0 0 0
154 8 1 45.65476736680935 15.024564582432578 43.259718401582624 0 0 0
155 8 1 46.24653653089138 15.397428625689983 42.54902618293334 0 0 0
156 8 1 46.26114548136196 15.974316380659408 43.35477598486625 0 0 0
159 8 1 46.55475600100455 16.431597364432704 42.34561941798575 0 0 0
139 7 1 25.89734488038714 38.13063218047184 43.1546516644023 0 0 0
500 25 1 22.490851956943274 41.323499661781966 41.77945317876134 0 0 0
498 25 1 21.85894648723409 41.1303163796657 40.921465814024764 0 0 0
499 25 1 22.792700296273168 40.760121480039246 40.99794852073448 0 0 0
497 25 1 22.60785737025535 41.773348876600636 40.76101250529804 0 0 0
496 25 1 23.395412345019945 41.775725148105266 41.3412981341103 0 0 0
494 25 1 21.75885081359899 42.14473345255939 41.33632534281588 0 0 0
495 25 1 22.669354767258362 42.40897927988421 41.64186027365483 0 0 0
143 8 1 44.54649705258473 15.025500183015719 43.03603871937819 0 0 0
40 2 1 34.61506733831656 15.785053367569093 44.91089747183597 0 0 0
145 8 1 44.09398754381997 15.775481707436377 43.69291116189606 0 0 0
146 8 1 43.55893899649176 15.487678104590882 42.89752386749067 0 0 0
160 8 1 47.22611779776363 15.717257852018067 42.1690403655532 0 0 0
39 2 1 33.768086131221644 16.119867310043215 44.5030526385804 0 0 0
157 8 1 47.0853762623817 15.42525774390231 43.25069019184209 0 0 0
158 8 1 47.24604550803656 16.391227708911565 43.06057841887743 0 0 0
140 7 1 26.035363967751707 37.297484665495496 43.68553277878731 0 0 0
137 7 1 26.734743436848518 37.89704387621907 44.31052422249051 0 0 0
138 7 1 25.83996167654711 38.30354730411983 44.13160438579771 0 0 0
136 7 1 26.96824481118186 37.8140084258955 43.349539585023315 0 0 0
134 7 1 27.429897757778704 38.79341097136332 44.24410419137681 0 0 0
135 7 1 26.702915029448107 38.73858879186168 43.57306634482919 0 0 0
122 7 1 25.895260528110377 39.40114433719454 43.921839498823815 0 0 0
133 7 1 26.5583181330405 38.90438109004603 44.69874665617428 0 0 0
121 7 1 26.837682699258895 39.72527347248619 43.99617142018764 0 0 0
142 8 1 44.87904080707294 14.253124742868867 43.55400855337293 0 0 0
141 8 1 44.88882415485703 15.074886440623713 44.11328531830698 0 0 0
37 2 1 34.28516713569931 16.123014763122992 45.92028872481125 0 0 0
38 2 1 33.60154181124188 15.6590146728279 45.37036306294862 0 0 0
144 8 1 43.880890083425676 14.798327721737701 43.73141545137391 0 0 0
35 2 1 33.30276072112326 16.71803440537973 45.318113569624536 0 0 0
36 2 1 34.284114140629846 16.811330289881315 45.2065033036412 0 0 0
21 2 1 32.795248841925016 18.94731345789299 45.698090012718644 0 0 0
22 2 1 31.815596254287225 19.13520908658854 45.79399202201899 0 0 0
132 7 1 27.194785069095037 39.595249107301036 45.0376870804051 0 0 0
123 7 1 25.225107680847536 40.03992432640554 44.30747235061595 0 0 0
124 7 1 26.081531855834843 40.50933386581678 44.11511304168043 0 0 0
125 7 1 26.14048609514897 39.876176058765445 44.87968750630728 0 0 0
131 7 1 27.033501634176655 40.526302519036605 44.71499285024118 0 0 0
126 7 1 25.67158338182384 40.697204751201845 45.14803081014214 0 0 0
127 7 1 26.317925378590683 41.354374928420455 44.785495012584036 0 0 0
33 2 1 33.245887439427285 16.181091447985594 46.28773856153453 0 0 0
32 2 1 33.03212872757107 16.850030238568635 46.99034548805098 0 0 0
28 2 1 31.64553034711138 17.30113553840835 46.527757422250765 0 0 0
31 2 1 32.62871571771097 17.08753908491166 46.10244398284942 0 0 0
34 2 1 33.73024360775498 17.05067315847207 46.15396423888914 0 0 0
25 2 1 31.268946044459337 18.320274159356234 46.3429585459725 0 0 0
23 2 1 32.22044042783137 18.793841012611793 46.639051231134154 0 0 0
24 2 1 32.14619804827355 18.082389791791314 45.9314499792014 0 0 0
130 7 1 26.67267433589863 40.43771102452281 45.63405024383496 0 0 0
129 7 1 26.25641884759409 41.30357046904008 45.890535122163435 0 0 0
128 7 1 27.111252800636862 41.42263783433601 45.383155234132694 0 0 0
29 2 1 31.974265546427475 16.872093824467285 47.35773383185128 0 0 0
30 2 1 32.16647808373687 16.32338707050466 46.54207481354737 0 0 0
27 2 1 32.441629869659444 17.7678758309469 46.93706399272008 0 0 0
26 2 1 31.574953765591072 18.10783148866966 47.270117105818336 0 0 0
443 23 1 31.826543680796732 29.082232790324934 49.627055748030585 0 0 0
441 23 1 31.9289372923675 28.918770764174926 48.53266731497935 0 0 0
446 23 1 30.93660404401622 29.180778430132445 48.95351714028079 0 0 0
445 23 1 30.80805584596017 30.16732631227346 49.00608049684866 0 0 0
442 23 1 31.863151669446776 29.819865202210504 48.95922491956133 0 0 0
448 23 1 30.80823232600694 28.757257962920587 49.965031262991594 0 0 0
447 23 1 30.18848794100571 29.426165424964424 49.56864288633498 0 0 0
444 23 1 31.191011420686678 29.812602275936047 49.85553835743588 0 0 0
454 23 1 32.59059259634446 28.014927215953676 50.926285436666944 0 0 0
450 23 1 31.7142801275836 28.21389486700853 50.29480377385687 0 0 0
451 23 1 30.905799205073645 28.11243971826984 50.86717531110536 0 0 0
452 23 1 31.676937668283816 28.360391726887496 51.44549990230713 0 0 0
453 23 1 31.783978524089886 27.438782837664387 51.07901545754119 0 0 0
449 23 1 31.429406409978373 29.09524300183553 50.66636853852943 0 0 0
455 23 1 32.4921171264465 27.74910277758481 51.88158650214875 0 0 0
457 23 1 33.51585477090986 27.622252051739558 51.37689124234173 0 0 0
456 23 1 32.76441698255932 26.971543611273884 51.320531129097425 0 0 0
458 23 1 33.361255308552515 27.168111371544924 52.25281987587096 0 0 0
459 23 1 33.40524956722163 28.165194645001332 52.341611704813054 0 0 0
460 23 1 34.30208749266934 27.76611701229879 52.15565299925819 0 0 0

Velocities

183 0 0 0
303 0 0 0
302 0 0 0
301 0 0 0
184 0 0 0
185 0 0 0
186 0 0 0
181 0 0 0
182 0 0 0
318 0 0 0
317 0 0 0
316 0 0 0
304 0 0 0
305 0 0 0
309 0 0 0
306 0 0 0
192 0 0 0
190 0 0 0
191 0 0 0
189 0 0 0
187 0 0 0
188 0 0 0
360 0 0 0
319 0 0 0
320 0 0 0
315 0 0 0
299 0 0 0
313 0 0 0
314 0 0 0
311 0 0 0
312 0 0 0
310 0 0 0
308 0 0 0
307 0 0 0
193 0 0 0
194 0 0 0
355 0 0 0
356 0 0 0
357 0 0 0
358 0 0 0
359 0 0 0
297 0 0 0
296 0 0 0
298 0 0 0
300 0 0 0
198 0 0 0
199 0 0 0
200 0 0 0
195 0 0 0
197 0 0 0
196 0 0 0
353 0 0 0
354 0 0 0
295 0 0 0
294 0 0 0
89 0 0 0
86 0 0 0
87 0 0 0
90 0 0 0
91 0 0 0
92 0 0 0
94 0 0 0
16 0 0 0
345 0 0 0
342 0 0 0
343 0 0 0
344 0 0 0
351 0 0 0
341 0 0 0
352 0 0 0
202 0 0 0
201 0 0 0
290 0 0 0
293 0 0 0
292 0 0 0
85 0 0 0
84 0 0 0
88 0 0 0
93 0 0 0
95 0 0 0
96 0 0 0
100 0 0 0
99 0 0 0
17 0 0 0
18 0 0 0
19 0 0 0
20 0 0 0
14 0 0 0
15 0 0 0
346 0 0 0
347 0 0 0
348 0 0 0
349 0 0 0
350 0 0 0
61 0 0 0
203 0 0 0
204 0 0 0
365 0 0 0
368 0 0 0
366 0 0 0
367 0 0 0
65 0 0 0
205 0 0 0
207 0 0 0
208 0 0 0
210 0 0 0
209 0 0 0
70 0 0 0
67 0 0 0
206 0 0 0
372 0 0 0
69 0 0 0
68 0 0 0
286 0 0 0
287 0 0 0
288 0 0 0
289 0 0 0
291 0 0 0
83 0 0 0
81 0 0 0
82 0 0 0
97 0 0 0
98 0 0 0
8 0 0 0
9 0 0 0
10 0 0 0
11 0 0 0
12 0 0 0
6 0 0 0
13 0 0 0
5 0 0 0
4 0 0 0
3 0 0 0
1 0 0 0
2 0 0 0
406 0 0 0
407 0 0 0
408 0 0 0
62 0 0 0
63 0 0 0
361 0 0 0
362 0 0 0
363 0 0 0
364 0 0 0
64 0 0 0
211 0 0 0
212 0 0 0
215 0 0 0
369 0 0 0
370 0 0 0
66 0 0 0
371 0 0 0
373 0 0 0
283 0 0 0
284 0 0 0
72 0 0 0
73 0 0 0
71 0 0 0
428 0 0 0
374 0 0 0
375 0 0 0
285 0 0 0
421 0 0 0
376 0 0 0
377 0 0 0
378 0 0 0
379 0 0 0
380 0 0 0
393 0 0 0
394 0 0 0
395 0 0 0
397 0 0 0
7 0 0 0
57 0 0 0
56 0 0 0
58 0 0 0
59 0 0 0
60 0 0 0
46 0 0 0
401 0 0 0
402 0 0 0
403 0 0 0
404 0 0 0
405 0 0 0
409 0 0 0
410 0 0 0
214 0 0 0
279 0 0 0
213 0 0 0
218 0 0 0
219 0 0 0
220 0 0 0
216 0 0 0
217 0 0 0
281 0 0 0
282 0 0 0
426 0 0 0
74 0 0 0
75 0 0 0
80 0 0 0
427 0 0 0
423 0 0 0
424 0 0 0
429 0 0 0
431 0 0 0
383 0 0 0
78 0 0 0
422 0 0 0
430 0 0 0
382 0 0 0
381 0 0 0
390 0 0 0
392 0 0 0
391 0 0 0
398 0 0 0
396 0 0 0
54 0 0 0
55 0 0 0
49 0 0 0
47 0 0 0
48 0 0 0
45 0 0 0
44 0 0 0
420 0 0 0
411 0 0 0
412 0 0 0
413 0 0 0
280 0 0 0
425 0 0 0
277 0 0 0
278 0 0 0
76 0 0 0
77 0 0 0
79 0 0 0
434 0 0 0
385 0 0 0
384 0 0 0
273 0 0 0
432 0 0 0
433 0 0 0
386 0 0 0
387 0 0 0
388 0 0 0
271 0 0 0
272 0 0 0
389 0 0 0
399 0 0 0
400 0 0 0
53 0 0 0
50 0 0 0
51 0 0 0
52 0 0 0
43 0 0 0
41 0 0 0
42 0 0 0
419 0 0 0
418 0 0 0
414 0 0 0
415 0 0 0
436 0 0 0
275 0 0 0
437 0 0 0
439 0 0 0
440 0 0 0
435 0 0 0
438 0 0 0
274 0 0 0
276 0 0 0
268 0 0 0
269 0 0 0
270 0 0 0
265 0 0 0
267 0 0 0
264 0 0 0
266 0 0 0
416 0 0 0
417 0 0 0
262 0 0 0
263 0 0 0
176 0 0 0
177 0 0 0
178 0 0 0
180 0 0 0
174 0 0 0
462 0 0 0
463 0 0 0
221 0 0 0
222 0 0 0
223 0 0 0
340 0 0 0
331 0 0 0
261 0 0 0
119 0 0 0
120 0 0 0
118 0 0 0
173 0 0 0
162 0 0 0
161 0 0 0
179 0 0 0
175 0 0 0
172 0 0 0
480 0 0 0
464 0 0 0
465 0 0 0
468 0 0 0
469 0 0 0
470 0 0 0
461 0 0 0
472 0 0 0
473 0 0 0
474 0 0 0
471 0 0 0
225 0 0 0
226 0 0 0
224 0 0 0
322 0 0 0
321 0 0 0
328 0 0 0
329 0 0 0
338 0 0 0
339 0 0 0
327 0 0 0
330 0 0 0
332 0 0 0
333 0 0 0
336 0 0 0
335 0 0 0
337 0 0 0
165 0 0 0
163 0 0 0
164 0 0 0
116 0 0 0
117 0 0 0
169 0 0 0
170 0 0 0
101 0 0 0
171 0 0 0
478 0 0 0
479 0 0 0
477 0 0 0
475 0 0 0
476 0 0 0
467 0 0 0
466 0 0 0
227 0 0 0
228 0 0 0
229 0 0 0
323 0 0 0
324 0 0 0
325 0 0 0
326 0 0 0
334 0 0 0
241 0 0 0
242 0 0 0
115 0 0 0
166 0 0 0
167 0 0 0
104 0 0 0
105 0 0 0
114 0 0 0
113 0 0 0
168 0 0 0
102 0 0 0
103 0 0 0
239 0 0 0
231 0 0 0
230 0 0 0
243 0 0 0
244 0 0 0
106 0 0 0
107 0 0 0
108 0 0 0
109 0 0 0
112 0 0 0
110 0 0 0
111 0 0 0
260 0 0 0
240 0 0 0
235 0 0 0
232 0 0 0
236 0 0 0
237 0 0 0
238 0 0 0
234 0 0 0
233 0 0 0
246 0 0 0
245 0 0 0
247 0 0 0
251 0 0 0
252 0 0 0
253 0 0 0
254 0 0 0
255 0 0 0
256 0 0 0
257 0 0 0
258 0 0 0
259 0 0 0
248 0 0 0
249 0 0 0
250 0 0 0
484 0 0 0
486 0 0 0
485 0 0 0
488 0 0 0
481 0 0 0
482 0 0 0
483 0 0 0
487 0 0 0
149 0 0 0
150 0 0 0
151 0 0 0
489 0 0 0
490 0 0 0
492 0 0 0
493 0 0 0
491 0 0 0
147 0 0 0
148 0 0 0
152 0 0 0
153 0 0 0
154 0 0 0
155 0 0 0
156 0 0 0
159 0 0 0
139 0 0 0
500 0 0 0
498 0 0 0
499 0 0 0
497 0 0 0
496 0 0 0
494 0 0 0
495 0 0 0
143 0 0 0
40 0 0 0
145 0 0 0
146 0 0 0
160 0 0 0
39 0 0 0
157 0 0 0
158 0 0 0
140 0 0 0
137 0 0 0
138 0 0 0
136 0 0 0
134 0 0 0
135 0 0 0
122 0 0 0
133 0 0 0
121 0 0 0
142 0 0 0
141 0 0 0
37 0 0 0
38 0 0 0
144 0 0 0
35 0 0 0
36 0 0 0
21 0 0 0
22 0 0 0
132 0 0 0
123 0 0 0
124 0 0 0
125 0 0 0
131 0 0 0
126 0 0 0
127 0 0 0
33 0 0 0
32 0 0 0
28 0 0 0
31 0 0 0
34 0 0 0
25 0 0 0
23 0 0 0
24 0 0 0
130 0 0 0
129 0 0 0
128 0 0 0
29 0 0 0
30 0 0 0
27 0 0 0
26 0 0 0
443 0 0 0
441 0 0 0
446 0 0 0
445 0 0 0
442 0 0 0
448 0 0 0
447 0 0 0
444 0 0 0
454 0 0 0
450 0 0 0
451 0 0 0
452 0 0 0
453 0 0 0
449 0 0 0
455 0 0 0
457 0 0 0
456 0 0 0
458 0 0 0
459 0 0 0
460 0 0 0

Bonds

1 1 183 184
2 1 303 304
3 1 302 303
4 1 301 302
5 1 184 185
6 1 185 186
7 1 186 187
8 1 181 182
9 1 182 183
10 1 318 319
11 1 317 318
12 1 316 317
13 1 304 305
14 1 305 306
15 1 309 310
16 1 306 307
17 1 192 193
18 1 190 191
19 1 191 192
20 1 189 190
21 1 187 188
22 1 188 189
23 1 319 320
24 1 315 316
25 1 299 300
26 1 313 314
27 1 314 315
28 1 311 312
29 1 312 313
30 1 310 311
31 1 308 309
32 1 307 308
33 1 193 194
34 1 194 195
35 1 355 356
36 1 356 357
37 1 357 358
38 1 358 359
39 1 359 360
40 1 297 298
41 1 296 297
42 1 298 299
43 1 198 199
44 1 199 200
45 1 195 196
46 1 197 198
47 1 196 197
48 1 353 354
49 1 354 355
50 1 295 296
51 1 294 295
52 1 89 90
53 1 86 87
54 1 87 88
55 1 90 91
56 1 91 92
57 1 92 93
58 1 94 95
59 1 16 17
60 1 345 346
61 1 342 343
62 1 343 344
63 1 344 345
64 1 351 352
65 1 341 342
66 1 352 353
67 1 202 203
68 1 201 202
69 1 290 291
70 1 293 294
71 1 292 293
72 1 85 86
73 1 84 85
74 1 88 89
75 1 93 94
76 1 95 96
77 1 96 97
78 1 99 100
79 1 17 18
80 1 18 19
81 1 19 20
82 1 14 15
83 1 15 16
84 1 346 347
85 1 347 348
86 1 348 349
87 1 349 350
88 1 350 351
89 1 61 62
90 1 203 204
91 1 204 205
92 1 365 366
93 1 368 369
94 1 366 367
95 1 367 368
96 1 65 66
97 1 205 206
98 1 207 208
99 1 208 209
100 1 210 211
101 1 209 210
102 1 70 71
103 1 67 68
104 1 206 207
105 1 372 373
106 1 69 70
107 1 68 69
108 1 286 287
109 1 287 288
110 1 288 289
111 1 289 290
112 1 291 292
113 1 83 84
114 1 81 82
115 1 82 83
116 1 97 98
117 1 98 99
118 1 8 9
119 1 9 10
120 1 10 11
121 1 11 12
122 1 12 13
123 1 6 7
124 1 13 14
125 1 5 6
126 1 4 5
127 1 3 4
128 1 1 2
129 1 2 3
130 1 406 407
131 1 407 408
132 1 408 409
133 1 62 63
134 1 63 64
135 1 361 362
136 1 362 363
137 1 363 364
138 1 364 365
139 1 64 65
140 1 211 212
141 1 212 213
142 1 215 216
143 1 369 370
144 1 370 371
145 1 66 67
146 1 371 372
147 1 373 374
148 1 283 284
149 1 284 285
150 1 72 73
151 1 73 74
152 1 71 72
153 1 428 429
154 1 374 375
155 1 375 376
156 1 285 286
157 1 421 422
158 1 376 377
159 1 377 378
160 1 378 379
161 1 379 380
162 1 393 394
163 1 394 395
164 1 395 396
165 1 397 398
166 1 7 8
167 1 57 58
168 1 56 57
169 1 58 59
170 1 59 60
171 1 46 47
172 1 401 402
173 1 402 403
174 1 403 404
175 1 404 405
176 1 405 406
177 1 409 410
178 1 410 411
179 1 214 215
180 1 279 280
181 1 213 214
182 1 218 219
183 1 219 220
184 1 216 217
185 1 217 218
186 1 281 282
187 1 282 283
188 1 426 427
189 1 74 75
190 1 75 76
191 1 427 428
192 1 423 424
193 1 424 425
194 1 429 430
195 1 431 432
196 1 383 384
197 1 78 79
198 1 422 423
199 1 430 431
200 1 382 383
201 1 381 382
202 1 390 391
203 1 392 393
204 1 391 392
205 1 398 399
206 1 396 397
207 1 54 55
208 1 55 56
209 1 49 50
210 1 47 48
211 1 48 49
212 1 45 46
213 1 44 45
214 1 411 412
215 1 412 413
216 1 413 414
217 1 425 426
218 1 277 278
219 1 278 279
220 1 76 77
221 1 77 78
222 1 79 80
223 1 434 435
224 1 385 386
225 1 384 385
226 1 273 274
227 1 432 433
228 1 433 434
229 1 386 387
230 1 387 388
231 1 388 389
232 1 271 272
233 1 272 273
234 1 389 390
235 1 399 400
236 1 53 54
237 1 50 51
238 1 51 52
239 1 52 53
240 1 43 44
241 1 41 42
242 1 42 43
243 1 419 420
244 1 418 419
245 1 414 415
246 1 415 416
247 1 436 437
248 1 275 276
249 1 437 438
250 1 439 440
251 1 435 436
252 1 438 439
253 1 274 275
254 1 276 277
255 1 268 269
256 1 269 270
257 1 270 271
258 1 265 266
259 1 267 268
260 1 264 265
261 1 266 267
262 1 416 417
263 1 417 418
264 1 262 263
265 1 263 264
266 1 176 177
267 1 177 178
268 1 178 179
269 1 174 175
270 1 462 463
271 1 463 464
272 1 221 222
273 1 222 223
274 1 223 224
275 1 331 332
276 1 261 262
277 1 119 120
278 1 118 119
279 1 173 174
280 1 162 163
281 1 161 162
282 1 179 180
283 1 175 176
284 1 172 173
285 1 464 465
286 1 465 466
287 1 468 469
288 1 469 470
289 1 470 471
290 1 461 462
291 1 472 473
292 1 473 474
293 1 474 475
294 1 471 472
295 1 225 226
296 1 226 227
297 1 224 225
298 1 322 323
299 1 321 322
300 1 328 329
301 1 329 330
302 1 338 339
303 1 339 340
304 1 327 328
305 1 330 331
306 1 332 333
307 1 333 334
308 1 336 337
309 1 335 336
310 1 337 338
311 1 165 166
312 1 163 164
313 1 164 165
314 1 116 117
315 1 117 118
316 1 169 170
317 1 170 171
318 1 101 102
319 1 171 172
320 1 478 479
321 1 479 480
322 1 477 478
323 1 475 476
324 1 476 477
325 1 467 468
326 1 466 467
327 1 227 228
328 1 228 229
329 1 229 230
330 1 323 324
331 1 324 325
332 1 325 326
333 1 326 327
334 1 334 335
335 1 241 242
336 1 242 243
337 1 115 116
338 1 166 167
339 1 167 168
340 1 104 105
341 1 105 106
342 1 114 115
343 1 113 114
344 1 168 169
345 1 102 103
346 1 103 104
347 1 239 240
348 1 231 232
349 1 230 231
350 1 243 244
351 1 244 245
352 1 106 107
353 1 107 108
354 1 108 109
355 1 109 110
356 1 112 113
357 1 110 111
358 1 111 112
359 1 235 236
360 1 232 233
361 1 236 237
362 1 237 238
363 1 238 239
364 1 234 235
365 1 233 234
366 1 246 247
367 1 245 246
368 1 247 248
369 1 251 252
370 1 252 253
371 1 253 254
372 1 254 255
373 1 255 256
374 1 256 257
375 1 257 258
376 1 258 259
377 1 259 260
378 1 248 249
379 1 249 250
380 1 250 251
381 1 484 485
382 1 486 487
383 1 485 486
384 1 488 489
385 1 481 482
386 1 482 483
387 1 483 484
388 1 487 488
389 1 149 150
390 1 150 151
391 1 151 152
392 1 489 490
393 1 490 491
394 1 492 493
395 1 493 494
396 1 491 492
397 1 147 148
398 1 148 149
399 1 152 153
400 1 153 154
401 1 154 155
402 1 155 156
403 1 156 157
404 1 159 160
405 1 139 140
406 1 498 499
407 1 499 500
408 1 497 498
409 1 496 497
410 1 494 495
411 1 495 496
412 1 143 144
413 1 145 146
414 1 146 147
415 1 39 40
416 1 157 158
417 1 158 159
418 1 137 138
419 1 138 139
420 1 136 137
421 1 134 135
422 1 135 136
423 1 122 123
424 1 133 134
425 1 121 122
426 1 142 143
427 1 141 142
428 1 37 38
429 1 38 39
430 1 144 145
431 1 35 36
432 1 36 37
433 1 21 22
434 1 22 23
435 1 132 133
436 1 123 124
437 1 124 125
438 1 125 126
439 1 131 132
440 1 126 127
441 1 127 128
442 1 33 34
443 1 32 33
444 1 28 29
445 1 31 32
446 1 34 35
447 1 25 26
448 1 23 24
449 1 24 25
450 1 130 131
451 1 129 130
452 1 128 129
453 1 29 30
454 1 30 31
455 1 27 28
456 1 26 27
457 1 443 444
458 1 441 442
459 1 446 447
460 1 445 446
461 1 442 443
462 1 448 449
463 1 447 448
464 1 444 445
465 1 454 455
466 1 450 451
467 1 451 452
468 1 452 453
469 1 453 454
470 1 449 450
471 1 455 456
472 1 457 458
473 1 456 457
474 1 458 459
475 1 459 460
