LAMMPS data file via write_data, version 30 Mar 2026, timestep = 50000, units = lj

500 atoms
1 atom types
475 bonds
1 bond types

-77.3541139802069 137.35411398020773 xlo xhi
-77.3541139802069 137.35411398020773 ylo yhi
-77.3541139802069 137.35411398020773 zlo zhi

Masses

1 1

Pair Coeffs # lj/cut

1 1 1

Bond Coeffs # harmonic

1 100 1

Atoms # bond

294 15 1 38.87626648923248 -52.8624991289023 -64.50917756332682 0 1 0
289 15 1 39.238922095552994 -52.423965092975855 -62.79466425205076 0 1 0
296 15 1 37.80847971983897 -53.37747128819693 -64.21014261091663 0 1 0
291 15 1 38.24320720638882 -52.77219300993421 -62.51845311499848 0 1 0
292 15 1 37.71753254341613 -52.55080188192176 -63.36919484650199 0 1 0
295 15 1 38.683830437454404 -53.370320425798376 -63.70237543080559 0 1 0
286 15 1 39.499389799066535 -51.65731645117857 -63.77969954332015 0 1 0
290 15 1 38.433018298001784 -51.82507098272026 -62.854257964922205 0 1 0
293 15 1 38.516416640953025 -52.27754506382102 -63.87289331762526 0 1 0
281 15 1 38.74996588936823 -52.656811544731795 -65.68958591265205 0 1 0
288 15 1 39.36427823594698 -51.47387650217837 -62.625911977977296 0 1 0
298 15 1 39.251066605967935 -53.78913246235285 -64.88307853101607 0 1 0
297 15 1 38.41231656231189 -54.22004301878302 -64.36679290906197 0 1 0
287 15 1 40.06216049667947 -51.04297198507628 -63.141608709393026 0 1 0
285 15 1 39.14990470795705 -51.13983598647221 -64.51871440765012 0 1 0
282 15 1 38.26061905220064 -53.43782384185354 -65.30754921204607 0 1 0
283 15 1 38.011619221776556 -52.46002127720637 -64.89357064158295 0 1 0
284 15 1 38.64457123708908 -51.83615692483414 -64.92254466359998 0 1 0
299 15 1 39.731236350742535 -53.327714545777305 -65.4996457761548 0 1 0
300 15 1 39.24821471390031 -54.207295034962186 -65.82510017743934 0 1 0
103 6 1 5.227787244220579 113.93077081803901 -54.417173114407376 -1 0 -2
104 6 1 5.286697729462702 113.90184946639738 -53.44290200689342 -1 0 -2
106 6 1 6.5510788025531355 113.51765871873036 -54.48173150700221 -1 0 -2
105 6 1 5.96189833256463 113.1076987259477 -53.736734943155994 -1 0 -2
113 6 1 6.980748265248806 112.20729940636588 -55.56306467295768 -1 0 -2
114 6 1 7.547287819936557 112.56902497487059 -54.907967796473756 -1 0 -2
118 6 1 8.459659321794774 113.17628082553486 -55.15295477053361 -1 0 -2
117 6 1 7.8790580561936 113.73878697551743 -54.565216237644215 -1 0 -2
116 6 1 7.215587576576382 114.27730726699102 -55.03779719988249 -1 0 -2
107 6 1 6.209372106214417 112.69904908776203 -54.815006099359316 -1 0 -2
108 6 1 5.946999872999228 113.45869052876009 -55.37954869307652 -1 0 -2
102 6 1 5.875901758986657 114.68274377768219 -54.277793071871855 -1 0 -2
101 6 1 6.416917528553952 114.17762104181554 -53.65981958612614 -1 0 -2
115 6 1 7.291341804663645 113.32860151687956 -55.45645308119771 -1 0 -2
109 6 1 6.509215972171134 113.6830791382535 -56.233425330744495 -1 0 -2
111 6 1 7.734967118882679 113.25885105921748 -56.44152467725041 -1 0 -2
110 6 1 6.908914352265711 112.79270528246437 -56.40075496193944 -1 0 -2
112 6 1 7.945497984570807 112.51569241470196 -55.9252357687198 -1 0 -2
119 6 1 8.410452704148426 113.89827181806587 -55.946252914161505 -1 0 -2
120 6 1 7.478238028036031 114.32123674032226 -56.139214455099015 -1 0 -2
146 8 1 98.14519002183508 -52.927996585761164 -22.097578561703394 2 0 1
160 8 1 96.49797960809724 -52.94740545834365 -20.564723590190262 2 0 1
159 8 1 97.31235384017987 -52.38997504279434 -20.49853433711902 2 0 1
142 8 1 97.5833847063262 -53.44731975073147 -20.278640020431084 2 0 1
143 8 1 98.4633468899001 -52.904865179912775 -20.255923971112786 2 0 1
155 8 1 96.0766238247779 -53.53958257991927 -21.635398841861992 2 0 1
144 8 1 99.0866999079729 -52.635969202573506 -20.96896697676626 2 0 1
145 8 1 98.19463931771523 -52.3961018066652 -21.331412864620297 2 0 1
153 8 1 96.89424302780915 -54.17998594551887 -22.26463321377713 2 0 1
158 8 1 97.23059922400046 -53.111104411739575 -21.283224881617123 2 0 1
141 8 1 96.75632922267835 -53.89466367333684 -20.806385804576493 2 0 1
156 8 1 95.94952826600294 -52.642097739395425 -22.02641409074284 2 0 1
149 8 1 99.0781975903488 -54.04611173599612 -20.806009241642492 2 0 1
147 8 1 99.09025280485756 -52.742481809874576 -22.011063474352795 2 0 1
148 8 1 99.13635117480942 -53.841328811376165 -21.709105675891827 2 0 1
151 8 1 97.94520301945354 -53.97805408438475 -22.022429526388308 2 0 1
157 8 1 96.95754302703688 -52.75209383692582 -22.14705109345541 2 0 1
154 8 1 96.14130153602017 -53.58098845039039 -22.63772359548033 2 0 1
152 8 1 97.3331162007585 -54.484141923982726 -21.45675343009904 2 0 1
150 8 1 98.28813181848122 -53.44818288019309 -21.23253944891249 2 0 1
438 22 1 69.09706037605997 -12.021846238254625 -6.400064528005188 -1 3 -1
440 22 1 69.22604877506797 -12.88624185667858 -4.979993853020545 -1 3 -1
302 16 1 69.09289278666418 -10.702222064764953 -5.930613629441865 -2 2 1
439 22 1 69.1966966792655 -12.919565494220038 -5.919082163915675 -1 3 -1
436 22 1 68.09474508964456 -12.59936293842307 -5.962755376818166 -1 3 -1
301 16 1 68.74517303386668 -9.89538957318777 -5.918758103643526 -2 2 1
308 16 1 66.03702929381072 -12.532837733315674 -5.525130373809361 -2 2 1
309 16 1 65.69688657815621 -12.085469493630384 -4.692763263875548 -2 2 1
307 16 1 66.94642628497269 -12.249027257123117 -5.474212291682392 -2 2 1
310 16 1 66.18589390260786 -11.87243826449236 -3.8782210322560218 -2 2 1
305 16 1 68.06604997458814 -12.718105087566258 -4.794521334657148 -2 2 1
306 16 1 67.75374168032266 -11.860771191088702 -5.15970668163051 -2 2 1
316 16 1 66.63354486292835 -10.773823162299749 -3.3731741564713786 -2 2 1
311 16 1 67.135660833115 -11.519683593052392 -4.246024308104296 -2 2 1
437 22 1 68.34630769082088 -11.602394972220537 -5.921186237077805 -1 3 -1
304 16 1 68.74180148611035 -12.067161772358745 -4.628880345926007 -2 2 1
303 16 1 69.25132793476934 -11.25557760896082 -5.0902176000217025 -2 2 1
314 16 1 64.97428500672692 -11.32792826022893 -4.4080914791796175 -2 2 1
315 16 1 65.59278580976869 -11.057484535048161 -3.598539301666591 -2 2 1
312 16 1 66.62141895634056 -10.69744280856419 -4.373444970773193 -2 2 1
435 22 1 67.32497698583907 -12.188072423866885 -6.432008349814268 -1 3 -1
434 22 1 66.36678103464678 -11.573507899451954 -6.359829503000384 -1 3 -1
422 22 1 67.9529607701806 -12.28459386660495 -3.6441739481507085 -1 3 -1
421 22 1 67.38752624436802 -13.098386904524418 -3.951351527802828 -1 3 -1
423 22 1 68.797006533966 -11.820225310482797 -3.44288838871708 -1 3 -1
428 22 1 69.6211733911664 -10.699642851904613 -4.230215114651244 -1 3 -1
319 16 1 67.77904178572712 -10.438380040802016 -4.17881345667125 -2 2 1
429 22 1 69.67580645947518 -9.878788789278275 -4.926445101689623 -1 3 -1
317 16 1 67.58356454245617 -11.02096797040376 -3.19188904276929 -2 2 1
318 16 1 67.29359314658828 -9.945813280553452 -3.464372784477277 -2 2 1
320 16 1 68.37008156359997 -11.23076443603398 -4.078675303502365 -2 2 1
430 22 1 68.83288366533878 -9.834187585749348 -4.448957004475119 -1 3 -1
431 22 1 68.40262452763969 -10.470564010293828 -5.045839233955164 -1 3 -1
432 22 1 67.52024644171397 -10.288389367409124 -5.309311315079171 -1 3 -1
313 16 1 65.83127375953728 -10.900828500249375 -4.784625549749919 -2 2 1
433 22 1 66.93138620104202 -10.977608115648025 -5.631598973264218 -1 3 -1
424 22 1 69.183017304826 -12.56225597076373 -2.8281464832174805 -1 3 -1
425 22 1 69.65949631470107 -12.799260879917512 -3.818629689637163 -1 3 -1
426 22 1 69.7562029060552 -12.127256566405364 -4.477671995785897 -1 3 -1
427 22 1 69.99059210134746 -11.514003752482225 -3.798886442246925 -1 3 -1
271 14 1 133.4239332448261 91.58063432592971 49.73988657553973 1 -1 1
273 14 1 132.04157204366035 91.33028776595035 50.314769181089815 1 -1 1
399 20 1 132.52475576371944 92.0800909026978 49.579808743231425 1 -1 1
400 20 1 133.34169914992273 92.33507624066362 50.29776225553307 1 -1 1
269 14 1 132.6358178816302 90.01885400569398 49.45293236985998 1 -1 1
270 14 1 132.87338466843482 90.89609772774 49.70349350555206 1 -1 1
272 14 1 133.05999698168716 91.27023531056477 50.58731225452796 1 -1 1
395 20 1 132.1929207077545 93.22644943802962 52.234829946079685 1 -1 1
265 14 1 131.51791998726327 90.78688857980347 51.36475956115106 1 -1 1
274 14 1 131.89317362283165 91.14942883164011 49.283922208907015 1 -1 1
396 20 1 132.05806998372384 92.82975236551803 51.414467549051295 1 -1 1
397 20 1 132.85759253000293 93.04411455600282 50.94574712248155 1 -1 1
264 14 1 131.0639183060325 91.2201462035109 50.73140576589586 1 -1 1
263 14 1 130.2629476428289 91.5930666281269 50.316452868937915 1 -1 1
276 14 1 131.36543192337956 92.0186736232381 49.947849533381614 1 -1 1
398 20 1 132.26895544102464 92.33039538070929 50.49262641236214 1 -1 1
391 20 1 131.36666666740174 92.22415101923224 51.05072289666765 1 -1 1
277 14 1 131.34624574419877 92.53244401183241 49.130836779121694 1 -1 1
278 14 1 130.3752546159633 92.44930058739178 49.39613672679664 1 -1 1
280 14 1 129.4729673817084 93.68876642195485 49.677368788724564 1 -1 1
279 14 1 129.91752690163415 92.90749823737411 50.19672987995851 1 -1 1
20 1 1 77.52461508895004 13.611037993693515 53.50631364036073 -4 1 2
18 1 1 78.79536811805755 14.012396264931098 52.39204322986811 -4 1 2
17 1 1 79.32977590672232 14.96850480171041 52.35127266656343 -4 1 2
1 1 1 78.77657506510826 13.13028135867971 54.15003212386813 -4 1 2
268 14 1 131.58857174404628 90.01110494436489 49.76494757711046 1 -1 1
394 20 1 132.87491841947107 92.33431492381737 51.94682943705013 1 -1 1
389 20 1 131.28988072053554 93.4675191252648 51.8116517325453 1 -1 1
267 14 1 132.2221526684617 89.94364348852301 50.431050541056194 1 -1 1
266 14 1 132.46534654786777 90.61541098741782 51.1933538163571 1 -1 1
275 14 1 131.00994840150904 91.1450699894321 49.54978278898993 1 -1 1
393 20 1 131.94024962135882 91.94850871904646 52.04267453843755 1 -1 1
388 20 1 131.87815070540626 94.01359603173427 51.35362758796222 1 -1 1
392 20 1 132.24556343991551 91.7135543759014 51.308771213187214 1 -1 1
262 14 1 129.50588249853297 91.56801752170188 49.565368204274904 1 -1 1
390 20 1 131.21218451961175 93.09004554721736 50.853469389510906 1 -1 1
387 20 1 131.74952298670812 94.87756073314338 51.74583749049836 1 -1 1
386 20 1 131.24411426480137 94.63621107335427 50.937657672736975 1 -1 1
261 14 1 128.8794567549267 92.36321196637815 49.502725712021544 1 -1 1
384 20 1 130.77552349487397 93.6572179414643 49.79354126680133 1 -1 1
383 20 1 131.80180444633837 93.52170534600896 49.749280440797435 1 -1 1
385 20 1 130.50171601426715 94.11527874012071 50.599443589336815 1 -1 1
19 1 1 78.22529967849539 13.269714324895077 52.77639494230803 -4 1 2
4 1 1 78.80486708348604 14.834303630312505 54.18426792189774 -4 1 2
16 1 1 79.90314464953272 14.452998869199476 52.96428232661452 -4 1 2
2 1 1 79.04812893589184 13.803066601052691 53.40853884019853 -4 1 2
3 1 1 78.71545829331643 14.703992690423846 53.1616976064407 -4 1 2
5 1 1 77.72878617759616 14.898480601061678 54.13780465057965 -4 1 2
15 1 1 79.83069373347138 13.5374520801644 52.79054515211013 -4 1 2
381 20 1 132.49586475439247 93.55507204306835 48.843465507055484 1 -1 1
382 20 1 132.80082835859045 93.69435934948129 49.7623777448146 1 -1 1
7 1 1 78.9002676756983 16.03024975280968 54.01674407289701 -4 1 2
8 1 1 78.33087146978016 16.406407927796394 53.21600050732724 -4 1 2
9 1 1 78.7878506747764 16.17019335544174 52.38345594209548 -4 1 2
14 1 1 80.38727533055416 13.839935785824267 53.688953809805014 -4 1 2
12 1 1 79.93018588392158 15.63097202271814 54.347848882745154 -4 1 2
10 1 1 79.72954867778347 15.98887504576578 52.58969361768763 -4 1 2
6 1 1 78.02820482494798 15.975440347483087 54.405833997263954 -4 1 2
13 1 1 80.07105017721636 14.688297413886119 53.9383543440274 -4 1 2
11 1 1 79.69827225480151 15.502681067654194 53.375571705006024 -4 1 2
357 18 1 122.6471010849015 118.10637542531518 57.69832075884011 -2 -1 0
194 10 1 121.40972867704878 118.20947205250224 59.94115924537877 1 0 0
195 10 1 121.87146972453613 118.59427548623867 59.17200504536086 1 0 0
322 17 1 123.06840742185321 120.09115175118512 59.429882199593294 -1 -1 0
359 18 1 122.07953518947284 119.8551261052603 58.24228428307907 -2 -1 0
323 17 1 122.79201616809925 119.29927058915885 60.02300980621064 -1 -1 0
355 18 1 123.08381092850072 119.06017546872187 58.938570116153755 -2 -1 0
356 18 1 123.25672325351232 118.22985496618571 58.55720363758397 -2 -1 0
360 18 1 121.37408443810699 119.49319106704235 58.81731562811177 -2 -1 0
358 18 1 122.26956418596626 118.73414919864098 58.263702191763 -2 -1 0
463 24 1 123.52167412976712 115.00952842471901 61.47135170482642 -1 -1 0
193 10 1 121.01645574541999 118.2040488907407 60.826055853595506 1 0 0
196 10 1 122.41769559196604 117.73817028972101 59.51597620184634 1 0 0
197 10 1 123.41222249512506 117.80656699252478 59.5650823088865 1 0 0
354 18 1 123.86454678562768 119.47493038526989 59.43851207957891 -2 -1 0
462 24 1 122.92082733471807 114.62154082502232 62.26031112022332 -1 -1 0
321 17 1 122.82200899461768 120.66202691122979 58.721715683343376 -1 -1 0
324 17 1 123.18126880050721 119.8406678715717 60.70005227042955 -1 -1 0
326 17 1 121.75722140228262 119.24950527221884 60.583413636131326 -1 -1 0
353 18 1 124.14665684196208 119.922509865655 60.34119155362541 -2 -1 0
332 17 1 123.46477834681247 118.9346350608136 61.284232856225145 -1 -1 0
351 18 1 124.29196559251375 119.79340021526326 61.35339672971284 -2 -1 0
341 18 1 121.82739218838978 120.76663512925134 59.14378257935428 -2 -1 0
342 18 1 122.37960511836386 121.34755040182176 59.470463679507645 -2 -1 0
220 11 1 122.73732611937399 120.14408553854491 62.09758548601411 1 0 0
349 18 1 123.92644825154585 121.27245951498381 61.75510293606817 -2 -1 0
347 18 1 122.72151975242392 121.27352733217148 61.43453349455439 -2 -1 0
348 18 1 123.44413038933348 120.6576153887878 61.37791497657366 -2 -1 0
344 18 1 123.0756431887192 120.77748548963592 60.25282705425002 -2 -1 0
345 18 1 123.31250143021467 121.67953558619374 60.64118806894396 -2 -1 0
350 18 1 124.59971276195708 120.6095410461484 61.35764635173226 -2 -1 0
343 18 1 122.10780022566237 120.68121915584919 60.208241123921255 -2 -1 0
346 18 1 122.418948540804 121.84728592684621 60.672558685889356 -2 -1 0
191 10 1 121.90196018364333 117.14429846759643 60.12704043443938 1 0 0
190 10 1 121.98428965396673 117.53922844168508 60.98322639596094 1 0 0
464 24 1 123.66190247882372 115.98117596969763 61.39585541293627 -1 -1 0
465 24 1 124.1519237544253 115.71158097605635 62.274986256095644 -1 -1 0
327 17 1 121.132267330101 119.80623770200384 61.08520382284621 -1 -1 0
192 10 1 120.99645057794868 117.23394745616682 60.518472445751456 1 0 0
325 17 1 122.37017841032576 119.47639728405335 61.27866051028087 -1 -1 0
198 10 1 122.91801887161279 118.20913406968748 60.40073851778308 1 0 0
336 17 1 125.07356408213056 117.90804197697011 61.25161096238449 -1 -1 0
337 17 1 125.51003411843703 117.0969377036341 61.72914389088501 -1 -1 0
338 17 1 124.54981074053947 116.67173834202762 61.41662344617066 -1 -1 0
461 24 1 122.52937342952771 115.36441407614527 61.809633434833046 -1 -1 0
419 21 1 120.50822655606652 120.566530485361 60.8496324722592 -1 -1 0
420 21 1 120.9266765581153 121.42388621876259 60.352782696156225 -1 -1 0
412 21 1 119.39482645901654 120.04661331082119 62.323592976606136 -1 -1 0
411 21 1 119.0988625745994 121.0279584007973 62.01572085262484 -1 -1 0
328 17 1 121.37129214065402 119.20706718005349 61.809422525873174 -1 -1 0
329 17 1 121.62420221404761 118.34536930121777 61.56586422004358 -1 -1 0
330 17 1 122.54072249390012 118.3005239867214 61.51551832718067 -1 -1 0
334 17 1 124.15608995417736 118.8015835844366 62.642120902527694 -1 -1 0
331 17 1 123.15780536055297 118.55529343795331 62.22236085348746 -1 -1 0
333 17 1 123.60957050278375 119.51488984836882 62.08751987325209 -1 -1 0
352 18 1 124.29269414257746 119.10328284390229 60.71106013338314 -2 -1 0
410 21 1 119.97188973225116 121.32357569502082 61.89433544035563 -1 -1 0
219 11 1 122.99043355944656 121.06468614480366 62.4367177625106 1 0 0
407 21 1 121.08584914989447 120.93392257134039 61.890691755125516 -1 -1 0
217 11 1 124.6680386600597 121.01857845815326 62.50187593479146 1 0 0
218 11 1 123.6812825940842 121.27714483599502 62.960943775993684 1 0 0
216 11 1 124.73190978273522 120.12972619661346 63.146453215394814 1 0 0
215 11 1 124.18628189494589 120.51630080883689 63.517865476814734 1 0 0
214 11 1 123.19938435839288 120.7699423961025 63.72414128059242 1 0 0
409 21 1 120.69740574015654 121.95220129696531 61.49855651259159 -1 -1 0
408 21 1 121.64496286724773 121.35625398530541 61.266646182983266 -1 -1 0
92 5 1 122.80290839420223 122.544391179646 61.78165331996044 -2 -1 0
94 5 1 124.39437246425044 121.94979564367856 62.626934558752026 -2 -1 0
95 5 1 124.61210999795631 121.72055545553783 63.42901899104103 -2 -1 0
93 5 1 123.51125651234688 122.12643846011781 62.48498349578702 -2 -1 0
188 10 1 120.20908026616729 117.00291619269635 61.557209000780546 1 0 0
467 24 1 123.85506226976545 117.06114983856153 63.387952720264366 -1 -1 0
468 24 1 122.97934359728598 116.59286024659164 63.865327605578045 -1 -1 0
189 10 1 121.23321041363377 116.96907407471085 61.54909268433798 1 0 0
187 10 1 120.14442495663872 117.09455503726409 62.52148285148846 1 0 0
471 24 1 123.21985080451364 116.39718557292483 62.45330061040093 -1 -1 0
466 24 1 124.26718524597564 116.73557303049736 62.53281443555946 -1 -1 0
475 24 1 124.3633415852643 118.00687053350376 63.370820174275934 -1 -1 0
340 17 1 125.35082635922456 116.1143374164995 62.32723603801966 -1 -1 0
339 17 1 125.05641161453804 115.74273274555816 61.3963845706277 -1 -1 0
184 10 1 122.1397324644353 118.04908197901975 62.51519145776706 1 0 0
185 10 1 121.1370857979608 117.76276540333839 62.336324742611765 1 0 0
209 11 1 121.35352374267453 118.87322115428901 63.40966762335805 1 0 0
200 10 1 123.94379283096822 117.54140214645045 61.0421035033919 1 0 0
199 10 1 123.12833097336869 117.37355023685046 60.66737079436081 1 0 0
476 24 1 125.07250455077391 118.46073920214536 62.74778837845875 -1 -1 0
418 21 1 120.41283171998563 119.96396653930722 61.80616460952771 -1 -1 0
417 21 1 119.9824677175989 119.09651726914447 61.87967646205152 -1 -1 0
207 11 1 121.14746659025027 120.34532577229425 63.865700006728616 1 0 0
335 17 1 124.61122306278224 118.58920968452642 61.610719982288316 -1 -1 0
210 11 1 121.8720678018552 119.28463758456707 62.768288385932266 1 0 0
211 11 1 121.54934263647476 120.2638422437816 62.58303444797377 1 0 0
402 21 1 121.74329667082716 123.1359202034582 63.28734226161504 -1 -1 0
413 21 1 119.77734663981252 119.81340879157764 63.31991679891516 -1 -1 0
406 21 1 120.60322399766423 120.73957462434964 62.63735528351515 -1 -1 0
213 11 1 122.5314130955069 120.32903592502859 63.05730095177813 1 0 0
212 11 1 121.99229523170044 121.19367437424626 62.74989961618442 1 0 0
97 5 1 124.8586510801741 120.52299802409985 64.60500975248956 -2 -1 0
403 21 1 121.77570532564204 122.25420483221976 63.732936873012136 -1 -1 0
404 21 1 120.9023801535892 122.00951962704639 63.833538577881626 -1 -1 0
90 5 1 121.53147450494527 122.29239164750251 62.747186758779094 -2 -1 0
91 5 1 121.75113650725558 122.32697390704644 61.77576647892363 -2 -1 0
84 5 1 124.87473654239884 121.93934096273301 66.24745079412165 -2 -1 0
88 5 1 123.2584685632269 122.91599738609543 63.2022756516711 -2 -1 0
89 5 1 122.51827360175096 122.46279733856292 62.813592883997615 -2 -1 0
96 5 1 125.04278104067347 121.3051955050729 64.04784385955838 -2 -1 0
87 5 1 123.78856067052115 122.62063090071479 63.973788071634715 -2 -1 0
86 5 1 124.34623982056524 122.02104915750107 64.60279080389199 -2 -1 0
85 5 1 125.14142758855706 121.96741673706259 65.30207498035352 -2 -1 0
469 24 1 122.63219432387004 115.71284003154577 63.838865244021775 -1 -1 0
137 7 1 125.18023373862684 114.36009023182464 64.41845386093101 -1 -1 0
470 24 1 123.39771510171127 115.55356285782767 63.15972283253788 -1 -1 0
472 24 1 122.91727171480156 116.98925313381176 61.579659196329885 -1 -1 0
474 24 1 124.53277290149904 117.68194886025435 62.35787535248019 -1 -1 0
477 24 1 125.62519853354851 117.65287505088799 62.858158021805224 -1 -1 0
478 24 1 125.6722965237376 116.69178450281629 63.23861840393735 -1 -1 0
186 10 1 120.98585937829529 116.70860365060827 62.66530804625654 1 0 0
490 25 1 122.05335264561919 117.10648269891726 62.32291382730449 -1 -1 0
182 10 1 123.36938055822819 118.106788401436 63.46071642615803 1 0 0
183 10 1 122.49309845508293 118.5566378160903 63.30626424800084 1 0 0
473 24 1 123.6081620977165 117.5756836721009 62.15781848880869 -1 -1 0
376 19 1 123.16422712414715 119.35080322948693 63.22124617157769 -1 0 0
414 21 1 119.09054547595616 119.12464779242367 63.25683745939534 -1 -1 0
415 21 1 119.96909734996001 118.7615038740168 62.84099568463358 -1 -1 0
416 21 1 120.17292283838628 118.1009683110832 62.10323259109737 -1 -1 0
208 11 1 120.87422497457564 119.5687410192354 63.4576494262289 1 0 0
492 25 1 121.72643326548115 117.53714919619213 63.33185295870135 -1 -1 0
380 19 1 121.17253312343402 119.50314271518059 64.73238725839877 -1 0 0
205 11 1 122.81864044050104 121.6292864809403 64.12415058943162 1 0 0
377 19 1 122.20729632368904 119.61759495289095 63.84243096289819 -1 0 0
374 19 1 124.27716258225723 118.90929613062491 63.798754505227095 -1 0 0
375 19 1 123.37639731670868 119.25528706565694 64.06908154886855 -1 0 0
401 21 1 121.96415955484034 123.11295614449597 64.30579411240225 -1 -1 0
206 11 1 122.0349015089931 120.7403105056143 64.00763473707138 1 0 0
204 11 1 122.44536118837797 121.10380780785383 64.86460557254588 1 0 0
100 5 1 123.85269661153316 121.01008209113314 64.51444743483583 -2 -1 0
373 19 1 125.15830002925034 118.52263599184579 64.39949015128218 -1 0 0
98 5 1 123.99480442945219 119.86047549452655 64.6930798354835 -2 -1 0
99 5 1 123.06245657794358 120.1707597622476 64.53784408892582 -2 -1 0
372 19 1 125.62331666264927 119.03093874426713 65.12598876549228 -1 0 0
405 21 1 120.9048628996405 121.51293468131692 62.97402841178129 -1 -1 0
81 5 1 123.1683960791469 120.69156647018312 66.72661641024291 -2 -1 0
82 5 1 123.43547349618672 121.60429668070023 66.82249207405002 -2 -1 0
83 5 1 123.94683552944429 121.54876942409797 65.94496126437318 -2 -1 0
136 7 1 124.90076590186018 115.27744798543242 64.94001554232256 -1 -1 0
486 25 1 119.7377782838081 115.50152718392937 64.2112569000808 -1 -1 0
489 25 1 121.79068851811672 116.02741724903592 62.10805927580964 -1 -1 0
485 25 1 119.84619171261184 116.37872128470528 64.26742060249344 -1 -1 0
181 10 1 122.88845561362064 117.27096902767673 62.978592218417674 1 0 0
139 7 1 124.07468518705448 115.76113838730186 64.23831939658982 -1 -1 0
138 7 1 124.47039689590008 114.92147624591584 63.751976798690634 -1 -1 0
134 7 1 124.96152553763872 116.05063687469459 66.25680463536216 -1 -1 0
123 7 1 122.65836292604291 116.64703133476829 64.97753750487848 -1 -1 0
140 7 1 125.01434748365898 115.88648023962901 63.72407255469088 -1 -1 0
131 7 1 125.80659452308288 117.98012439078596 65.96498893292676 -1 -1 0
491 25 1 122.07266274507725 116.6064097901619 63.09076883146187 -1 -1 0
484 25 1 120.66152003629219 116.01289567899681 64.34374899744566 -1 -1 0
488 25 1 121.08134784923121 115.57435791421543 62.61900470988158 -1 -1 0
482 25 1 120.65335669019456 117.00789001021599 63.660263235363345 -1 -1 0
378 19 1 122.20632630592061 119.57611605419044 64.78047784795106 -1 0 0
480 24 1 124.50564681448728 117.58297435148722 64.46508333462515 -1 -1 0
124 7 1 123.51095162994173 117.44021060164343 64.90034698073222 -1 -1 0
479 24 1 125.28142347612902 117.34569809355887 63.972269924585476 -1 -1 0
128 7 1 125.04260230870537 117.20367487138819 65.48540131653098 -1 -1 0
129 7 1 125.6263152175417 116.76434844724272 64.87856806914104 -1 -1 0
493 25 1 121.51151303807455 118.11993981992845 64.20791582928774 -1 -1 0
483 25 1 121.37596406020413 116.44280969856172 63.96728322803841 -1 -1 0
494 25 1 122.18716935612596 117.4651786465474 64.37341891747676 -1 -1 0
379 19 1 121.58602675886829 119.59777267667369 65.51839267955043 -1 0 0
362 19 1 123.19314471928499 118.76325605263085 66.31137144408464 -1 0 0
369 19 1 123.68554780440402 119.43810869888637 65.70342748479595 -1 0 0
363 19 1 123.67603805994125 119.26879587820156 67.11352213828869 -1 0 0
368 19 1 123.96149593065343 120.48471143543111 65.47279638660282 -1 0 0
370 19 1 124.54909190523352 119.07801223129636 65.89508952539711 -1 0 0
371 19 1 124.85472581310304 119.62928415524019 65.00595839753254 -1 0 0
203 11 1 122.78322901358743 121.24458656300285 65.91999887357449 1 0 0
202 11 1 122.89438128777607 120.2235968167567 65.62632459245421 1 0 0
367 19 1 124.64557757418984 120.79150518085669 66.16400983717764 -1 0 0
366 19 1 124.54616536316809 120.95888789094454 67.00818360936447 -1 0 0
201 11 1 121.9091061379257 120.66819576505034 65.89530951224248 1 0 0
487 25 1 120.40157907347995 115.37099397254798 63.455395597260775 -1 -1 0
122 7 1 121.69916171715224 116.5200354248577 65.34129447055014 -1 -1 0
133 7 1 124.33935301813082 116.80210624668845 66.72607712484287 -1 -1 0
135 7 1 124.86578079118846 116.1396208482372 65.38633957717093 -1 -1 0
132 7 1 125.23172614780654 117.35237891917492 66.6596515575014 -1 -1 0
481 25 1 120.48397835746201 117.89582202598112 63.44009717724521 -1 -1 0
121 7 1 120.81222977188764 116.83773058897054 64.98898938509154 -1 -1 0
496 25 1 122.22947581709047 118.19484770828709 65.37556045388112 -1 -1 0
125 7 1 123.79574239992823 118.40812237193805 64.82786544799927 -1 -1 0
126 7 1 124.4730825095958 118.16302153321902 65.37281682401016 -1 -1 0
127 7 1 124.05595794803361 117.29059381024047 65.65525106108927 -1 -1 0
130 7 1 125.71747293042418 117.73143468103316 64.86866022795499 -1 -1 0
497 25 1 121.33994817083214 118.29355615556344 65.17273587815833 -1 -1 0
495 25 1 122.73495318347983 118.21090112546017 64.52054061740571 -1 -1 0
498 25 1 121.01947874341437 117.57216194747298 65.793089018295 -1 -1 0
365 19 1 124.59013889355302 119.91720443924052 67.34925172353329 -1 0 0
500 25 1 122.82202377238318 117.71994457829385 66.54367001927505 -1 -1 0
499 25 1 122.10977967081351 117.4233646382867 66.03698159279858 -1 -1 0
361 19 1 122.29908288993434 119.15378435976476 66.32326540950623 -1 0 0
364 19 1 123.99503605871081 119.96075191012366 66.55483713685916 -1 0 0
259 13 1 121.99359304504833 102.90461868846035 68.49133311960526 -1 -1 -2
258 13 1 121.33620003931932 102.24103644432873 68.8664906428499 -1 -1 -2
179 9 1 121.59684863723041 100.88971174255474 71.02440326870507 -1 -1 -2
178 9 1 122.04019846671696 100.23108573088967 70.2894562169254 -1 -1 -2
174 9 1 123.95638580174176 101.22921163132156 69.68993106413063 -1 -1 -2
180 9 1 121.79342357554873 101.0325371522797 72.07198670083676 -1 -1 -2
175 9 1 122.97778854426159 101.02319871885882 69.89108686572928 -1 -1 -2
257 13 1 122.02073401392965 102.01964779540194 69.45329141304092 -1 -1 -2
256 13 1 121.0995111159462 102.31607623151436 69.83495413760306 -1 -1 -2
171 9 1 122.97550053078513 102.22974657320438 70.04444125159722 -1 -1 -2
170 9 1 122.96961290525604 102.98771266989033 70.75041340436329 -1 -1 -2
255 13 1 121.56807459611375 102.08697749535725 70.60324995026969 -1 -1 -2
254 13 1 120.65358499496435 101.55924974700787 70.66798783847526 -1 -1 -2
253 13 1 120.77616491230279 102.71232406291955 70.854092769668 -1 -1 -2
169 9 1 123.24794327256686 104.02915261042662 70.69994843915904 -1 -1 -2
260 13 1 122.08526273920893 103.83185413099415 68.59367807475039 -1 -1 -2
30 2 1 120.3579106016116 102.66025443650554 69.1610456622235 0 -1 1
29 2 1 119.65169456219533 103.17327944715845 69.3369961069217 0 -1 1
32 2 1 121.01489385871992 103.57129605919502 69.45188940245015 0 -1 1
177 9 1 122.75884562604128 100.31320704596604 70.83778178401641 -1 -1 -2
241 13 1 121.37792563466843 100.9799608685839 73.02926558283173 -1 -1 -2
176 9 1 122.72360953184585 101.29147892127446 70.71490193611427 -1 -1 -2
165 9 1 121.62341150200342 102.60052570974935 71.43994390753787 -1 -1 -2
173 9 1 123.22638342108456 101.75963700856539 69.1105525119062 -1 -1 -2
172 9 1 122.78177626066642 102.6224106225049 69.278497245616 -1 -1 -2
164 9 1 121.89453419386962 102.22780959484649 72.31311969985433 -1 -1 -2
163 9 1 122.62257735188138 102.11666307810836 71.60060541597204 -1 -1 -2
246 13 1 120.50222213685663 101.35835446131281 72.44682990192464 -1 -1 -2
249 13 1 120.79206668175107 103.28541090625586 72.3958807067022 -1 -1 -2
248 13 1 120.98947542695149 102.42181733627007 72.67696916280624 -1 -1 -2
247 13 1 120.56656995645909 102.23259566469562 71.87332566680666 -1 -1 -2
166 9 1 121.96260411985915 103.38994934790054 70.8060368101012 -1 -1 -2
167 9 1 121.7923518441687 103.11120560321632 69.82346024351165 -1 -1 -2
168 9 1 122.67564106220041 103.5220377178401 69.86632741590597 -1 -1 -2
38 2 1 121.01265230501454 105.12513376615743 71.74547839272779 0 -1 1
162 9 1 122.34354201678639 103.15536582372044 71.82081010760581 -1 -1 -2
28 2 1 119.77967257351574 102.4526656966753 70.09324273598048 0 -1 1
27 2 1 119.0736026850227 103.08687089618587 70.49380733739696 0 -1 1
250 13 1 120.17318487383633 103.94743357430036 72.95776915155335 -1 -1 -2
31 2 1 120.44103159460508 103.25943372893116 70.02421285945539 0 -1 1
39 2 1 122.0293618454734 105.09483967769467 71.94168757252561 0 -1 1
252 13 1 120.55016472661978 103.58553635431849 71.15816578550914 -1 -1 -2
33 2 1 120.96637833162191 103.82532235998272 68.50914862955779 0 -1 1
40 2 1 122.52207498932705 104.28984123749728 71.46778703179368 0 -1 1
242 13 1 122.16026822118903 101.13966607982371 73.63564586666126 -1 -1 -2
245 13 1 120.5556336066966 101.60164582282133 73.45010016039984 -1 -1 -2
243 13 1 121.57759736336985 102.00908087034 73.46818978925725 -1 -1 -2
244 13 1 121.16283479604917 101.43860764691365 74.14686215591053 -1 -1 -2
25 2 1 119.66353925647152 103.03602335876948 71.40197143234425 0 -1 1
21 2 1 121.16465903059338 102.92657239058295 74.1228476799213 0 -1 1
22 2 1 120.4382586344243 102.6192083833829 73.61805318223844 0 -1 1
36 2 1 121.18144872638163 103.97155257633662 70.41514019782991 0 -1 1
35 2 1 121.0625604953922 104.67999744726015 69.86035330015244 0 -1 1
161 9 1 121.62947142505067 103.70851461923715 71.97531551284823 -1 -1 -2
26 2 1 119.07467291840649 102.34485188940099 71.23006006410006 0 -1 1
251 13 1 120.5228279801128 104.3068189898419 72.03117246290233 -1 -1 -2
24 2 1 119.38237954755445 103.77922676740943 72.10924834325306 0 -1 1
34 2 1 120.75328372261873 104.67848466087258 68.91320125699488 0 -1 1
37 2 1 121.60140795508042 104.61141328667355 71.02846914808589 0 -1 1
23 2 1 119.88072221905387 102.89284206989967 72.69176880174311 0 -1 1
74 4 1 -14.076140831716351 101.54729941059367 83.21934654303064 0 0 -2
73 4 1 -13.78694881463359 102.02740059113796 82.4608456708896 0 0 -2
76 4 1 -13.09962341981209 101.48550347113127 83.6515875305619 0 0 -2
75 4 1 -13.883545587570545 101.49087598971064 84.18162794860939 0 0 -2
77 4 1 -12.624528821282965 101.84353343580764 82.97171842005764 0 0 -2
64 4 1 -10.706124900605957 102.4671055192274 82.5765539682541 0 0 -2
63 4 1 -10.574440928086844 102.67058089228507 81.6055905833376 0 0 -2
72 4 1 -13.320061781380616 102.75375652299138 82.8570108498258 0 0 -2
79 4 1 -12.56267682411088 103.13672484877105 82.1397188381261 0 0 -2
80 4 1 -11.591251179842587 103.06713504492149 82.3210969753388 0 0 -2
65 4 1 -11.576074987062427 102.41877140717807 83.04648754285165 0 0 -2
69 4 1 -11.571551937635078 101.7402606051734 84.68853398267544 0 0 -2
68 4 1 -10.793486803954522 101.77256771536284 83.8747701801376 0 0 -2
67 4 1 -11.067204715879583 100.99814411489595 83.45190171468374 0 0 -2
66 4 1 -11.254450027227776 101.58473307910711 82.6290135242935 0 0 -2
62 4 1 -11.489834013023724 102.19393190877796 81.68180279381147 0 0 -2
71 4 1 -12.80225511976758 102.699777583714 83.5700937722527 0 0 -2
70 4 1 -12.290819505654255 102.22148941588662 84.2731848766038 0 0 -2
78 4 1 -12.683754588964831 102.19064312955953 82.12306050750195 0 0 -2
61 4 1 -10.697749027189687 101.50249196003065 81.64035134544662 0 0 -2
443 23 1 -43.3699819811211 -31.654496558385063 106.76032357575116 4 1 -1
460 23 1 -43.58020929902662 -30.006474652057364 106.92470325227947 4 1 -1
445 23 1 -44.268700795073784 -31.18551183484297 107.1763888263294 4 1 -1
444 23 1 -43.466059980555585 -31.40574779094544 107.81646253524875 4 1 -1
442 23 1 -44.01113846316717 -32.176356963017604 106.56228243238672 4 1 -1
454 23 1 -44.136019135599135 -30.599938326061036 104.66441352819433 4 1 -1
457 23 1 -43.644266190461316 -29.600986652638767 105.25662510374218 4 1 -1
456 23 1 -44.50882012634977 -30.113588519468692 105.55392331397135 4 1 -1
459 23 1 -43.6770895531688 -30.733505301665716 106.35219982690558 4 1 -1
458 23 1 -43.402647352933535 -30.56309761563754 105.53465016994747 4 1 -1
446 23 1 -44.74643738754309 -30.314570394041333 106.80427068755421 4 1 -1
448 23 1 -44.912136462427014 -32.0324828912239 106.07364749731622 4 1 -1
449 23 1 -44.28403011821614 -31.260507388985673 105.64059473427 4 1 -1
441 23 1 -43.44495369408723 -32.41208957998713 107.44831785436153 4 1 -1
453 23 1 -44.21936346475958 -31.27974258558735 103.95905588308062 4 1 -1
455 23 1 -44.78162127219462 -29.80575279993615 104.64678414237531 4 1 -1
452 23 1 -44.5589122578753 -31.678302785883353 104.71441978944179 4 1 -1
451 23 1 -43.68053733101359 -32.1200762328842 104.678882788901 4 1 -1
450 23 1 -43.46416019910592 -31.65035633169375 105.52173849872827 4 1 -1
447 23 1 -45.29852035245151 -31.209104574838022 106.54656336496097 4 1 -1
226 12 1 102.85568754367586 -23.46735148874741 111.44672557289047 0 0 0
227 12 1 103.83495355927184 -23.730691047479716 111.34474808287985 0 0 0
228 12 1 104.08001691337279 -24.505729584910235 110.88268343531252 0 0 0
229 12 1 104.62466713917905 -23.65013305438646 110.69556213282485 0 0 0
237 12 1 102.63702414424438 -22.03636934540512 112.11468293870061 0 0 0
225 12 1 103.07490481750494 -22.9643719124319 112.18198746614928 0 0 0
231 12 1 105.02184881309125 -22.870497124257575 112.23250536452505 0 0 0
236 12 1 103.47456821842758 -21.941510690354164 112.57945301077368 0 0 0
230 12 1 105.0606113879449 -23.579958230478063 111.53663524606705 0 0 0
232 12 1 104.1904828375566 -22.90077779392533 111.98753919198421 0 0 0
233 12 1 103.96509359910846 -22.812447084696174 110.88932044607338 0 0 0
238 12 1 103.08782946388891 -21.2172254893878 111.75880626034714 0 0 0
240 12 1 103.81402522665286 -21.721192347748975 110.32610873967937 0 0 0
239 12 1 102.94392143627317 -21.3333966096476 110.70156807030199 0 0 0
235 12 1 104.35334626563903 -21.806014314097645 112.05047527015984 0 0 0
223 12 1 103.21716813224052 -24.543034456944113 112.58929552704262 0 0 0
224 12 1 102.92307793409316 -23.711079760677627 113.0941242092477 0 0 0
221 12 1 104.32988379372026 -24.551574603261635 112.22996921685862 0 0 0
222 12 1 103.98031973281115 -23.779761126131795 112.45378822377839 0 0 0
234 12 1 103.52606709558196 -22.11795539014114 111.48144725632005 0 0 0
50 3 1 33.372063961235725 57.45562803740367 117.4052530350742 2 0 0
51 3 1 32.647649533809755 58.1499830602107 117.76769639966474 2 0 0
57 3 1 31.587398014165544 57.787644341342684 118.80546484094864 2 0 0
58 3 1 31.645077761752205 57.89468942940735 117.7886617369573 2 0 0
56 3 1 30.70398472933566 57.43127932199428 118.58880685962592 2 0 0
49 3 1 33.18190040005554 57.43806642685408 118.37092971455746 2 0 0
52 3 1 32.38973275268499 57.25027342440515 117.27071508107889 2 0 0
48 3 1 33.920755133406885 57.03619569481671 118.70321460362703 2 0 0
54 3 1 31.920006681014925 56.97172268935353 118.21028492780175 2 0 0
53 3 1 31.68017155125908 56.55999578323261 117.4576064405747 2 0 0
42 3 1 34.49777950549068 56.26450262523423 118.12294845687185 2 0 0
43 3 1 33.609089721710234 55.92100136214225 118.4089026029583 2 0 0
44 3 1 33.08091967887509 56.45543773817903 117.72065176044345 2 0 0
59 3 1 31.244465921159673 58.41081743695872 117.1583199915764 2 0 0
55 3 1 31.099170803233804 56.58548043296534 118.6592683385966 2 0 0
46 3 1 32.937832529823794 55.6106262188604 119.19170653981016 2 0 0
47 3 1 33.08821947067845 56.64215413041481 119.11299626558153 2 0 0
60 3 1 30.549107225902148 57.63264458407315 117.35924873557133 2 0 0
45 3 1 32.439580744823076 56.11202795565464 118.45161204247287 2 0 0
41 3 1 35.19943572920151 55.962179408195595 118.70675913411804 2 0 0

Velocities

294 -0.1700469428951121 0.06144230717915611 0.12513304590189667
289 0.374835240270576 -0.7700727106926983 1.7454976467600158
296 0.2749579759053612 1.1613599659991718 -2.9547326272981174
291 -0.48020295848034844 -2.096557486931475 0.7316672071633504
292 -1.2140051848973403 1.4580956486028398 -1.4348223911723985
295 -0.7734796763388042 0.07032429102903562 0.774521751708301
286 -0.3590038286211587 -0.031669023227873946 -0.4767978694050449
290 -1.0843572362056464 -0.7180141385711595 0.1290884787983417
293 0.022452725111548676 -0.1467200291202244 0.07533937553507014
281 -0.019632090358747547 0.7748600113155445 -0.06548007425911023
288 -0.4896494318641169 -1.4993525459956547 0.8616879931499846
298 -0.47489543088916675 1.188451232835616 0.1867562336939246
297 1.2026078064516765 -0.7892391084619449 0.03131065886650132
287 -0.5268093350271912 -1.4905272913891745 0.30688491605232204
285 1.727075097629889 -0.3998488329399785 -0.5773537948692185
282 0.4500581106557691 1.2380059899633176 -0.19577534918752906
283 -0.3163663218966901 0.7848721914013123 -0.3850100864667027
284 0.4097312481811883 -0.21640181126729796 -0.7138262029405975
299 1.2167943503881034 0.6365298977391972 1.6483205757569344
300 -0.03475234510403441 1.247236609491645 -0.06328292872705804
103 0.2418066336161953 1.153451907559117 0.12797511169332312
104 -0.6745849659268403 -0.712748736244819 1.931654142584137
106 0.04604289238702076 0.585001945394483 0.21585074427514545
105 1.982028436176247 -0.024321804708043543 -0.48009214584814297
113 0.053521804049509916 0.446794628184686 -0.595635748705623
114 -0.7316105116287164 -0.9048924063566186 -0.38000611253088085
118 1.063456559171993 0.23758994086477958 -1.1770814021974356
117 0.47306813768204026 -0.7109427200583919 -0.3663134955039826
116 -0.3642970285875435 0.02253975100944721 0.6156837677345457
107 -0.5782910372430151 0.09817428163315926 0.022451024149221892
108 -0.49610692049649563 -1.6853841470359683 -0.6262443843498396
102 0.34267230687056316 1.0115991102979578 0.3258271151323432
101 0.8829976480831044 1.1696770039479973 0.11512925865383195
115 -0.4729809090094355 0.6679513763119065 0.04912626862135305
109 -1.5495543308080613 0.18861532920522284 -0.6883641968404964
111 0.6382431751822516 -0.1748534259237877 -1.0298057299034855
110 -0.2868868136703464 -0.20451688973521645 0.034201703510651174
112 0.09307412324417746 -0.6013180339360106 0.6266201108704929
119 -0.14559358550906104 -0.6824140532172265 -0.5603958921856385
120 -1.4124117261349525 0.2299314416687013 -0.5133334512622948
146 0.7501536326234106 1.1637764987969685 -0.37662173190006365
160 1.8968221467588386 -0.2959349249926176 0.9025363161493413
159 0.7042149017609574 -1.7059583068416737 -0.06968105636428139
142 0.33342485759433316 0.007593310357849839 0.693065647682721
143 -0.3397969084035442 0.5169932564592757 -0.8832092594915203
155 -0.12249457231293756 -0.21692503510591957 0.5155701439158289
144 0.9014932806065443 -1.448084717850264 -0.4455762434667559
145 -0.15480568931954028 0.6423922746158869 1.4382638690395144
153 -1.3948843885376692 0.17256748964590218 0.9197765616887322
158 -0.0709778653931835 2.0314334447223015 -0.2701152955449789
141 0.40495122089936125 0.6412445287168536 1.2125204800018345
156 0.6435117346166235 0.9593580239535706 0.3753795048238657
149 -0.6830827845742842 -0.876760640853503 -1.615493114114753
147 1.205320953978201 -0.23379290118072524 -1.0830489043656553
148 -0.7785447075775411 0.7484813264370074 -0.3052411939360145
151 0.0742699966508556 -0.3493721360353262 -0.33234514301273615
157 0.13315434033304924 0.44204826010696785 0.1052307777181497
154 -1.3660335801098722 -0.2977458488616798 -0.13948178159084218
152 -0.24662017314218843 -1.039562320368948 0.4440710587957831
150 0.14703456609422466 -0.9512771790438749 -0.47094034804720863
438 0.22011597663586496 -1.6051142172154353 -0.1728911234237965
440 -0.31489075002898703 -0.1821732433178942 0.503753387767939
302 -0.33416050823792176 1.1616531594519703 -0.22181845551007048
439 1.1206457281468132 0.14649525117798043 -0.23116104935964732
436 -1.2926448395943362 -1.0324976152094978 -0.36190868003186494
301 -0.514306293466764 1.7246526306157839 -0.8049568147571645
308 -0.6531123670605471 -0.43714576538924 0.21745595281557553
309 -2.025129803451251 -0.10980036034642889 0.1686551229208334
307 -1.6793212919794676 0.10266559807134308 -0.09228449778895484
310 1.1289318037950211 -0.47407000460644544 -0.4517109500594734
305 1.2763760560834332 -1.250597327095454 -0.6380923729216459
306 -0.7437386212687982 1.2126455058549186 -0.2612293036945918
316 -1.121163860554647 1.430059549225351 1.135345329198168
311 -0.19022418818897235 -0.7195423341589688 0.8019622122889781
437 -0.733918584142068 0.46788408612813903 -0.7729440837768294
304 1.631549629356206 -0.406166464245078 0.19160306889633064
303 0.747847602016273 -2.7394465711450704 -1.2272072915168997
314 0.23605930151380322 0.6962402012475534 0.9909718952259179
315 -0.6709645998053267 -0.9198214399033648 0.07465619223578548
312 -0.13012766792268848 0.054194145089631975 -0.8955033740269337
435 0.44450854855359334 0.5488584004235539 0.3865552806708015
434 -0.6975896214812781 -2.1886076139630872 -1.863797841693255
422 -0.34683666429421567 0.4537040441050694 1.4409122666124778
421 0.8043926113288167 -1.442385887875473 -0.1151696054169915
423 0.6428137457346942 -0.5220881814968605 1.0372359041616135
428 -1.0500932273286607 2.048138680568388 0.9877854315510673
319 -0.05500551582938954 -0.6377766332548824 0.4447386223390159
429 -0.7796510870727756 1.0471289974851965 0.46486591700836105
317 0.02810108441804284 0.7745088515746337 -0.7056639615914176
318 1.5456585602809645 0.6214923383223262 0.035072903289165305
320 -0.1000788400548196 0.6898632339795189 -0.18418636466620508
430 1.2994534729785312 1.0220297140732997 -0.7508690844451441
431 0.5793504995280645 1.6000977312855773 -0.26863334662545457
432 -1.261146188827836 -1.2539254186543445 0.8208878968396879
313 0.5470882753792252 1.183026932618608 1.1688821411871615
433 -0.618253182215835 0.6050454032251501 0.19630351569282364
424 0.10611849098344177 -0.12198851321995925 0.8056597706215209
425 -0.9844382054667453 -0.4442791835658094 -0.6908242861822943
426 -0.5027337264294854 0.27493226905212537 -0.421115063138065
427 1.143919979965481 1.159159542728096 1.4690134567982476
271 0.04053075134782723 1.581614802141041 1.4316027379559464
273 1.2013793248596951 0.7054697699830427 0.20515303141152705
399 0.6639954015527686 -0.9010858021057807 -0.2234668160608186
400 1.1934995987164154 -0.8681838632485793 -0.4397441921375964
269 -1.7189940886197475 0.7338324923786196 0.6405394755458313
270 0.24691897696252255 0.1925590018640752 1.0798110217977654
272 2.753671670944542 -0.7933023355451757 0.33641961080911786
395 0.4149105852061442 0.9071185638906374 -1.358629370071431
265 0.9726060320486395 -1.6319150109727498 1.2214440099540387
274 0.3453481708282603 -0.05904715566300417 -0.2354727189829712
396 -1.2440631094823542 -0.19399143694724894 -0.29043265052476536
397 -0.2184103133147836 -0.11759241895975414 0.9408757513772229
264 -0.48118971075632716 0.8982644552502187 -2.087974698680596
263 -0.23382508188628096 2.5685797549995253 0.007874177314436827
276 0.4452364902902295 -1.1027559657452066 0.6375140406741925
398 0.7623126294688076 0.7886872126326544 -0.20643678493377235
391 1.5137512737186254 -0.6815276810980849 -0.29967487181224506
277 0.5423012020987446 -2.834676908563183 0.011781580238276534
278 0.4954838531503684 -1.35925455363292 -0.06015622811127148
280 -1.8144572509461403 -0.6352910625142634 0.6023226080650508
279 -0.26010102385149836 0.9536476011529961 1.6026453572731052
20 -0.8627597086195733 1.3440783765018756 0.4623379545496679
18 0.42230099234523877 0.24165606920137597 -0.2908118743394118
17 -1.0030942770826285 -2.8226948947780395 0.150483236382141
1 -0.3271247223296778 0.35490609166545484 -0.7320832078249779
268 0.1447857914422311 1.4751681250953452 -0.40770206737280695
394 -3.123468465214267 0.232178858434808 0.16441099834361572
389 1.2068911940565328 0.6635031332144862 -0.5159947128200464
267 -0.6317785087488439 1.1858587067057167 0.6091718567024147
266 -0.1353942080507259 -1.0135308987107148 1.3418653457895702
275 -0.12282427507511355 0.23539134494864922 1.1098670899897622
393 0.7680522401139183 -0.8091282873168454 -0.36269875511496746
388 -0.5429183534571187 0.8902410261074211 0.7545496709380856
392 0.7992329292489211 -0.5920027512779474 0.01741530147406287
262 1.0443049125767565 0.003937970512503344 -1.1397880916236631
390 -0.2143789577833421 -0.22909876025534576 -0.2039538045837994
387 -1.13666643601693 0.36563071625883925 0.9279897145840742
386 2.2682738953056623 0.6457610921981384 -0.6701238142771504
261 0.5654211743789709 -1.2461059868586941 -0.7685817699558105
384 -1.302061598153294 -0.22762486360011433 -2.2855469369630836
383 -1.2410972252634278 -0.19967440127850103 -0.09546688571657999
385 -0.9360985854275476 0.11295674406556343 -1.9883404841494723
19 -0.050677317360185686 -1.7374461235423235 0.9605362012020083
4 -0.27917224663856166 0.5450291929389786 0.12877843590242255
16 0.3895409864793673 0.63208560667899 1.3160004841059176
2 -0.5405839371046437 -0.961480063958512 -0.4597083203786983
3 -0.017341256134820016 -0.133593531864771 1.3747340843871119
5 -1.4860172299401453 0.007294361590363525 -0.3708486738686003
15 -1.4931610091877037 0.21110558210089678 1.2274854710126377
381 -0.5461385720002668 0.8956916269140037 -0.39037679030153616
382 0.3733016133966776 -2.1892963146536966 2.6698115114128282
7 0.20463679305645296 2.9039672194979977 0.41203113523083085
8 -0.11417928561787481 0.16203524877231834 -0.0012362121554090407
9 0.012545632772185173 1.2577553483265806 -1.3810115184774916
14 1.530123068030436 -1.2335954584882085 1.3148954074243209
12 -0.01977546969555421 -0.6735774205574909 0.19734995769100921
10 0.21263987800369055 1.2567383288096197 -1.342624609130677
6 0.06510142388697614 0.601439470330307 -1.3814907923271824
13 -1.094227058063363 0.17490076789630893 0.6404813828884365
11 0.9004225044513894 -0.9171606928822862 -0.13410407495081614
357 -1.53952371405971 -0.14657160039202574 0.35944331396501517
194 0.9828593830809114 1.4488007085465624 0.8014899735934397
195 -0.3529192199206887 1.0712611852956062 -1.093101644546598
322 -2.35365601326087 1.9949824332590107 -0.15569566959100115
359 -1.2445391063255324 -0.5942469423788244 0.8360756752211598
323 0.5363907614400789 1.0063371893692845 0.5967448972583801
355 -0.36700479828978066 -0.6494538144411374 -0.5857903743489586
356 0.14939507046448863 1.2537369502096665 -0.3724942468098395
360 -1.5735067378244212 0.6499385067141 0.9137386291693087
358 0.383858862367726 0.36232429660551696 -1.1227513728340839
463 1.3851030940182965 0.07997049748622102 0.34141475537062044
193 0.10224939381931998 0.059043070063655875 0.9322312856242846
196 0.10068391685457376 1.7806156024011897 -1.3410665530171648
197 0.21536926871702586 -0.15351297225187555 0.2649344510892592
354 2.392004962554754 -1.0773368855574095 -0.14171228428573443
462 1.7811955455674306 0.03169221648835022 1.2437203375598118
321 -1.936715816055869 0.5075199060552331 -0.5220366711578007
324 -0.7270007655741086 0.20911923347861555 -0.16394024941685426
326 -0.8404906363558953 -0.04610258192735517 0.6681728416469493
353 -0.059986874662892375 2.088382894860728 1.842049452429575
332 1.6920487785218208 0.5214309237458593 -2.8311770706650377
351 -0.2770987533585413 0.5663437142590179 -0.17872353984951717
341 0.8106949097420363 -0.24082562324847062 -2.9180406696944843
342 -0.4922019072096862 -1.4163474298878942 0.5111730244221536
220 2.2234169480600983 1.0012191323490793 2.027543047414664
349 0.24553933984343138 1.3612828730035615 0.035111956030634495
347 1.5844240501195803 -1.2599923335278762 -2.01742662838897
348 0.07936730139689438 -1.3901313476809807 -0.8224084677167214
344 -0.7746617075960714 -0.3105898253518493 -0.29211140108171724
345 0.10625054968088167 -0.2720731638595057 0.5809907640691186
350 -1.0694123071169568 1.325966146480825 0.13211262201158394
343 1.1686617457612174 -1.0813874891774746 1.2053066316756451
346 0.6408376992093356 -0.5194473079729769 0.767167611045938
191 -1.0267639227345577 0.6379927723749279 -1.1113342999592173
190 0.25961693382386536 -0.23629013675802066 -1.7433444298324832
464 -0.16813925138967492 1.099054242816615 -0.10650539132678712
465 0.9145381510301354 0.6181901865777846 0.19115593272968057
327 -1.0975466520721864 -0.48241339185090765 0.244244163253965
192 -0.5306171585345886 -0.36387212218502546 -0.519423222373537
325 0.24409764382088375 0.2112256297858213 1.9390284088460008
198 0.4184891902630845 -0.5365925222305847 0.1560839387524492
336 -1.0717887686557244 0.13071201089859646 -0.904475760839508
337 -0.1418974425223824 -2.643178106209792 -0.3008765787614243
338 -1.6070384975089727 -1.369099321409648 -0.0019010723885352987
461 0.3368065201789374 0.35439568521871717 -0.6224396878272302
419 1.6424956171691072 0.08552606292985905 -1.6424997457172716
420 0.24294278331758068 -0.21822246425518302 -0.4399254321437346
412 0.5507931020020279 -0.36148431139635484 0.6929358093540823
411 2.2584645259499685 -0.5165629844982685 0.41555363656040756
328 -0.11369425008865576 1.668870215943964 0.22059227033508622
329 2.9462948700404543 0.08442998389646583 0.4523301367563186
330 0.36704575460166555 -0.15441850054046585 0.14515871769980446
334 -0.04303104611509476 1.2837211411801082 -1.0482697333219233
331 0.8725717784509393 0.5858656807074888 0.573608423736832
333 -0.6510106897508044 1.1188215586199857 -1.8521160613956342
352 -1.1727562744588387 -0.17605791300373916 -0.21526697301837197
410 0.42424561241627445 0.8498659491839945 0.46027220844068567
219 1.0040250974963199 -1.6431862008922629 -0.661628769850167
407 0.3983526268213693 0.10854885461313225 0.04397756051415429
217 0.755083926934499 0.5622020262492985 1.2377166079772564
218 -0.8218832065804375 -0.18269833418321857 3.342929859689045
216 1.1117526693588486 -0.030043704355510528 0.4855589441446723
215 -0.12259314148940448 -0.3404048570166779 -0.6679091962660201
214 -0.8511483271098671 -0.2684116262271599 1.5694386700031773
409 -2.0116118595773322 -0.5703041160977649 0.6860384176334489
408 0.9669858782842823 -0.7652342543248948 -0.10436145659504192
92 -0.8425884426116125 0.48738717866590464 0.22588646057823977
94 -1.6831737801970685 -0.7571948174977009 -1.6688048138868887
95 -2.271794523841232 -0.5694920437641793 -1.267129946468939
93 0.4045155058622524 -0.29533532498617626 1.7119739816864683
188 -0.2808316113409135 0.7401737862293839 -0.2611939346162358
467 0.18045791926983867 0.7024792309080731 -0.19471833648021947
468 -1.177366904497481 -1.4566637222452654 0.8307769206944071
189 0.11083072500473377 1.0783745846707606 0.2552599986614542
187 -0.28359690766168777 0.897996305109847 0.16001264072276292
471 0.14210568069536433 1.483097258317641 0.6255633801772337
466 0.08175546329116788 0.9215650179477531 0.07357086669779106
475 -1.1420458466749839 0.5302696695001313 -0.09407291440833733
340 -1.1761522012383554 -0.33106394457355803 0.7882958369159025
339 -0.34992460634222716 0.7376515432137613 -1.0792943220934008
184 -0.9928483547694537 1.7278265117672 0.4368659136445128
185 0.28478505776049917 -0.038541246646497294 0.9680316889367229
209 0.5719017789306193 -0.2590888463505395 1.9148492904932464
200 -0.5975262834234134 -0.6452355678140692 1.2434056680887422
199 -0.0925034956600021 0.4658243927212342 -0.9347790859027293
476 -0.002922860629811328 0.1611459017069401 -2.1819005096515127
418 1.1680100617773135 0.33151162805545914 -0.44218412291375775
417 1.290412068121957 -0.11698980396197962 0.6849032782827246
207 0.687909041697679 -0.47474070783853833 0.7263061848767975
335 0.7826418676024002 1.233375765377255 -0.19540090569897312
210 0.8491445810309997 0.16911384669497626 -0.544868600235886
211 -2.596140310952813 0.17206073365944713 0.14651076709114116
402 2.346604268473243 -0.11710529433305054 -2.645913590498086
413 -0.0739239613763518 -0.9748789698842986 -0.5394798562183365
406 0.17569952282251824 1.1424422251909967 -1.3673596473621454
213 1.145583967585955 -2.3259856558698204 -0.5648492161959214
212 0.4773729768690913 -1.4300505512249702 0.7793010376464676
97 -2.756641165938637 0.2916795175532105 -1.4717696267089828
403 -0.11055757802407816 -0.08600165361759479 -0.14243458076591342
404 -0.05955471376085721 0.005998164962070003 1.2275298854122092
90 -0.2593297788022457 -2.2413745733099577 -0.9814658965811682
91 0.012400782871521292 -0.16058292204523464 -0.5012840582628957
84 -1.8487218540156194 -0.22339559142306664 0.24267572783665206
88 -1.2371056163522731 -1.0903805409161353 1.3570574940576499
89 -0.46680164241087424 0.5018738817141916 1.0715680307657123
96 3.5087865357808434 -1.7547093339598794 -0.050613986654865294
87 -1.6676489494480315 0.13249313064897397 0.8260517680145792
86 -0.759884978728705 0.2900466291089098 0.5801293510442668
85 1.2857304176486875 0.47722439415009316 0.1323213591662549
469 -1.750631554771183 0.39157560968652283 -0.00928620749101608
137 0.1227055683700662 0.7183884627124036 1.3645498507634222
470 0.995424163944152 -0.36425582155376657 -0.3436868452847528
472 0.11372374692339818 0.19757276651639005 -0.4443850745870176
474 -0.5729655145880487 1.035924983455943 -1.1413053807854139
477 0.22081264392387218 1.7382005413187875 0.24789408524086962
478 -1.8999297878852923 0.6977006143137905 0.4047547798780235
186 -0.2652472829671638 -0.32159911955202813 -0.5499109918956818
490 -1.4141267472145083 -0.9828378622346601 -0.7249917481563616
182 -0.9090031605520968 -0.43984610234767935 -0.9991828889007277
183 -0.8484020661431686 -1.5791440575004168 1.9248933029183728
473 -0.4344071205530075 -0.5353556579004117 -1.555632229006011
376 0.7712106051898115 0.2741195743310738 -1.5215724992969928
414 1.8400017082172377 -1.4913730704196142 2.0327927105288226
415 -1.6892978634361442 -0.039914988362404695 -0.8405037700431405
416 -2.0346353285411216 1.5175196840417253 -1.1335966296711073
208 -0.214676293204207 -1.6172772809299278 0.846804463049487
492 0.05838461415843264 -0.4167439108253652 0.5354392717639973
380 1.359661879713676 1.9636081310677298 0.4938628972141704
205 1.5659929554898253 0.05885726865707843 1.0191616026964896
377 -0.5542483946965159 0.49530418148570277 -1.3151414129209378
374 0.6571694703267914 1.3299138761221578 0.02634406990473038
375 -0.4655414699262664 -0.48339247837229604 -1.7415397804075299
401 1.5042179706165328 0.7054337410751192 0.7528870003627123
206 1.1201437118791997 -0.5231006991584369 1.8852847419992134
204 -1.0208822280852217 -0.3782770642414655 0.7370556521856378
100 -0.08814886649000449 -1.209572829450322 1.8381101199853889
373 2.5782640108769925 0.48973547782115884 1.2170261094405228
98 0.019571022235940944 -2.045563185948221 -2.0214733764263766
99 0.19248178945159453 -0.12152694386781533 0.6043050630381788
372 -0.4452075286866991 1.006894279782757 -0.16451470846211627
405 -1.1216733323992663 0.3559711017639628 -1.5356021364047436
81 -2.2223858740461684 2.589053269828297 -0.24769274320325335
82 -0.37470497971665356 0.8418727050986873 2.479403413680155
83 0.5445191780771427 -0.6348278077418481 -1.736905555099547
136 -1.4604444190173471 1.6258739220629732 -0.0911065963980757
486 -0.3280094572605663 1.9121608389771165 -0.7112389383412953
489 -1.3429939462879865 0.6415792847705595 1.2576712950790885
485 1.639316258655876 0.5914425513825633 -0.4059081150965916
181 -0.7948115994823383 0.7750965436403 0.6945117629102081
139 -0.6891045595231845 1.0873912503005525 1.4436731938211045
138 1.0447244826648996 -0.6521861437255818 0.2626909491095444
134 -0.8253911329975342 0.5266386448915055 0.8739867405015256
123 1.351952838759098 -0.42935716676195135 -0.4477733889114599
140 -0.6772131047771724 -0.6017530416655328 0.9977017640944428
131 1.2908214314274462 0.8970537466751836 0.1384034722116363
491 -0.8124355821183529 -0.03928830755999403 1.697726880077593
484 1.2731958163462014 -0.31972252793329936 -0.30793116688582034
488 -1.7441476103099391 -0.9776078361617516 -1.4683171910493844
482 -0.20748558877630252 0.21372135678216955 -0.10576992313254821
378 -0.8178806568470228 0.8178120556819288 0.8951979174851256
480 -0.17029790501081404 -2.0268288563291583 0.11824336281721037
124 -0.28503580489455194 -1.3197197314022149 -0.11306717805474635
479 0.21563007968465994 -0.09667382535864162 -1.6516126609444888
128 0.4707134012273711 -0.3649112581314643 1.2838444931476871
129 -0.28151576074291335 0.3319921688854085 -0.1576023727943796
493 -0.5117025810929459 -0.5213207306821818 -0.8684082607015633
483 0.9948873267353703 -1.283236224169092 0.36589992203562133
494 0.8361143693450137 -0.10717423475453483 1.2843432743587284
379 -0.05371178446751029 -0.497178735426878 1.4465856954360183
362 -0.3615136110457285 1.4293988476917745 -0.0014375021101976782
369 1.105337273155606 -1.6847990611829504 0.9090637366626866
363 -0.653470160204251 0.8373836500941546 -0.19722340585624018
368 1.4866111004426614 -0.5776886868447706 -1.6736367643971988
370 1.7788167952095357 0.8826480517937527 -3.4178022288575707
371 0.9102544820843598 0.8675617646857681 -0.783391081999154
203 -0.03412887527920856 -2.8849557787872464 0.05727289423702963
202 -0.297305215815875 -1.0244811693533735 0.28431770832622855
367 -1.4387374070992027 -1.0959662343907755 0.1603044941706971
366 -1.6786510769555785 -0.9577426330130082 0.42213445820094536
201 0.5138921737259274 0.7961397641443646 0.9625870918035601
487 -0.6650670717777029 0.2910187618363618 -1.1468289935969234
122 1.850063751346324 0.40087743207499965 0.0339270876365605
133 -1.747255571662678 -0.9595649825041753 -0.06083059145204119
135 2.1380903410161913 -0.8078482633793319 -0.3882586150606006
132 -0.09337141253491822 -1.2354494677986039 -0.8530470861722163
481 -0.4152093255673667 -0.970795112243656 -1.1756498726576574
121 -1.1919908027359565 -1.0698705223299119 -3.4814945092068244
496 -0.12563270603940085 0.2936179782543533 -0.7976235989889242
125 -0.5033467876229606 0.784395539222462 0.9553253144084277
126 0.13446796193176594 -0.42800953299170125 2.4114869018241425
127 -0.3663875232320407 1.3956916298270416 -0.24328310136276862
130 0.5988187727202928 0.32738657054511117 0.8600369958691719
497 0.837999305053048 -0.4705310438095681 -0.8391481334050647
495 1.4114296027419013 -0.9250184620670675 -0.24829005998800024
498 0.02124642551231776 0.5948719573970461 -0.09160338283080902
365 0.39415675545745477 -0.14573403794490428 1.689978230188161
500 -0.159893840954098 -1.9902088661303439 -1.4675820428756583
499 -0.8876929758695485 -1.4010509726319995 0.6922140858740288
361 0.06322584863826186 0.6030049235823745 0.15672432612916698
364 0.12423785574955074 -1.5397299686702761 0.4750447329340863
259 -0.43805447047135465 -0.08460228295339307 0.10234738029313369
258 -0.8121535766153696 -0.48690961555247914 -1.3637021753615988
179 0.5505235536093004 -0.5703215819250683 -1.052087034922388
178 1.01714892064003 0.2110995908064317 0.38943154526441387
174 0.28432012607592866 2.174282118503153 -0.5798394406695665
180 0.2884525027574016 -0.39583984318300863 0.5100110832218383
175 1.2875170568653824 -1.4316393913672227 0.3438421756413169
257 0.11844057825420387 0.05606614263396264 0.6147958644825589
256 0.13183436370923468 -0.3857341458714453 -0.20818559803039463
171 1.0349418232477887 0.951296521455678 -0.5016456432488375
170 -0.8395944057113239 0.5657993972177012 0.6550368312672267
255 -0.02384380424217962 -2.049558279283442 0.34994238645366316
254 -0.15857173682261383 -0.9990334378651123 -0.5958738343558133
253 -0.6113332143615393 0.6138023177244852 -0.6028724685687467
169 -0.018240852066414702 -0.13867134608219905 -1.589341652096725
260 -0.047354681307927346 0.7378828214853609 -0.5147843026730502
30 0.64319493746906 -0.8568079024894737 -2.0070596913153986
29 -0.9451114535902406 -0.2627820045173226 0.2820037829310476
32 0.13678565958321984 0.5357924364400416 -0.015511822300316796
177 -0.12878696905399778 1.7726067286237197 0.3713659781379102
241 1.163164809169776 -0.7069190156911196 0.706412732134239
176 -1.2423295559944816 -0.5778962511099563 -0.6281306136290238
165 0.34945937816824324 0.27044316636860416 0.012696290117195847
173 -0.22399791660742518 1.0829358963437705 0.36270108409781776
172 0.20558223813311358 -0.4169933445794929 -0.48368176946457025
164 -0.48073486678175226 0.9750776436904541 0.5360667417322984
163 -0.7714304149278601 -0.8731804094856582 0.10026668673411161
246 -0.9599606050831476 -1.046543317226003 -1.5285149699698592
249 -0.04392656853162645 0.891717055658553 0.9605030136244225
248 -1.0865946733098075 1.0296643399068328 -1.0749588036520399
247 0.9987317321184904 1.352880449038411 -0.03119533541090506
166 -0.24179478694513262 -1.164713696699668 -1.2934575200154095
167 -0.5461399819350095 1.8025790658853094 -0.5068744763271054
168 0.008443209028355762 -0.5061955272442553 -0.2559028094320802
38 -0.6380395973715237 0.38154993718424635 -0.26929603942499597
162 0.6440046304299539 -0.9150396822022381 1.341407325938665
28 -0.4739472653379748 -0.851502471043767 -1.2319101674336113
27 0.6378620091641308 0.5426522580964465 0.09900396202550824
250 1.6140791989916272 -0.5319774430975724 0.1917354776170894
31 1.966280591828597 -0.6552384590519921 1.600528743707169
39 -3.4066069814435087 1.5075202012716375 -0.912288538395728
252 0.7176430387326849 -1.0016960200728182 -0.2082692651539283
33 -1.3481199908653707 -1.021790717118804 1.0975229193846128
40 -0.02298366422909239 -0.6122395042480532 -0.23207977844283253
242 0.07053286279532142 1.2619923220906892 0.9168110433880392
245 -1.7490097708925678 0.14446812060182768 -0.2070666271881121
243 0.017980234854935665 -0.03270431721685566 1.9922435518588744
244 1.2622253834184671 0.18660471201914425 0.32198912795915424
25 -1.528224365176798 -0.3931223742434484 -1.7997131578802879
21 0.6640320838162409 1.3955887994228857 0.02061496777257296
22 1.1334976012860998 -0.306168310329612 -1.581752922780913
36 0.8666677226764706 0.4392977101152102 2.7243258911849706
35 -0.6126783729676745 -0.9311849455821931 -0.6183253376816904
161 -0.20581593638874723 -1.2946092614685816 2.1429368586802378
26 1.7300411058452325 -1.590808939296134 -0.04750906182859372
251 0.9776922632528731 0.43345843476346907 1.451383150262336
24 1.3277078613873263 -1.3603684655881518 0.1967301533941699
34 0.325627828211537 0.3215982810568429 -1.5867439843943196
37 0.06431657558580615 -1.1476498173965473 0.7153748922373625
23 -1.901053046627831 1.4754804933943162 -0.7624406015880132
74 0.13160883010733546 -0.3034591047388229 -1.2495643912014855
73 -0.6240909328292321 -0.7555812118245879 0.8956614000406067
76 -0.2894769322206537 -1.7245142788960464 0.23145037909423655
75 -0.6414188180463839 0.6521675247518647 1.9539692133486528
77 0.10267115014296264 -0.05722174098808082 -1.3592593321173359
64 0.24259365621864626 0.6410844136424181 -0.7833583704253364
63 -0.27841544466110885 -0.15721442998152663 -0.8779664566985668
72 -0.19455714816982142 -1.6083531600555336 -1.5354625775603992
79 1.0370217386531289 1.4483371591129048 0.41751893277471613
80 0.9724613092265662 1.493298564299138 -1.8075916138165542
65 -0.3979943346689415 -1.5063186129850745 -0.3371131976034766
69 0.6046130652752647 0.8542682843429594 0.43765628039931675
68 -0.01322201769295831 0.875370534090518 -1.3495304800508392
67 -0.015689376237800954 -1.0412214087738905 0.6973261888031405
66 0.32193507568400387 0.8673522440854933 0.21281315568152168
62 -0.45771422872270867 1.5484350877333304 -1.9422105553437308
71 -0.04605819833063054 -0.03577519782635233 1.2688538914061167
70 0.1364317971757516 -0.7014962540914512 0.1709975176350017
78 -0.7135802289224509 1.546570460231258 1.1518068395765022
61 0.018174479994408205 -2.26605726943563 0.9398341856387327
443 0.4140283014688158 0.21726471204749082 -1.3393316072378096
460 1.371081886917885 0.031558108278386655 0.7600215232855567
445 -1.2665378026920024 -1.117526306091003 0.7542991871458105
444 0.8804791044186142 -1.6357365798775796 -0.589818712720975
442 -0.7179465275366201 1.2908796977700214 0.05160703922206711
454 -0.34683096529961566 1.2117422899939743 0.2197309690210216
457 0.9769090731032463 -0.5813178180624592 -0.09047475934220893
456 0.20719309615273052 0.959757152804266 0.6440214006737096
459 0.39028014759082824 0.5804834229886496 0.6309296565068191
458 -0.12929329382780308 -1.1963248549443173 0.9553469164354688
446 -0.6760748861679544 -0.5197411537950055 -0.5324325164523595
448 0.5102971015901756 0.8807634889302249 -0.5843547958460692
449 -0.2037161218864293 -0.5660779533386964 0.76569108911604
441 -0.9913485353949054 -1.4099351735047922 -1.0199864866344794
453 1.574000493392821 1.0480253822225987 -0.14077739110970297
455 0.7795697052182978 -0.8176914413927562 1.430253597059258
452 0.7075979942184804 1.3445352577604768 -0.16943663028198994
451 0.6009586150998736 0.7772429088605449 -0.9270830814294353
450 -1.5196560084504729 -0.22163426130794836 -1.1698252102385531
447 0.9465269440567337 0.44282417134126123 -0.6109336222546625
226 0.6999642597796358 0.04589981941196325 0.17762751342241742
227 -1.504332394792202 -1.193020895754179 -0.597521439935963
228 -0.3405609299335788 -0.10431153117726165 -0.08225381743374185
229 0.1392375800384332 -1.3284645954963141 1.4370075850218744
237 -0.5992341732605859 -0.7943627247153578 -0.40529041948297884
225 -1.240640841774761 1.2624484232153463 1.9107785119278993
231 -0.17583356199318406 -1.1729501015521824 -1.388568553529384
236 -2.1706534513451654 0.9628811600998725 0.2467387424929986
230 0.8021791160850463 -0.6975382629057056 1.6957193904238987
232 0.4752509030643174 -0.7254859298663913 0.1488091395012231
233 1.8791762377038141 1.7530496556949249 -0.5427579924809478
238 0.6058274969286035 0.7811149628247118 0.13735852424415257
240 -0.1554257043548512 1.2555056605727135 0.59713520255571
239 1.4907836268691683 2.333208769260228 -0.15466153729341717
235 -0.736778574337407 0.21026228344660008 -0.23121560251225828
223 1.7997899750596806 0.6792572092977265 0.000313512442685943
224 0.7977374280188652 0.26990928320579266 -0.791951975012118
221 0.544337651711585 -1.2495711207604037 0.1988256409989279
222 -1.5971022638312316 -1.1529779943787277 0.7390564011883074
234 0.044625180122452125 -0.8316646881885488 -1.4833244623638888
50 0.31340787965460315 0.03475278309734207 -0.7426581052643202
51 -0.35274453481758467 0.21247305852916856 0.5628702395237447
57 -0.7385252074598077 0.5909718787057384 0.4730976548008545
58 -0.24006346725681618 0.2243447230374392 -1.0926363572425306
56 0.3562496653679586 0.13737562651372745 0.8557092034964197
49 -0.20989063109654688 -0.6342085532762368 -0.15164198981597168
52 0.5942395784829578 0.8856317218394019 -0.48961298665386194
48 -0.5785342319303842 0.24282085012904228 -1.4091631096610906
54 1.9346676563448193 -0.3264032280637198 0.31147213631163806
53 -0.15826996950861646 1.8162418637860738 -0.43286197188729514
42 1.1894609903984783 -0.8707767530752575 0.28751439846261917
43 -1.4101624289333106 -2.1464244647874655 1.5079501864643818
44 -0.23998732024816355 -0.47659718605469725 2.223108987897047
59 0.8918563119199493 0.4609080940869753 -0.1566073579590824
55 0.1396704462743512 2.4435429344000688 -1.1499071468112727
46 -0.4751143826522015 -0.5186324517621448 1.6428485360090308
47 0.2835583389892482 -1.347636876162858 -1.13359423419524
60 0.644225009998462 0.7187663164608212 0.0870474842585019
45 1.2648875736156107 0.5070343429464497 0.7154239373088344
41 -1.2244645277166988 -1.6216038247831042 -1.4208538845564778

Bonds

1 1 294 295
2 1 289 290
3 1 296 297
4 1 291 292
5 1 292 293
6 1 295 296
7 1 286 287
8 1 290 291
9 1 293 294
10 1 281 282
11 1 288 289
12 1 298 299
13 1 297 298
14 1 287 288
15 1 285 286
16 1 282 283
17 1 283 284
18 1 284 285
19 1 299 300
20 1 103 104
21 1 104 105
22 1 106 107
23 1 105 106
24 1 113 114
25 1 114 115
26 1 118 119
27 1 117 118
28 1 116 117
29 1 107 108
30 1 108 109
31 1 102 103
32 1 101 102
33 1 115 116
34 1 109 110
35 1 111 112
36 1 110 111
37 1 112 113
38 1 119 120
39 1 146 147
40 1 159 160
41 1 142 143
42 1 143 144
43 1 155 156
44 1 144 145
45 1 145 146
46 1 153 154
47 1 158 159
48 1 141 142
49 1 156 157
50 1 149 150
51 1 147 148
52 1 148 149
53 1 151 152
54 1 157 158
55 1 154 155
56 1 152 153
57 1 150 151
58 1 438 439
59 1 302 303
60 1 439 440
61 1 436 437
62 1 301 302
63 1 308 309
64 1 309 310
65 1 307 308
66 1 310 311
67 1 305 306
68 1 306 307
69 1 316 317
70 1 311 312
71 1 437 438
72 1 304 305
73 1 303 304
74 1 314 315
75 1 315 316
76 1 312 313
77 1 435 436
78 1 434 435
79 1 422 423
80 1 421 422
81 1 423 424
82 1 428 429
83 1 319 320
84 1 429 430
85 1 317 318
86 1 318 319
87 1 430 431
88 1 431 432
89 1 432 433
90 1 313 314
91 1 433 434
92 1 424 425
93 1 425 426
94 1 426 427
95 1 427 428
96 1 271 272
97 1 273 274
98 1 399 400
99 1 269 270
100 1 270 271
101 1 272 273
102 1 395 396
103 1 265 266
104 1 274 275
105 1 396 397
106 1 397 398
107 1 264 265
108 1 263 264
109 1 276 277
110 1 398 399
111 1 391 392
112 1 277 278
113 1 278 279
114 1 279 280
115 1 18 19
116 1 17 18
117 1 1 2
118 1 268 269
119 1 394 395
120 1 389 390
121 1 267 268
122 1 266 267
123 1 275 276
124 1 393 394
125 1 388 389
126 1 392 393
127 1 262 263
128 1 390 391
129 1 387 388
130 1 386 387
131 1 261 262
132 1 384 385
133 1 383 384
134 1 385 386
135 1 19 20
136 1 4 5
137 1 16 17
138 1 2 3
139 1 3 4
140 1 5 6
141 1 15 16
142 1 381 382
143 1 382 383
144 1 7 8
145 1 8 9
146 1 9 10
147 1 14 15
148 1 12 13
149 1 10 11
150 1 6 7
151 1 13 14
152 1 11 12
153 1 357 358
154 1 194 195
155 1 195 196
156 1 322 323
157 1 359 360
158 1 323 324
159 1 355 356
160 1 356 357
161 1 358 359
162 1 463 464
163 1 193 194
164 1 196 197
165 1 197 198
166 1 354 355
167 1 462 463
168 1 321 322
169 1 324 325
170 1 326 327
171 1 353 354
172 1 332 333
173 1 351 352
174 1 341 342
175 1 342 343
176 1 349 350
177 1 347 348
178 1 348 349
179 1 344 345
180 1 345 346
181 1 350 351
182 1 343 344
183 1 346 347
184 1 191 192
185 1 190 191
186 1 464 465
187 1 465 466
188 1 327 328
189 1 192 193
190 1 325 326
191 1 198 199
192 1 336 337
193 1 337 338
194 1 338 339
195 1 461 462
196 1 419 420
197 1 412 413
198 1 411 412
199 1 328 329
200 1 329 330
201 1 330 331
202 1 334 335
203 1 331 332
204 1 333 334
205 1 352 353
206 1 410 411
207 1 219 220
208 1 407 408
209 1 217 218
210 1 218 219
211 1 216 217
212 1 215 216
213 1 214 215
214 1 409 410
215 1 408 409
216 1 92 93
217 1 94 95
218 1 95 96
219 1 93 94
220 1 188 189
221 1 467 468
222 1 468 469
223 1 189 190
224 1 187 188
225 1 471 472
226 1 466 467
227 1 475 476
228 1 339 340
229 1 184 185
230 1 185 186
231 1 209 210
232 1 199 200
233 1 476 477
234 1 418 419
235 1 417 418
236 1 207 208
237 1 335 336
238 1 210 211
239 1 211 212
240 1 402 403
241 1 413 414
242 1 406 407
243 1 213 214
244 1 212 213
245 1 97 98
246 1 403 404
247 1 404 405
248 1 90 91
249 1 91 92
250 1 84 85
251 1 88 89
252 1 89 90
253 1 96 97
254 1 87 88
255 1 86 87
256 1 85 86
257 1 469 470
258 1 137 138
259 1 470 471
260 1 472 473
261 1 474 475
262 1 477 478
263 1 478 479
264 1 186 187
265 1 490 491
266 1 182 183
267 1 183 184
268 1 473 474
269 1 376 377
270 1 414 415
271 1 415 416
272 1 416 417
273 1 208 209
274 1 492 493
275 1 205 206
276 1 377 378
277 1 374 375
278 1 375 376
279 1 401 402
280 1 206 207
281 1 204 205
282 1 373 374
283 1 98 99
284 1 99 100
285 1 372 373
286 1 405 406
287 1 81 82
288 1 82 83
289 1 83 84
290 1 136 137
291 1 486 487
292 1 489 490
293 1 485 486
294 1 181 182
295 1 139 140
296 1 138 139
297 1 134 135
298 1 123 124
299 1 131 132
300 1 491 492
301 1 484 485
302 1 488 489
303 1 482 483
304 1 378 379
305 1 124 125
306 1 479 480
307 1 128 129
308 1 129 130
309 1 493 494
310 1 483 484
311 1 494 495
312 1 379 380
313 1 362 363
314 1 369 370
315 1 363 364
316 1 368 369
317 1 370 371
318 1 371 372
319 1 203 204
320 1 202 203
321 1 367 368
322 1 366 367
323 1 201 202
324 1 487 488
325 1 122 123
326 1 133 134
327 1 135 136
328 1 132 133
329 1 481 482
330 1 121 122
331 1 496 497
332 1 125 126
333 1 126 127
334 1 127 128
335 1 130 131
336 1 497 498
337 1 495 496
338 1 498 499
339 1 365 366
340 1 499 500
341 1 361 362
342 1 364 365
343 1 259 260
344 1 258 259
345 1 179 180
346 1 178 179
347 1 174 175
348 1 175 176
349 1 257 258
350 1 256 257
351 1 171 172
352 1 170 171
353 1 255 256
354 1 254 255
355 1 253 254
356 1 169 170
357 1 30 31
358 1 29 30
359 1 32 33
360 1 177 178
361 1 241 242
362 1 176 177
363 1 165 166
364 1 173 174
365 1 172 173
366 1 164 165
367 1 163 164
368 1 246 247
369 1 249 250
370 1 248 249
371 1 247 248
372 1 166 167
373 1 167 168
374 1 168 169
375 1 38 39
376 1 162 163
377 1 28 29
378 1 27 28
379 1 250 251
380 1 31 32
381 1 39 40
382 1 252 253
383 1 33 34
384 1 242 243
385 1 245 246
386 1 243 244
387 1 244 245
388 1 25 26
389 1 21 22
390 1 22 23
391 1 36 37
392 1 35 36
393 1 161 162
394 1 26 27
395 1 251 252
396 1 24 25
397 1 34 35
398 1 37 38
399 1 23 24
400 1 74 75
401 1 73 74
402 1 76 77
403 1 75 76
404 1 77 78
405 1 64 65
406 1 63 64
407 1 72 73
408 1 79 80
409 1 65 66
410 1 69 70
411 1 68 69
412 1 67 68
413 1 66 67
414 1 62 63
415 1 71 72
416 1 70 71
417 1 78 79
418 1 61 62
419 1 443 444
420 1 445 446
421 1 444 445
422 1 442 443
423 1 454 455
424 1 457 458
425 1 456 457
426 1 459 460
427 1 458 459
428 1 446 447
429 1 448 449
430 1 449 450
431 1 441 442
432 1 453 454
433 1 455 456
434 1 452 453
435 1 451 452
436 1 450 451
437 1 447 448
438 1 226 227
439 1 227 228
440 1 228 229
441 1 229 230
442 1 237 238
443 1 225 226
444 1 231 232
445 1 236 237
446 1 230 231
447 1 232 233
448 1 233 234
449 1 238 239
450 1 239 240
451 1 235 236
452 1 223 224
453 1 224 225
454 1 221 222
455 1 222 223
456 1 234 235
457 1 50 51
458 1 51 52
459 1 57 58
460 1 58 59
461 1 56 57
462 1 49 50
463 1 52 53
464 1 48 49
465 1 54 55
466 1 53 54
467 1 42 43
468 1 43 44
469 1 44 45
470 1 59 60
471 1 55 56
472 1 46 47
473 1 47 48
474 1 45 46
475 1 41 42
