LAMMPS data file via write_data, version 30 Mar 2026, timestep = 50000, units = lj

500 atoms
1 atom types
475 bonds
1 bond types

0 60 xlo xhi
0 60 ylo yhi
0 60 zlo zhi

Masses

1 1

Pair Coeffs # lj/cut

1 1 1

Bond Coeffs # harmonic

1 100 1

Atoms # bond

301 16 1 2.786200434506201 1.956338990527513 4.053467688787113 -1 2 1
12 1 1 34.20349309292392 7.6938108788488995 6.966246990718936 -3 1 2
14 1 1 34.8117549938179 6.292246991162609 6.251820796503821 -3 1 2
13 1 1 34.426857340732774 6.715376282504869 7.0573126447042025 -3 1 2
20 1 1 36.13650682705261 7.135218229179929 6.7094897570007435 -3 1 2
427 22 1 4.7002358155441755 57.95852408996523 3.9377951707060403 0 2 -1
424 22 1 4.446465414037085 58.54359179447323 3.107783706464756 0 2 -1
423 22 1 4.202645726048561 59.46068984237515 2.5608812475511114 0 2 -1
426 22 1 4.2978496768333345 57.45940078819916 3.222961727362373 0 2 -1
428 22 1 5.582341868421783 58.305078090980075 3.387611172961463 0 2 -1
429 22 1 5.634427073524829 59.22706290707608 3.4400529187828797 0 2 -1
430 22 1 4.688052166727808 59.137730994214046 3.864116810568259 0 2 -1
422 22 1 3.630703531009786 59.39587131553094 3.277277263261008 0 2 -1
421 22 1 2.964683827339301 0.12004112123352245 3.4529495029565807 0 3 -1
431 22 1 5.389424683238007 58.7229652473209 4.296779311190069 0 2 -1
440 22 1 4.0465558497007175 59.92948363517271 4.354403092493177 0 2 -1
309 16 1 4.302148342454638 0.798973830633163 2.5411791223601488 -1 2 1
310 16 1 4.150310995883324 0.46659608290326426 3.5348118763762373 -1 2 1
311 16 1 4.914321366058694 59.99239671664352 3.2397798846196193 -1 1 1
319 16 1 5.505386128329572 59.820507403527024 5.730023186924289 -1 1 1
304 16 1 4.460408061973351 1.3962495773981591 3.5590007098235876 -1 2 1
305 16 1 4.2884043791573125 0.9768869948245342 4.468170851716944 -1 2 1
308 16 1 3.530899479104571 1.4177069684075991 2.571825280745856 -1 2 1
302 16 1 3.6562528810606363 2.1753546999988003 3.8648568108309735 -1 2 1
11 1 1 35.031842323294704 8.219232965672324 7.380965640610488 -3 1 2
10 1 1 34.541920672720295 8.95159874335369 6.7002362505626465 -3 1 2
15 1 1 35.00147288287862 6.632497258197273 5.436370123355406 -3 1 2
16 1 1 34.223610642474085 7.1347479529134405 5.778701434321144 -3 1 2
18 1 1 35.20272576668642 7.425686070116285 6.292167781453434 -3 1 2
19 1 1 35.341611945619135 7.156615883152826 7.278406204145887 -3 1 2
5 1 1 34.58383470290734 7.886848870610123 4.612084364830197 -3 1 2
425 22 1 4.5202828010519225 57.910546189375644 2.4594965717248374 0 2 -1
439 22 1 3.320164321480892 59.905587220895086 5.138154210427182 0 2 -1
436 22 1 4.1590252698153725 59.67321473068999 5.745390756276657 0 2 -1
313 16 1 6.1541910598091984 0.7394806738250317 3.9384541312651034 -1 2 1
433 22 1 5.063501727352761 58.842968974812884 5.299938790057858 0 2 -1
314 16 1 6.03180691230606 0.4541274894130819 4.907962038340362 -1 2 1
432 22 1 5.8509356324009065 59.2822573745678 4.787670044933164 0 2 -1
320 16 1 5.415190508613129 0.7911980076981976 5.929796662042001 -1 2 1
438 22 1 2.8977205977701663 59.11693413740533 5.1389735002630825 0 2 -1
316 16 1 4.978926920157 1.727589173763215 5.497328156415241 -1 2 1
307 16 1 3.3540172374663593 1.1933745883263034 3.5812442932730226 -1 2 1
306 16 1 3.4249864450848566 0.6982396327293099 4.427417054576981 -1 2 1
312 16 1 5.367356213931634 0.0873986393785818 4.109486922539324 -1 2 1
318 16 1 4.907364390708691 0.1454709562851235 5.091977638423515 -1 2 1
303 16 1 4.415010071329444 2.219631037014603 3.239183005723954 -1 2 1
442 23 1 18.654344559555206 2.1076440100431477 6.985289446241327 3 1 0
443 23 1 18.13245515022523 2.58268946930553 6.362642532311252 3 1 0
441 23 1 17.66659402696409 2.04054089133865 7.325472532591622 3 1 0
454 23 1 19.156138536261704 4.130414411275234 5.505729125612095 3 1 0
453 23 1 19.366700538267587 3.3283021277201783 4.916579880338509 3 1 0
455 23 1 18.419572940288973 3.4937752163706275 6.029732888112294 3 1 0
456 23 1 19.291085815516503 3.0090532562145604 6.092139507988458 3 1 0
458 23 1 18.807715578892715 1.3135305106091313 5.1934728969681405 3 1 0
457 23 1 19.231779152995674 1.951348671308931 5.823029430933174 3 1 0
9 1 1 35.44384143085502 9.126942837433354 6.486486277083684 -3 1 2
242 13 1 54.05562322744095 2.6221032695392283 4.996215676471568 -1 0 -1
7 1 1 36.15287952680663 7.762763423423947 5.722987545736783 -3 1 2
8 1 1 35.90397474445644 8.271259127201882 6.551232615926453 -3 1 2
17 1 1 34.572398242186225 8.14782726714743 5.825958536812359 -3 1 2
158 8 1 20.71507239021689 9.091442242055429 7.501280198492858 2 0 1
156 8 1 19.989377405449332 9.013953499775049 8.295620126927028 2 0 1
157 8 1 20.69714249616322 8.366474138770828 8.20911588006764 2 0 1
4 1 1 34.897380850704245 8.94023424143237 4.800945728339119 -3 1 2
6 1 1 35.43001931022142 7.688481794915359 5.0374696021117344 -3 1 2
3 1 1 35.19431666386856 9.66521910889824 4.245781140640753 -3 1 2
160 8 1 20.184842688153136 8.4584013358389 6.577963881522003 2 0 1
159 8 1 19.79823314344114 9.163051029717789 7.190236668195484 2 0 1
1 1 1 35.657821894617314 8.73016419270734 3.9884130822185835 -3 1 2
2 1 1 36.12960187887937 9.263614241521456 4.522060818243515 -3 1 2
437 22 1 3.9306976353384333 58.95123181436168 4.990999565248881 0 2 -1
435 22 1 4.8160449137187245 59.178955274591736 6.363536012525912 0 2 -1
434 22 1 5.720775688744756 58.69330418537226 6.09679809399124 0 2 -1
317 16 1 4.39610220205284 0.7955774379863287 5.804655719306198 -1 2 1
315 16 1 5.3647793231233925 1.315208824851899 4.8847354094125395 -1 2 1
444 23 1 17.43134021100082 3.2331998167486145 6.080620225539793 3 1 0
299 15 1 36.04903660753081 59.263653019131986 8.018864141141687 0 0 0
292 15 1 34.605646228978074 59.82595815236376 7.26151530322363 0 0 0
298 15 1 36.42840234612131 58.67538429068546 7.46194703154987 0 0 0
297 15 1 36.55651300915361 59.457711233603284 6.866281231795184 0 0 0
452 23 1 18.650593564653306 2.6704551497552185 5.257928258860014 3 1 0
446 23 1 17.276871266567948 2.5519416967586523 4.294056199665296 3 1 0
451 23 1 18.331112959033035 3.083536516303951 4.269041446948746 3 1 0
445 23 1 17.626984341769337 2.854414416504588 5.122316408409981 3 1 0
459 23 1 17.945363546247975 1.8232951489070628 5.2340140201172085 3 1 0
460 23 1 17.97551718891959 1.0729652691776106 4.575475196344833 3 1 0
300 15 1 35.12056402367075 59.49086566387482 8.401438918728884 0 0 0
245 13 1 52.91837270645644 2.468460399736179 4.792743896882668 -1 0 -1
244 13 1 53.234843639891714 3.1227725166428573 5.502591538670947 -1 0 -1
243 13 1 53.647954809835795 2.1510792293402528 5.654624214922104 -1 0 -1
162 9 1 50.85944327272031 3.6058044406743255 5.261918756188603 -1 0 -1
173 9 1 53.42632156994504 5.540173231538954 4.849363481452237 -1 0 -1
172 9 1 54.102411902884405 4.803346616151757 5.147312657048551 -1 0 -1
171 9 1 53.85179712873115 3.8349217492142453 5.258396085232011 -1 0 -1
178 9 1 54.466229486686785 4.289755145796874 6.0491499809725 -1 0 -1
177 9 1 54.51024993377988 5.2300040874384655 5.954573287753504 -1 0 -1
241 13 1 53.64750586205748 2.654920803545143 4.126422612201054 -1 0 -1
161 9 1 51.32977776956892 2.716893149601732 4.8930639236001925 -1 0 -1
174 9 1 54.34942156465939 6.090029505941916 4.825490517780303 -1 0 -1
175 9 1 53.69367198722412 6.30044736776694 5.532212998698554 -1 0 -1
155 8 1 19.9850622824273 8.209914167946598 7.525392457600173 2 0 1
145 8 1 19.649145048338017 7.571412852314876 5.955075293733069 2 0 1
149 8 1 18.55708312416429 7.745283237089155 7.654559603499779 2 0 1
150 8 1 18.846985026939997 8.751282522562041 7.899487088174833 2 0 1
148 8 1 18.45176982060761 7.003433778653013 7.004002888768985 2 0 1
146 8 1 19.188318231985257 8.091136829471262 6.743227831888517 2 0 1
154 8 1 20.926559035814225 7.77485033602137 7.331535032911385 2 0 1
143 8 1 18.171555125721156 8.497525081696452 5.2854261034561665 2 0 1
144 8 1 18.912826232305104 8.099453786471095 5.432394440655941 2 0 1
141 8 1 19.02211825967776 9.102321995142562 5.673858478764704 2 0 1
295 15 1 36.991693100656256 59.958877327384556 8.325090639490096 0 0 0
294 15 1 36.31902896509652 0.2476066685711515 7.527916536213331 0 1 0
296 15 1 37.191377363159674 59.5382585379876 7.483814485338979 0 0 0
291 15 1 34.931204932581714 0.11415609906134853 6.4651314071200146 0 1 0
448 23 1 18.05250303430253 2.430454578505648 3.379459388118774 3 1 0
447 23 1 17.344288821460253 1.7567829147437721 3.666468161836364 3 1 0
449 23 1 18.447861206400688 1.831050088211322 3.9678092625149537 3 1 0
450 23 1 19.214283073798637 2.416403955336299 3.94811998945093 3 1 0
246 13 1 52.6794551087836 1.4749228357645243 4.890620929055302 -1 0 -1
248 13 1 52.506644013776366 2.1570961677440548 6.76543555522786 -1 0 -1
247 13 1 52.650282635205976 2.0123639578966013 5.7868590232586925 -1 0 -1
180 9 1 54.01614795452719 3.3805030425685585 6.105653580833184 -1 0 -1
249 13 1 52.822471717693965 3.028336803465731 6.5569727111971385 -1 0 -1
251 13 1 51.70063699634517 3.130847043690457 6.560270011913916 -1 0 -1
250 13 1 52.10634361605568 2.981799535073596 5.758803119341467 -1 0 -1
163 9 1 51.10949694703022 4.521528694374946 5.320641542057485 -1 0 -1
176 9 1 53.53620939228232 5.524189172718128 5.9924604671636965 -1 0 -1
179 9 1 54.85591113278513 3.670299264158246 6.618607109598828 -1 0 -1
165 9 1 52.02982421673712 5.677703967219675 4.6472772691365405 -1 0 -1
164 9 1 51.89300798521733 4.683688973632244 4.635478957331251 -1 0 -1
169 9 1 53.05551797785054 4.560685806502822 4.948347982101855 -1 0 -1
170 9 1 53.221654426144106 4.20300878754437 5.964207893012018 -1 0 -1
168 9 1 52.638877605087394 5.123676017533469 5.585895416618067 -1 0 -1
151 8 1 19.38374941136505 7.976453325181158 8.351598537973844 2 0 1
153 8 1 20.26679400080042 7.285600154327955 6.870271283415176 2 0 1
152 8 1 19.505099890492758 7.255791961354383 7.604319054274831 2 0 1
147 8 1 18.298818233172764 7.730377788232925 6.372074175076377 2 0 1
142 8 1 18.185889272243738 8.802684439250651 6.21556148083119 2 0 1
284 15 1 36.2139802454904 1.3278879075853418 7.917547456868396 0 1 0
293 15 1 35.39009802562683 0.21328220238264314 7.617563653398387 0 1 0
289 15 1 35.87373954455408 59.81022391076286 5.992527942067278 0 0 0
283 15 1 37.17374739053603 1.4474482564032771 8.363231621857775 0 1 0
290 15 1 35.51944243913604 59.40460282672474 6.872284692470474 0 0 0
281 15 1 38.18374228899274 1.184682976672153 8.31497135316705 0 1 0
282 15 1 37.506081744603684 0.8193586525908224 7.688637646326142 0 1 0
252 13 1 51.65759198538931 3.4744911210403706 7.521793274010098 -1 0 -1
253 13 1 51.532114558815024 4.28891203238317 6.929335174369652 -1 0 -1
260 13 1 53.73356891919676 5.04035721797141 7.8908799960738145 -1 0 -1
259 13 1 54.00604096728945 5.12177614857021 6.983831059752572 -1 0 -1
254 13 1 52.13639252227771 4.248619925134917 5.908439329432516 -1 0 -1
255 13 1 52.66694741345954 4.628640199433052 6.651128968736281 -1 0 -1
256 13 1 52.91071718793274 4.594626352335389 7.607161131758294 -1 0 -1
167 9 1 52.585063034867886 6.1810224755176275 5.347249151407771 -1 0 -1
166 9 1 52.72612125255199 6.467759017781113 4.458449232834881 -1 0 -1
287 15 1 36.602222873058835 0.5020653959284574 6.469673702307408 0 1 0
285 15 1 36.75800788256293 1.3444557652683446 7.209307012699512 0 1 0
288 15 1 36.744517248851174 0.15602437403336267 5.509192943535169 0 1 0
286 15 1 35.89242445569353 0.9271417030974691 6.8331234109769055 0 1 0
257 13 1 52.31420912578472 5.457001572875791 7.545543725571025 -1 0 -1
258 13 1 53.07699622990158 5.621821710068933 7.092508880649431 -1 0 -1
263 14 1 38.875669621164384 58.25581969890368 18.721212786250703 1 -1 1
390 20 1 39.7054750072851 1.4192292049896507 20.9280462978653 1 0 1
264 14 1 38.801456687503 59.13626676900543 18.25762902606063 1 -1 1
265 14 1 38.4614083643683 59.4361206895023 17.39403727193096 1 -1 1
382 20 1 37.43123198560709 57.79210576134427 20.16652770729278 1 -1 1
400 20 1 38.711234629600064 57.70051739026953 20.01614367427188 1 -1 1
262 14 1 39.61481787814971 58.25073821713903 18.244570111333623 1 -1 1
261 14 1 38.88082033447134 57.813887322588464 17.720601497709794 1 -1 1
393 20 1 38.39271429024366 1.2707807042012234 19.705734773076863 1 0 1
280 14 1 35.65058733284215 59.4316785679172 17.410961843340587 1 -1 1
270 14 1 36.87303855073328 0.40867070686160034 18.41789477162324 1 0 1
269 14 1 36.51975506526716 59.68872711702847 18.005459255950473 1 -1 1
391 20 1 39.4994049615492 1.1523140353091195 19.95069988713917 1 0 1
389 20 1 39.87710175025969 0.4432210616996659 20.938263836598406 1 0 1
388 20 1 40.254582567830035 59.985072052682575 20.17418823232206 1 -1 1
268 14 1 36.9147214362961 59.05437489679567 17.41796069573657 1 -1 1
267 14 1 37.542205231669854 58.825143692266415 18.23628639282445 1 -1 1
266 14 1 38.037927508609805 58.481445757355885 17.479070832075372 1 -1 1
381 20 1 36.87897771216436 58.691393132580245 20.33678017088533 1 -1 1
399 20 1 37.97047523563428 58.01297251615581 19.210232955726564 1 -1 1
398 20 1 36.929815342358125 58.32948625159562 19.26727364295338 1 -1 1
394 20 1 37.97923961913793 0.38086456396368007 19.158138698804073 1 0 1
392 20 1 38.88105096986056 0.7686419543031389 20.528069469924745 1 0 1
395 20 1 38.03265096702038 59.36492806471984 19.00666334376329 1 -1 1
383 20 1 38.36580906801213 58.35614530913128 20.718643777774453 1 -1 1
384 20 1 38.76671570108266 58.7879746647896 19.93726449147646 1 -1 1
386 20 1 39.06354745925926 59.7769358748933 20.252267015929593 1 -1 1
277 14 1 36.01559200214412 59.23714443473339 19.96317182446868 1 -1 1
279 14 1 35.64212694823306 59.17744665720471 18.325713580941407 1 -1 1
278 14 1 35.97239659641056 58.69510820012036 19.143718809842223 1 -1 1
387 20 1 39.80152493905341 59.26908001511175 20.59396594763702 1 -1 1
397 20 1 36.940955752749005 59.20731180066541 19.01181824610228 1 -1 1
396 20 1 37.62354928836612 59.14205760190617 19.740368384523375 1 -1 1
276 14 1 35.344763213945555 59.75998655073157 19.365208262081914 1 -1 1
272 14 1 35.79428880567819 0.4809900526522089 18.638410983006526 1 0 1
271 14 1 36.222414177086016 0.8159079277797804 17.686686897751343 1 0 1
385 20 1 39.251978171480815 59.31455004498174 19.415329800556613 1 -1 1
275 14 1 34.9009032277265 59.00186948168388 19.061589212848833 1 -1 1
274 14 1 34.671543357470576 59.653513862954284 18.16261678540721 1 -1 1
273 14 1 34.85287317144854 0.6112017230276364 18.395053093181378 1 0 1
221 12 1 40.24223067692414 10.822909578790137 27.88832541459021 0 0 0
222 12 1 41.27269548885143 10.56658879866228 27.892468011729164 0 0 0
225 12 1 39.61848365493979 8.951751982972203 29.053035477250607 0 0 0
224 12 1 40.463838606667274 9.308520495486702 28.698215094944207 0 0 0
223 12 1 41.47434658933536 9.879883568034737 28.596372001709362 0 0 0
230 12 1 40.803942180015156 10.726754680018674 30.12691814021201 0 0 0
228 12 1 39.59295732016311 10.10585844095688 28.99682178595251 0 0 0
231 12 1 40.01526701581283 10.484132482703451 30.810980992497377 0 0 0
233 12 1 39.41987682213582 11.142886227682856 30.214382306251313 0 0 0
229 12 1 40.105895923015865 10.785580825153914 29.386270213908677 0 0 0
226 12 1 38.87624575188925 9.396445586175407 28.754923284102368 0 0 0
227 12 1 39.37936901537939 9.874469957203097 28.078986018057158 0 0 0
80 4 1 17.773424297780217 52.853560976071506 27.457430600024022 0 0 -1
79 4 1 18.227320929474963 53.29215784812492 26.6994164599304 0 0 -1
78 4 1 18.36816725438399 52.699033455809854 25.992839296414992 0 0 -1
76 4 1 19.28181389502664 52.50034239498956 26.422182174604373 0 0 -1
74 4 1 19.20228241588862 53.398982339259646 24.69491396881642 0 0 -1
75 4 1 19.536244767838074 52.79355178024155 25.43175407769147 0 0 -1
61 4 1 18.945348195203845 53.739371357149246 27.526593113900375 0 0 -1
239 12 1 38.46914026576264 12.612729679243186 31.098714627691038 0 0 0
240 12 1 37.957272398626124 12.479497566391021 31.858975600106884 0 0 0
232 12 1 39.22886670284643 10.19462670636348 30.3770980617993 0 0 0
234 12 1 38.493189109020996 11.311294265292636 29.712553418531925 0 0 0
238 12 1 38.928288881549705 12.25256171973809 30.305671526052144 0 0 0
236 12 1 39.2526719684436 11.774534799766002 28.358532492433298 0 0 0
235 12 1 39.06207612712066 11.129446205882761 28.98921837991484 0 0 0
237 12 1 39.21903288619567 12.11500627766873 29.325556653536328 0 0 0
67 4 1 20.024465491695345 53.797042952845665 27.62225100541666 0 0 -1
69 4 1 20.402229244289625 52.89836923145699 26.414072238531105 0 0 -1
66 4 1 20.95019525372042 53.397418711325805 27.804135080222643 0 0 -1
77 4 1 18.99609571969696 53.463096778838874 25.866922452665662 0 0 -1
64 4 1 20.57666695074021 54.538901302100946 26.265901209953963 0 0 -1
70 4 1 21.411234153726582 52.69278366246012 26.31000824969139 0 0 -1
73 4 1 20.12132430726214 53.375321730212036 24.84999173881004 0 0 -1
72 4 1 20.43550530719754 53.74785969515781 25.723861011401546 0 0 -1
65 4 1 20.88569343468873 54.09878397097846 27.045847134060338 0 0 -1
63 4 1 19.82656588619725 54.88193540612362 26.744788821298037 0 0 -1
62 4 1 18.959640695186934 54.51458075295015 26.89798722315549 0 0 -1
68 4 1 19.826958473466355 53.712992039097266 26.56586288135385 0 0 -1
71 4 1 21.24499280193491 53.43058886941529 25.67000068367716 0 0 -1
420 21 1 1.4587748593009222 52.05464636754584 34.95756299350422 0 -1 0
407 21 1 59.15783145264709 53.29148722417173 35.14676671617131 -1 -1 0
410 21 1 0.8053068742101789 52.83761283903644 34.05253305242593 0 -1 0
401 21 1 59.84105849604347 54.85861361463285 34.759146549327426 -1 -1 0
409 21 1 0.747536781660829 53.81817176998995 34.44393801554471 0 -1 0
408 21 1 59.87037126982111 53.25756620736166 34.48900910289641 -1 -1 0
419 21 1 2.2312240185756544 51.37512103245605 34.867427837182284 0 -1 0
406 21 1 59.298754703517154 54.25003453725396 35.313090858464044 -1 -1 0
418 21 1 2.3357223175102613 52.08358738689166 35.739529172248105 0 -1 0
495 25 1 59.23105685852726 53.05744957872323 36.15262893951589 -1 -1 0
417 21 1 1.8996788635808208 51.85801446327213 36.475448689511644 0 -1 0
416 21 1 1.9873859932020654 52.80928165782763 36.593612476534894 0 -1 0
124 7 1 2.6744650472994502 53.133706771094644 37.79994446611036 0 -1 0
402 21 1 0.06305239427112859 54.86730941104074 35.846241599858686 0 -1 0
403 21 1 0.1186854085931754 53.840981463289836 35.71724035038385 0 -1 0
405 21 1 59.29741583305332 54.15009142003444 36.20014893107981 -1 -1 0
413 21 1 2.8582402557090454 54.09621831078395 35.691700661534945 0 -1 0
493 25 1 0.49375156928587166 52.4744463523118 35.273557588334796 0 -1 0
414 21 1 2.464901348769077 54.01960737758415 36.65303522736132 0 -1 0
415 21 1 2.8545708883412155 53.050679836897054 36.48216667166157 0 -1 0
364 19 1 2.006756819708826 53.91489574497641 37.75453939317649 0 0 0
123 7 1 3.1309901825230875 53.732300390121964 38.455049469437434 0 -1 0
122 7 1 3.1336078085022785 54.70252028379224 38.2318904078624 0 -1 0
472 24 1 58.81924096816886 55.802917132505634 37.917376216774656 -1 -1 0
404 21 1 0.07792367836745413 53.98469828318119 36.68759546888894 0 -1 0
411 21 1 1.5741407495472768 53.1261712997688 34.64063867253109 0 -1 0
412 21 1 2.4178962192222277 53.33486884205171 35.161571470314165 0 -1 0
487 25 1 1.345698495832745 55.359548678137365 36.59505541629423 0 -1 0
365 19 1 2.2072035819947766 54.15141863665818 38.6877627592099 0 0 0
486 25 1 2.1331875584983804 55.022513267251014 37.0015175384953 0 -1 0
188 10 1 59.50801325342497 57.38016093631638 39.51301410889303 1 0 0
330 17 1 0.3572427134251736 55.841476174016734 37.876468570822055 0 -1 0
337 17 1 2.7212159693354807 55.91180387092788 36.31253929014725 0 -1 0
24 2 1 49.03145870873071 0.38021338158349227 39.075695037028375 0 0 1
40 2 1 49.72988836366151 58.49556928046832 38.2169592044649 0 -1 1
39 2 1 49.06106641694953 58.67381862095761 38.99388691631846 0 -1 1
38 2 1 49.269432240486715 57.750713833735595 39.329750687068604 0 -1 1
345 18 1 5.479573013453645 4.4150508336757825 40.873049650668925 -1 0 0
84 5 1 3.9643190719234935 3.0441338398365527 39.01768250093393 -1 0 0
341 18 1 4.809800750266678 3.986558111394552 38.74664824931308 -1 0 0
342 18 1 5.252255042779674 3.5099312881840645 39.41463366667953 -1 0 0
496 25 1 59.331273614338734 52.70008440847931 37.194851372932916 -1 -1 0
497 25 1 59.51909608502688 51.895049589612576 37.737836088725295 -1 -1 0
500 25 1 57.748535502303305 52.771814041057134 36.24709680429014 -1 -1 0
494 25 1 59.665764889636264 52.304715097935066 35.78095769486199 -1 -1 0
125 7 1 3.441424897771359 53.48366458883397 37.201822101402904 0 -1 0
362 19 1 0.65554365174357 52.54804634487133 37.384450353370745 0 0 0
126 7 1 4.2657529504350755 53.689836572684456 37.66974830806305 0 -1 0
466 24 1 57.28324154906709 55.09851136169663 37.66112688922196 -1 -1 0
326 17 1 0.41268741463231917 52.577582077898725 38.35251276044226 0 -1 0
325 17 1 0.4440214595607723 53.39662056999461 38.75355779005468 0 -1 0
492 25 1 0.7043352976025399 53.06724612893186 36.176027705650334 0 -1 0
491 25 1 1.5665178884348951 53.05752600514112 35.73797794571397 0 -1 0
490 25 1 1.6149990253748068 54.0413987567183 35.102162320468295 0 -1 0
361 19 1 0.6819769420209862 51.97004295125401 36.620380353178554 0 0 0
368 19 1 1.1256857563037674 52.69521727071246 39.28165538062822 0 0 0
363 19 1 1.39952676285612 53.198141705348405 37.72130727982186 0 0 0
128 7 1 5.36554348006714 54.124901226777425 38.6884314486025 0 -1 0
127 7 1 4.289476212632894 54.336166246128926 38.456633480713734 0 -1 0
121 7 1 3.7232735336368306 54.78308029815816 37.39059690865512 0 -1 0
467 24 1 57.99858722230524 55.514936589389606 36.90487328938955 -1 -1 0
473 24 1 58.65627010908467 56.306119794878995 37.08519918349619 -1 -1 0
470 24 1 59.155996998157114 54.37118655840802 38.15280934613776 -1 -1 0
469 24 1 59.053072517560246 54.290299979608704 37.29585812879354 -1 -1 0
471 24 1 59.474635794348 55.30608373484119 37.84788016113599 -1 -1 0
468 24 1 58.4168310564134 54.8738742195075 37.49382508592386 -1 -1 0
489 25 1 1.1701007951360745 54.129062599923564 35.97118409762757 0 -1 0
327 17 1 59.64578971169539 53.24243025456636 37.93732683502439 -1 -1 0
328 17 1 0.26158628451600835 54.168734041952554 37.945980788356195 0 -1 0
488 25 1 1.7889492765557018 54.99338961149392 35.722393141802364 0 -1 0
366 19 1 1.2118469737419797 54.20739867557356 38.46715346814848 0 0 0
367 19 1 1.4416452456273383 53.62751033041723 39.26380183523614 0 0 0
129 7 1 5.39532007088176 55.063805379180785 38.73285182723297 0 -1 0
475 24 1 58.98220514133034 57.02191331894284 38.3744407415078 -1 -1 0
474 24 1 58.53113526532649 57.16763026681661 37.50623503632326 -1 -1 0
476 24 1 58.59340787361814 56.5733713202088 39.288735092733624 -1 -1 0
334 17 1 1.984565700063637 56.16957348754469 37.061529972156436 0 -1 0
333 17 1 1.1295860230308021 56.5962791691665 37.50307505779786 0 -1 0
340 17 1 3.018368404036647 55.04227257846054 35.239112907410146 0 -1 0
339 17 1 3.3770584918268503 55.18187110443839 36.11493424049139 0 -1 0
485 25 1 2.280241140844045 55.291174841537 37.99990618855773 0 -1 0
131 7 1 3.989923709824173 55.353487078353304 38.26283335098256 0 -1 0
130 7 1 4.6783725139276635 55.74404407333927 38.919372057243656 0 -1 0
204 11 1 57.64449901374207 55.96657075382473 37.97722890699199 1 0 0
189 10 1 58.46654597686333 57.79386489851819 39.03000091367916 1 0 0
190 10 1 57.72283286403633 57.86754160373155 39.68887273769993 1 0 0
187 10 1 0.4695241868444492 57.50109270559439 39.661857214529945 2 0 0
186 10 1 0.40507698007153115 56.57451247473315 39.11971174189865 2 0 0
332 17 1 0.19402784778465273 57.0311102465358 37.92857084626892 0 -1 0
184 10 1 0.3735933630089213 55.49184484228356 39.35060451442551 2 0 0
329 17 1 0.14889012899213963 54.90610365154646 37.281066584656635 0 -1 0
331 17 1 59.65032081242205 56.43925426263725 37.71834318494025 -1 -1 0
336 17 1 3.106047771680578 55.55953758338448 37.28431872370093 0 -1 0
338 17 1 3.514321892121806 56.111509827581195 35.75357344345075 0 -1 0
379 19 1 2.847105026343566 57.1401180626641 39.71102874157117 0 0 0
29 2 1 51.66098119543197 58.00024701415568 38.83036266788255 0 -1 1
23 2 1 49.0038570234848 0.6476846766031539 40.06725793064497 0 0 1
22 2 1 49.936338248473454 0.08428724801185099 39.98451894985092 0 0 1
191 10 1 58.658054150446404 57.396191382199135 40.0936882482895 1 0 0
380 19 1 2.833351542130983 57.55679679623294 38.83651204653155 0 0 0
34 2 1 49.79127514811602 57.31024927172963 38.53553422344668 0 -1 1
30 2 1 51.589086123830214 58.472680314521504 37.96218463974798 0 -1 1
31 2 1 50.773452912831644 57.887893745369546 38.045536700941746 0 -1 1
33 2 1 49.45742085173886 57.0564762077721 37.57953090808854 0 -1 1
35 2 1 50.26048957856333 57.521722036402195 39.38449275892933 0 -1 1
32 2 1 50.046188486574586 57.78889331310834 37.301005525388746 0 -1 1
27 2 1 50.89011454022555 59.811046485819574 39.00292393556515 0 -1 1
36 2 1 50.31360361652635 58.572015816975146 39.5432567717468 0 -1 1
26 2 1 50.19983147893448 0.4822824137103012 38.75571036105231 0 0 1
25 2 1 49.69248638718833 59.62705692175918 39.008396102247374 0 -1 1
82 5 1 4.4248575492978155 1.8116796005623377 38.98137656435681 -1 0 0
346 18 1 4.909485383554993 3.5919623314433795 40.53252530377579 -1 0 0
83 5 1 3.680462359740583 2.2011251700533196 38.63813638680342 -1 0 0
81 5 1 5.13235521260823 2.645325276362122 38.996113144613375 -1 0 0
94 5 1 3.0042814497289165 3.4150713048808257 40.93776002741419 -1 0 0
343 18 1 5.856494266190396 3.1215576604720323 40.14121695223609 -1 0 0
86 5 1 4.025743143885781 4.7255407705889585 38.589640837306945 -1 0 0
348 18 1 3.8431458110619108 2.313316969868757 40.054069684435646 -1 0 0
344 18 1 6.086776261675672 4.108022658621626 40.14733829103495 -1 0 0
95 5 1 2.773328575773951 2.5380151085446885 40.9645033299516 -1 0 0
85 5 1 3.48549281211209 3.8749744227127056 39.055054865145614 -1 0 0
88 5 1 4.203505847671739 4.172323375400111 39.94321423274781 -1 0 0
87 5 1 4.140498793377922 5.04804721227042 39.442088179716976 -1 0 0
89 5 1 5.149777053980949 4.678624101824642 39.81375400383936 -1 0 0
90 5 1 4.614273887135252 4.976169120388198 40.63804550819578 -1 0 0
461 24 1 56.092164525694706 55.163141947159446 37.072143788673294 -1 -1 0
499 25 1 58.30268857040957 52.80907094476576 36.938460094219856 -1 -1 0
498 25 1 58.77254501392503 51.80931568684651 36.948477461066474 -1 -1 0
463 24 1 57.11658358185124 54.63787588287311 38.69104156419722 -1 -1 0
462 24 1 56.39102376442526 54.99615540398584 38.11389437716323 -1 -1 0
465 24 1 57.638943386976194 54.33512103192016 36.906658854961684 -1 -1 0
323 17 1 59.98728825099211 54.159245499527195 39.37029805494833 -1 -1 0
369 19 1 2.0468260172404746 52.47523293651005 39.395683171122826 0 0 0
324 17 1 0.22360321992169652 53.250503723067254 39.692970233499786 0 -1 0
370 19 1 2.0869419604870547 52.6925938437946 38.52838682643805 0 0 0
464 24 1 57.6902837108252 54.10131025719838 37.95740164962296 -1 -1 0
479 24 1 58.53665375377792 54.87665548288823 39.43106814580729 -1 -1 0
478 24 1 59.41465475844185 55.01538728909875 38.98272558200271 -1 -1 0
183 10 1 0.4031808830756265 55.11040974196688 38.48386078986024 2 0 0
182 10 1 1.2968293357916572 55.24634460935638 38.704980626577736 2 0 0
181 10 1 1.422848439379236 54.897823391675665 39.65457785214138 2 0 0
136 7 1 2.611324610004195 55.35504465775204 40.41128454992371 0 -1 0
134 7 1 2.476047546478486 55.154620609474826 39.31349489888642 0 -1 0
135 7 1 2.3711730444822674 54.44829941840434 39.96847166557563 0 -1 0
484 25 1 1.6043251136777732 56.035982837411375 38.263743052738334 0 -1 0
372 19 1 2.925578622196114 53.625384721314965 39.596300439136556 0 0 0
371 19 1 3.0471010786895114 52.92573669448656 39.11518878211509 0 0 0
201 11 1 57.70995890993242 57.26950752012487 38.22670147750803 1 0 0
205 11 1 58.03828235405306 55.46351384565067 38.69587401073374 1 0 0
202 11 1 57.06718034979968 56.69762334411715 38.67088223924713 1 0 0
206 11 1 57.74875723334405 56.073950256651 39.31107749543315 1 0 0
208 11 1 57.93111608817707 55.2631718179091 40.660007903014204 1 0 0
477 24 1 59.27745125432213 55.902201136490554 39.04401462526401 -1 -1 0
481 25 1 1.8072975780750937 57.801646568405644 38.60912817573957 0 -1 0
133 7 1 2.9007868818643656 55.84743116039076 38.63465538604915 0 -1 0
132 7 1 3.6612540195485894 55.47755262537811 39.1290616192126 0 -1 0
483 25 1 1.8878881763594035 56.75905969174161 38.92120966733843 0 -1 0
482 25 1 1.1385364030042353 57.146290152773354 38.45592354074207 0 -1 0
203 11 1 56.900478835503826 55.81659789242117 38.474114465813074 1 0 0
196 10 1 58.16634550402241 56.677130534069356 41.15264418183188 1 0 0
195 10 1 58.87582047244242 56.880390013814726 41.42381642606156 1 0 0
194 10 1 59.08537196762614 56.08538140105502 40.87831366905304 1 0 0
192 10 1 59.46611786156446 57.1494645023315 40.61131137861862 1 0 0
193 10 1 59.592984219564784 56.39898186260845 40.08622336194726 1 0 0
185 10 1 1.2383168288426398 56.025336679996 39.46245481949547 2 0 0
219 11 1 59.99494470491328 55.579884911045035 40.57707691065499 1 0 0
335 17 1 2.7177515833675154 56.4565730005679 37.69542665916578 0 -1 0
377 19 1 3.774571311941364 56.810595258086934 40.26445229891737 0 0 0
378 19 1 3.5096223003667424 56.493733508825414 39.339263275034654 0 0 0
376 19 1 4.24853645756084 56.021429877037384 40.12593829961801 0 0 0
28 2 1 51.1851245632716 58.81089157002901 38.912766890106035 0 -1 1
197 10 1 57.84760067849702 56.69332775427324 40.26276011726663 1 0 0
218 11 1 0.9511405024982049 55.866856103515126 40.43542922014667 2 0 0
21 2 1 49.89502823433372 59.28931020016416 40.62645237359985 0 -1 1
37 2 1 49.457536003845355 58.34001319471684 40.132591499712795 0 -1 1
100 5 1 5.490201712157857 1.7302657142100584 40.46989038349985 -1 0 0
347 18 1 4.3643866566628065 3.1374874827926638 40.02433069947261 -1 0 0
97 5 1 3.953204980822337 1.3977262698144017 40.42912077263 -1 0 0
98 5 1 3.821087123000407 1.920155732777579 41.418790412813934 -1 0 0
99 5 1 4.80236561075099 1.9084714949504558 41.23613340760436 -1 0 0
93 5 1 3.454970666749101 3.453414187927093 40.03650968132102 -1 0 0
349 18 1 4.0244846736179145 2.788856927316646 40.945400507333254 -1 0 0
96 5 1 3.143682067104152 1.7186891401042974 40.61016661440066 -1 0 0
357 18 1 4.226152673421934 2.9765447843082735 41.9653047046575 -1 0 0
356 18 1 4.88905176144599 2.796196880391063 42.73522518547707 -1 0 0
353 18 1 5.660422352096155 4.7436074088581295 42.22076552677824 -1 0 0
91 5 1 3.6883687274444754 5.276584549001927 40.37801049927663 -1 0 0
92 5 1 3.24404564553942 4.393971436235754 40.06223730767923 -1 0 0
355 18 1 5.381101559359048 3.3176494098635767 42.11129376726654 -1 0 0
114 6 1 35.99074680818149 52.887392196306166 39.947937759234804 -1 0 -2
115 6 1 35.41530952879167 52.14987495619978 39.99125618691409 -1 0 -2
113 6 1 36.680289199879155 52.908097155150614 40.72950157795061 -1 0 -2
322 17 1 59.41616359212459 54.27167981038399 40.10065722631742 -1 -1 0
480 24 1 58.73913782710274 55.68072322182221 39.96870485835295 -1 -1 0
137 7 1 2.9288929143862155 56.20442408730511 40.090206923810086 0 -1 0
321 17 1 58.842249411375526 53.844447443874955 40.66157800013369 -1 -1 0
138 7 1 2.383363259383048 56.29435112119906 40.70367785942693 0 -1 0
373 19 1 3.376049898790365 54.542342586564345 39.313942014913955 0 0 0
207 11 1 57.21704757369946 55.81733934101608 40.20646021224678 1 0 0
209 11 1 58.17331802282409 54.55926502383914 41.30775445672812 1 0 0
140 7 1 1.389754065003247 55.019185799920685 41.261865826189485 0 -1 0
374 19 1 4.296203567123891 54.36239490719382 39.61775501232828 0 0 0
139 7 1 2.054131007634824 55.579894021584266 41.36566926685529 0 -1 0
200 10 1 57.47472407434691 58.368604770568936 40.392039370089336 1 0 0
199 10 1 58.23468233787906 57.96309246416081 40.88707306772194 1 0 0
211 11 1 59.44510295723243 54.70521500673558 41.6161118323873 1 0 0
198 10 1 57.49654835370818 57.31257530514088 40.699564914935564 1 0 0
210 11 1 58.64872067910204 54.75856935650904 42.10945305830323 1 0 0
220 11 1 0.37966979730009964 54.791286993527585 40.279693418860184 2 0 0
375 19 1 4.133590556352135 54.957319306616704 40.4055567515795 0 0 0
214 11 1 59.80019678385314 55.8012912381797 41.65519730028525 1 0 0
216 11 1 0.9700221450447616 56.23287640844058 41.83340802665612 2 0 0
217 11 1 1.4284680789713522 56.45320015413487 41.003879536040046 2 0 0
350 18 1 4.006917515851519 3.7228703534389047 41.0102823518268 -1 0 0
359 18 1 5.9476304542542575 3.166328588475282 41.24076261710356 -1 0 0
360 18 1 6.656831531474937 2.5793880161240867 41.66278155651412 -1 0 0
354 18 1 4.904636094469829 4.101374481962614 42.49959465123535 -1 0 0
358 18 1 4.992424574794905 2.846079863326834 41.24507667176599 -1 0 0
351 18 1 3.7926805553568745 4.443611711527542 41.627655733328275 -1 0 0
352 18 1 4.716168392543791 5.075224154775432 41.81125506046204 -1 0 0
106 6 1 36.12246585845294 52.25708091728459 41.27970432181368 -1 0 -2
107 6 1 36.350527187194906 51.903722277676636 40.42101249094018 -1 0 -2
108 6 1 36.307972394614595 50.998512381504185 40.85759166697856 -1 0 -2
105 6 1 36.57161499540916 51.495283180293875 41.91430954933154 -1 0 -2
104 6 1 37.52707564752757 51.34162065012214 41.69389046089188 -1 0 -2
116 6 1 36.186994389756904 51.911603803267695 39.291597238911116 -1 0 -2
112 6 1 37.109690985110916 53.36700710251374 39.89984257408128 -1 0 -2
119 6 1 34.64995551361569 50.7459943981055 39.87547760660957 -1 0 -2
120 6 1 35.21074958609386 51.25107925945865 40.590730374092175 -1 0 -2
212 11 1 59.762549083240074 55.16401475633296 42.43491268882256 1 0 0
213 11 1 59.97101589884367 56.26306198732317 42.46031738407929 1 0 0
215 11 1 0.33434337230228633 56.334761999533136 41.12759694713892 2 0 0
102 6 1 38.002459310954926 51.66729284482188 40.46436684734375 -1 0 -2
109 6 1 37.145234037084336 50.861840154854704 40.44846452620786 -1 0 -2
101 6 1 38.22902667347537 50.862331812159105 40.965181856184415 -1 0 -2
117 6 1 36.43501008753019 50.96083868905628 39.594626944498735 -1 0 -2
103 6 1 37.23840345240632 51.87392798279683 41.05785711278641 -1 0 -2
110 6 1 37.263849409185404 51.537755485432754 39.63800921116753 -1 0 -2
111 6 1 37.167092934932946 52.494098377424635 39.88438912157832 -1 0 -2
118 6 1 35.37243230261276 51.055523324114716 39.34447890446073 -1 0 -2
50 3 1 1.997521838805574 33.97495782927021 47.804042200022685 2 0 0
53 3 1 1.2047057621985673 32.263024822171815 46.922295728084876 2 0 0
54 3 1 1.9131619478478232 31.61607409832052 46.87886229250898 2 0 0
48 3 1 2.6211440233133314 32.56250340808416 48.154761744013115 2 0 0
46 3 1 1.064911558080253 33.28166143691043 48.848835759818414 2 0 0
52 3 1 1.9010989240397678 32.79534810293911 46.278643057887976 2 0 0
49 3 1 2.930288781043645 33.506298631707544 47.92902900262736 2 0 0
51 3 1 2.092292733111217 33.041392817975286 47.14861026257242 2 0 0
57 3 1 2.7982560802729695 31.724605920837906 47.57577293096308 2 0 0
59 3 1 2.7673786479607947 31.29160497329373 46.367790043934264 2 0 0
60 3 1 2.7360380029442712 30.621751616877347 46.910366513131095 2 0 0
43 3 1 0.9732585399213692 33.786168268309666 47.62989093345819 2 0 0
42 3 1 0.9181152661076125 34.70405748446848 47.58938542799598 2 0 0
55 3 1 1.8353466242511443 32.14207881374562 47.707552068583254 2 0 0
56 3 1 2.0830294488944125 31.210301303652994 48.02676298317977 2 0 0
45 3 1 0.7172598023279171 32.42372565165155 48.809337701443795 2 0 0
44 3 1 0.7054606838509782 32.822178989706984 47.927956608280326 2 0 0
58 3 1 3.6382343612569863 31.590106494546077 46.875496463986295 2 0 0
47 3 1 1.86155889162723 33.072264972262786 48.33755788425323 2 0 0
41 3 1 0.9206488648102766 35.733564292364434 47.39154347942243 2 0 0

Velocities

301 -0.28213476672716165 -0.23892442066140077 1.46004079887142
12 -0.22225080613993406 1.1854105890397428 0.04382315898325867
14 -1.59292771221053 -0.2200945410605243 -0.7170305394111431
13 -2.690188268257561 1.1391657273785487 1.6708406473249786
20 -1.0604523570460793 -0.5695075730419612 1.637221535117227
427 0.5370680677032685 1.5858144399507812 0.2868260079035312
424 -0.5699968736551194 1.4172795487731555 0.268299352376812
423 -0.5080658183663386 -0.21785687726689407 0.1510684336799071
426 -1.3212212260171203 -2.1201959276189677 -0.20149569423617658
428 0.47230780305330894 -0.6494015697620574 0.4937095639253038
429 -0.46566447692419155 -0.07086684795285969 -0.2798091202171687
430 0.4786681537680039 -1.6652304247605365 -0.09707449075691947
422 -1.2197761604946424 1.4879366995865901 -1.4678152733068104
421 -1.3032565830346723 0.4465576243591727 -0.18523221764258402
431 -1.010971565819903 0.032632331507024576 -1.1192582538758968
440 -0.8970131451771837 1.390204703162634 -0.7944134560441861
309 0.932640715595353 0.6127078823715895 0.5210926341463791
310 -0.5712846786687813 -1.2625498668569817 -0.4834966704174647
311 -0.8963011549181691 0.014711030036451425 -0.07236779070059042
319 -1.2687663745787046 1.3717600350152026 0.02764450124813809
304 -1.5710554599014404 1.337607837234375 0.8724284570221312
305 0.7639025016234138 -0.2599542101863148 -0.7182367202335356
308 0.12952229136303892 0.34151285236153067 0.46946826276926906
302 -0.8940012153586635 -1.4957478178349732 1.5271597404169794
11 -0.9217206223150998 2.7705450086628347 -0.16074801605799388
10 0.32374002882451813 -1.3267806391172197 0.773699665215097
15 -1.2397332836523074 0.4506427725046225 0.9519715641849358
16 -0.4772799648618175 0.15971337613188527 -0.9132223264532381
18 -3.3890533977986093 -0.18169251444536436 0.7024870516764521
19 0.1791351859879225 1.6565749277122386 0.07398963927147077
5 1.6682992463713422 -1.3244430619098086 -0.13662641280028356
425 1.348709131806969 1.9538266617920785 -0.07916984273784378
439 -1.1754261182100767 1.8469983757747248 -0.4309516237849359
436 1.613334252627144 0.3532902151209993 1.044961054523488
313 0.8873467282244457 -0.06427421494191922 -2.410761590599919
433 -0.15340719323812677 -1.1780372541652007 0.4342960274710314
314 0.41355128382371736 1.3978298267596705 -0.8960069092025539
432 0.39114560688911526 0.7419133186678389 0.8997184587764206
320 0.16664874986494127 0.26155485266827616 1.4742129502913164
438 -0.7569605025898665 2.1737276870305005 0.7424592897609357
316 0.11085894578548748 -0.21444564343382702 -1.1789248415327567
307 0.2679922189476422 -0.3978044139889495 0.8797118488924095
306 -1.4529915112050769 -0.0639159477125962 0.633840941708785
312 -0.858374530346804 -0.10666421460617014 -0.5522563906872245
318 0.46512543992051414 0.46473785164791653 0.6999608152392008
303 -1.4573988439205545 -0.9070236843902095 -0.6954955527517303
442 0.7410042565857985 -1.1657482240945396 0.16094145594875084
443 2.340332358895752 -1.6333868609990707 -0.3642508445609607
441 0.27077569249298084 -0.21887000341295476 -1.1287208300424447
454 2.6792874309809607 -0.740732301060514 0.9596943592670566
453 1.2078016407226537 1.0237362198180466 0.40651064274204446
455 -0.8092546316951023 -0.8140096766102934 0.8928605922520717
456 -0.08315223592858162 -0.12107966784014426 0.7139176324045367
458 -0.8480195865881301 0.5131333565805473 0.7996289648132646
457 0.10049796977541459 -1.3278431342515382 -0.10183402380595445
9 -0.06098871542506195 0.33131741867644754 -0.7419844749331687
242 1.3763003768437967 -0.8283853423890278 0.5074631400636084
7 0.7146194156595267 0.5305972946520657 1.0181944546269592
8 1.0362190233123842 1.1705409214503146 0.0041709717445583975
17 -2.3007403828496655 -0.395529787608753 1.491821501042608
158 0.22765787103454665 -1.3470463795637926 -0.581956003896995
156 0.8933928631893037 1.032713296446144 -0.15699857872452044
157 1.4265048548749801 -1.0257068528666071 0.1368793920625899
4 -0.7288473869854118 0.39919286876284205 1.7799430576288495
6 -1.10928372940431 0.1318078741408247 0.6227003698062199
3 -0.5724597714721801 -1.2526656342385623 0.3265383030697309
160 0.5511029643589297 -0.07735396413531494 -0.7613860376177328
159 0.2100890107367506 0.19537655118813482 -0.3046877343039921
1 0.49260176257493704 0.8087335346767559 0.8252215248390363
2 -1.1086242669601598 -0.6771583285079519 -1.0449369650180873
437 -1.1201267057377742 -0.5065534172264401 2.605316679275982
435 0.28131801493907804 1.0785288310192829 1.1662573577823288
434 1.4639761743269077 0.8299559227147039 1.2189206349776842
317 -2.2419110380710574 0.2601639101370786 -0.0005521380334777436
315 -1.0346489847444453 -0.5106632237017277 2.0374498778552224
444 0.5791014388683238 1.3025419473430748 -0.45715994793288045
299 -0.9821233165086481 -0.5007693902940306 1.059321917583005
292 0.11160002606505835 0.6882505035337623 -1.8714923322792132
298 -0.7592670282504379 0.03924772482186212 -2.1567464678814714
297 0.05227153471208643 0.25914998635068687 -0.983516442216077
452 1.1166002921091676 0.3035594851236894 -0.8471334732639427
446 0.641469358015473 -1.6870517591064085 0.5655486005145872
451 1.5095152498012199 0.7691059433123641 -0.9030745359165654
445 0.673260994202599 1.2341690285916553 0.2831567521780676
459 0.36449588571262154 -0.44859243756921213 -0.021631379394320357
460 0.621138460563762 0.27771886229159815 -1.5968042017575845
300 -1.06132274983376 -1.2731646560826828 -0.9947006380280112
245 -0.9663564664140774 0.9107965141079373 -0.6966247154975322
244 0.10543249262672497 -1.5308265018482756 -1.054018215151423
243 -0.7133616166575231 0.9200346461719804 -1.9897872367885963
162 1.1557201720548063 2.235028151251437 -0.5122603189486977
173 -1.0458791049742369 -0.36771773004311376 -1.2816056192215135
172 0.7708154792734374 1.1147942357633747 0.06984205794042807
171 0.3108450794450048 0.6752097598621297 0.454969303674712
178 -0.31750439991877455 -1.3443103593128265 -0.5794306778730549
177 1.0429543515158375 -0.3557850073328675 -1.739379897003585
241 0.8485739676875148 -1.1157750106890707 1.2250510380379562
161 1.0140189272065987 -1.6633194260451922 -0.3439595147360861
174 -0.38127498530905546 -0.8123492600400618 -0.2579676019213392
175 -0.08113757600959728 -0.7444820420300047 0.12176169595637863
155 1.5879616739494382 0.4088984843732395 0.6826204034846707
145 -0.08965736830744149 -0.8005903708608886 -1.910325866590166
149 0.20158508041194845 1.644558363960057 0.8994253132452728
150 0.08062244720549504 0.7074482127038392 1.7064943733279367
148 -0.019602805890752823 -0.1308119031434594 2.3290281936837673
146 -0.48655888176508055 -0.42861942808175 -0.568333214436252
154 -0.2501022082472611 -0.44923816568316477 -0.3773361300143399
143 -0.7823472195289904 1.5096229422573797 0.9983062699815141
144 0.27507873382421955 1.00457294635433 0.09623862590258368
141 0.25296395094204704 -0.6753548427672788 -0.35573357318938914
295 1.7502706777596304 -1.084059705884716 -0.6446645346245778
294 0.022131941890273527 0.10370604422898172 0.2794308207284697
296 0.02272748501441767 0.9269741194041052 0.8496730862372592
291 0.4268697615913752 1.0124811613822355 1.7944045460983882
448 1.1561073271561262 1.3517762332603989 -0.16779055969648077
447 0.7339022171481592 1.9206427908376642 -0.4413751460109683
449 0.260248936311441 2.1996641806615234 -1.7480548490011323
450 -0.15980187764331952 -0.06112298252106252 -0.6024516846751088
246 1.5236369910900374 0.7424864459270736 0.7882709163853503
248 -0.10174504240741375 -0.15613018172348286 0.30330275294753
247 0.007244614089019491 0.3292618539124162 0.27698808760044236
180 0.20949982286023006 -0.8574292959122275 -0.6730142722408086
249 0.20397547694759482 0.32216670145933957 -0.558053193058374
251 0.28526966739818627 -0.8527770807470277 -0.8806551405216088
250 0.31266275703857904 -1.9918483912606983 -1.1865113484110605
163 -0.46889538994627494 0.19430414399084311 -0.8395498118854577
176 -0.8257876192544159 1.943198320796763 -2.1619647840923166
179 -0.7598999534496087 0.47133279853302157 1.7858224033249919
165 -1.4749981621462382 -1.52771100215812 -1.4730739908585677
164 -0.2625560088952296 -0.8661617874517819 -0.8840557215915914
169 -0.16455749516502088 0.1957821335514787 0.5421155700279721
170 1.6720145260234376 -0.16263061760377664 -0.8550417453776072
168 -0.7035863688042303 -2.1177681587246253 -1.7731967821528862
151 0.31273998726293484 -1.6180423652631342 -0.304532050104636
153 0.586320667567193 -1.6170729151389986 -0.4177561556837871
152 1.6026720631589193 -0.1887191097694168 -0.1737569942854083
147 0.5440031674558288 0.09328010404308028 0.48505825815471165
142 0.2834189485310847 1.1783011010948128 0.4766744683207639
284 -0.6969463066448434 1.1162746904858845 0.4748512838658568
293 -0.17520009998917654 -0.8366548882548335 -0.40081883533434787
289 0.31500001021275414 1.395019054077176 -1.1541379792816304
283 -0.32400730658763655 0.23001869237969524 0.3262876633498343
290 -0.6662970356140976 1.0982578790687725 -1.8306794167202642
281 -0.28419615045082347 0.07889853349236 1.6232329232524227
282 -0.8617286331184638 -0.6605772354317185 1.3313115574281433
252 -0.6483304865041579 0.6547232695722339 1.1111803136472418
253 -0.3821143580908807 -0.7083237150511528 0.20549411945631543
260 -0.9873424108264652 -0.40684045979370237 -1.037979859471109
259 -0.8997434707338159 0.5128515688163371 -0.638722831164189
254 0.5633990757369689 1.1250428659010598 -0.7762559260314149
255 0.1326795268571632 -0.9856997861443788 0.4708339628980825
256 1.2299950705631058 -2.1108541239725125 0.048607881385849684
167 0.7615041649881488 0.52936636640038 -1.2182214850708692
166 -0.32332248649681655 1.4190366156593182 -0.3733971705636654
287 0.9947731099010764 0.2943721964758996 -0.7372794180017166
285 0.1041456105818083 -0.25532978457186667 0.8439584900977236
288 1.4326585634851619 0.42485045620386197 1.3977595169951083
286 -0.4094763777759311 -1.329344265226383 -0.14273959133983802
257 0.41859203962228664 -1.0439269344210145 -0.5327906522300708
258 -1.0600770382070095 0.4268285364554228 0.36742489380082266
263 0.7547032120175129 -1.8424529347147331 -0.5412886282624981
390 -1.4243100117342795 1.2527552341598935 0.008794377528857254
264 0.12535211544622907 -0.22222678689694306 0.8493275111510202
265 1.377355990855953 -0.2605738608646573 -1.6291097921831639
382 -0.1333578924392999 0.4598965133296712 2.0714154310059323
400 -0.005929187136191792 -0.5721763506712203 0.8400231251181952
262 0.23803972131120307 1.4135191481644624 -0.0021770486633637858
261 -0.21171709297844907 -1.0061942101472654 0.6049354922782629
393 1.3470955985355049 -1.0396443423078692 0.39793205140975274
280 1.411854153713434 -0.07149376797746361 -0.2353199530156845
270 -0.959307488668952 1.7691317477464927 -1.0749984734026066
269 0.03286224302106052 0.9015533524257063 0.3503860383259795
391 0.5748682636918676 0.2632631667486468 -0.07497015204978519
389 1.444244926419658 0.03439015540159363 -0.12766031446659978
388 -1.2514198126157299 0.8817530404595911 2.253690497617584
268 0.1483489891785927 -0.42659905253069985 -0.24426263490569858
267 1.5387141368392174 -0.6249151483310826 -0.8396387244703304
266 -1.9358256269958936 0.44279758765328325 0.7608019277991994
381 1.2821259191131702 -1.0953660113956394 0.9398293849914329
399 -0.002441421395204516 0.9898760449172391 0.5657897378639423
398 0.8721981710066949 -0.3417033358231453 0.5880492278393435
394 -0.2571919763759886 -0.7695631833240764 1.2721090173428506
392 1.398508868620127 -0.4672717917638329 1.4742937845909765
395 1.3338762901999979 -0.12383479687425873 2.2286587046926702
383 1.192933974824689 -0.1185856757988706 0.2807598828317831
384 -0.7671337918538129 -0.08044971560214458 1.5787890494539953
386 0.29291315106481186 -1.461782864132471 0.030572442500255072
277 2.0181034393777284 0.6695078916145388 -1.1430350026478038
279 -0.2579610983411019 -0.09828809642041027 0.4608955051158595
278 -0.2402757679703635 -0.1423371880443727 -0.8957888020305143
387 2.5685368095753094 0.5382602010278426 -0.011462524008630055
397 -1.03724362556049 0.19368457289162055 -0.458674880313551
396 -0.973061837843844 -0.2635610299972707 0.7386386828010878
276 0.8880259982700056 -1.2025188619086213 0.31911761530310145
272 -0.02760480065263401 -0.7428259239987078 -4.384794994051
271 -0.2248546396786523 -1.5970376009078744 -0.9048031026823543
385 -0.3822922411825105 0.11672250959027666 1.3731847390476228
275 -0.5928483364527525 -1.4883798189990114 0.7159895482066264
274 -0.8733957859659169 -1.573461290393084 0.4755472130825197
273 1.3880877687977107 1.5502210381302446 -0.09066139865559976
221 -0.37665052427346435 1.6206682475787706 -0.8957405532045387
222 0.4694954157583506 -0.6550559881868931 -1.7282268630953976
225 0.5724940122167783 -1.3279373114214588 2.336552371164511
224 0.011071215792726017 0.46405026653429143 0.12156987643972249
223 -0.30725992566305466 0.814742316525062 1.1121195273730597
230 0.48260819099315033 -1.2940380658882238 0.6038723114308613
228 -0.47131608378505474 0.6588689945269184 2.493653555646141
231 -0.8598870337550995 -0.3017204500220991 -0.19191333229286836
233 0.23057160496544826 -1.670995097578816 0.6863221562325595
229 -0.6238694995613783 -0.4893500852218603 0.7880501470826731
226 -0.7980539859564877 2.2476896252067604 0.06996964777463502
227 0.7768356724128165 -0.7390993674483006 0.8015646971111074
80 -0.4290546707549141 -1.2065691669272107 -0.47675906064459783
79 -0.6873210096911525 -0.5233370415258659 0.30266281738740713
78 0.18071291816888496 -0.48891471400752484 0.333275294264379
76 0.15053863374059068 -0.9537095792155962 0.39610264954537877
74 -0.685490174948255 -0.7811601862411864 -0.45418211158675575
75 -0.37336890116748467 -0.33785253020044914 0.27681032013377044
61 -1.086170504432361 -1.2989884156987535 -0.5762858434181779
239 -0.2209870903211979 -0.4182388402322786 -1.2282815425165072
240 -0.27022439300872136 0.1512244814252041 0.10022842665755333
232 -0.249072078614424 1.1296438021395359 -1.6188547941425715
234 -0.44121415859329627 -0.9502537155808903 -0.08270432779950687
238 0.15555482699199671 -0.10313549997997119 0.701629256777201
236 2.6721680473569998 1.3651253818168458 0.4670478149370939
235 0.2770887273211962 -0.5056072742116046 0.7284598830066891
237 1.8016591455354518 1.1352647821356179 0.7518360085718281
67 0.4618732306176795 0.46980194203704534 -0.7377565904541005
69 -0.8453228414613699 0.8736444800150764 -0.7547170166227182
66 -0.6738259737846527 -0.14514924147815803 -2.1416746853666835
77 -0.04487308665471911 1.6515269767463925 -1.0229866546776045
64 1.0449972640663963 -0.9721313578236231 -1.4338031920069318
70 -0.6090648601618255 2.3208775276802984 -0.46301822502925016
73 -0.5894872894414482 0.6613869053854872 -1.0302753838022851
72 -1.5598337837782892 -0.06707337399464221 -1.3729148532743471
65 0.9253319155424024 0.7642559387857076 -1.0307888257948319
63 0.4934413731112646 0.3382913959077431 0.7005890465823351
62 3.0449742378369327 -0.29788238919884813 -1.800477876966213
68 -0.41190038060611917 0.6429303211874516 0.19146105034326266
71 1.3029604264045176 -1.5097939669588119 0.40241617767069504
420 -1.245383914084929 -0.5104778735066443 1.269549330178204
407 1.4282533456898134 0.40530694177390425 -0.4721882185829538
410 -1.1943784317969932 -0.24216723077621677 1.085832501981574
401 -0.036132430960281264 0.9315162110096329 -0.2450409006043115
409 -0.7403615226189948 0.2054313133624597 0.28718041352082685
408 -1.0098221857365475 1.5305129148522099 -1.5558391894620056
419 -1.4826020388703263 -0.3512360893207022 -0.06465840614703283
406 0.23245483590155994 0.2815879360149778 0.7239386638170863
418 0.5808712118068031 0.6292532489432497 0.9092884335010737
495 -1.201780950690231 -0.5434326194354836 -0.4608680940553004
417 -0.36924609884537574 -2.454076688948229 -0.5686275871869864
416 -0.16787541343508314 1.7571797039934085 -1.1194809423741592
124 -2.593676594076348 -0.3633451305101226 0.212196809625847
402 -0.7184706653169967 0.09601843062018867 1.0433786865290258
403 1.290555567262186 2.0334502657880567 -0.4469521415992809
405 -0.34384839455999266 -1.2334501867414636 1.3155560932699748
413 0.06012070737229049 0.10085077295174585 0.5069148658342568
493 0.4688940304245732 -0.28826248814274036 -1.6982959573845098
414 0.024963299239961007 1.6630124886398545 -0.8517435968349637
415 1.176029966033734 0.015558901208700343 1.750869989019287
364 0.690945278363907 -0.3758768627009311 0.15497455350172687
123 0.6703819193961397 0.514283790498072 -3.1024945133669126
122 -0.5007981642471718 -0.06592210238358363 0.76745967768595
472 0.17859688351621109 -0.02840745659491918 -2.653958141426876
404 -0.008896827353205844 -0.6398596105219221 -1.3892036065775506
411 -0.941492374244512 2.0037713473090437 0.5672254304885519
412 0.2332865236390893 0.888136610670191 -1.1287532132518763
487 1.5427896598679935 -0.14972425114115157 -0.031175781700777894
365 -0.49966580961068774 -1.430095655603762 1.0419754922386373
486 0.3353079322737488 0.7372656536202695 0.3768878553759278
188 0.7855701631300411 -1.5555194849911826 -0.516320589687672
330 0.3610580796576584 0.9395305545721816 0.3867663622346689
337 -0.4511490427761158 -1.2899368652450438 -3.217145361523746
24 0.10216471046604306 -0.7644245714325357 -0.41198280072851706
40 -0.06857904688128981 -0.5555085963736823 -0.8110695090477733
39 1.7584789391463513 -0.13345300470632926 -0.45023884666915737
38 2.4257476667390305 -0.8253805689097402 0.8916429588353637
345 0.5723062923351343 -0.4013355334943442 1.4903019076700688
84 -0.4572731982973946 0.9197046414484025 -0.6459390856814344
341 -0.9231936822217514 0.08644206982228496 -2.253370647934926
342 -1.1755572111897894 0.9153022813912796 -1.3217021006799388
496 -0.06364970864608824 0.32529562292293485 -0.41416398175309754
497 -0.9920686473607659 0.3472542357925573 0.40090257206366564
500 0.03600668840963863 -0.06061517898974678 1.5042376778661382
494 0.47905406026125114 -0.7712908776940761 1.5604146015409601
125 -2.3189376721823747 0.16779579423016178 -1.2557905965836136
362 0.11261843120315351 1.756863676980677 0.4898764145126332
126 -2.5134954225918213 1.2959908126637865 -0.2017309926352266
466 -0.11148138242250454 1.1576735269272165 -1.0546503760852848
326 -1.2729618352765721 -0.5883612113864723 -1.749755508331496
325 -0.7825444935964687 0.02372283880013619 -0.7752901930696042
492 0.01315130671656362 1.4515088325037127 0.5670212965335188
491 -0.7853975388738146 -0.09444745497741674 1.3848437146509247
490 0.30334520915194046 1.2601462126615544 -0.32026874269110067
361 -0.8933315356628165 -0.1129046918557781 -0.05725897073340811
368 -1.8647383080343047 1.268524330940078 1.1494740985173948
363 2.348810648828007 0.5000850132525465 0.43054961311599343
128 -0.4080098688444339 -0.6670820046338913 -0.1935710301417458
127 0.6874248214270001 -0.48527157797505965 1.0497367980258046
121 -1.2077804433629713 -1.8147605411814463 -0.9432778817271108
467 0.07321761974868701 -1.1279227115884705 -0.09240905099669143
473 0.5803332773599476 0.5394940239884999 0.1345972559017053
470 1.479436217637873 0.34349062361361726 -1.4136449736376735
469 0.7358285790515107 -1.3735416937320823 1.7739882646263962
471 -1.4188963972846123 1.0848665591675395 -0.6113583049092687
468 -2.379766389799323 -1.6826663331813014 0.539214299327669
489 1.4285784686535936 -0.3693090698283751 -0.022010355366074173
327 -0.7245974487824313 1.2335910589151944 0.06505956735357266
328 -0.195297392750851 -1.707470111480102 1.8329525517184322
488 -1.0126036350663832 1.124252487811411 -1.1730110698256995
366 -0.5428842934791296 -0.3434448150307222 1.429205989984655
367 2.7758383276530396 0.2271298709550387 -0.46747933985393675
129 -0.7631137151762908 -0.4812622130088754 1.229705539785456
475 2.188551527973808 1.0693829781021238 1.329932614181519
474 0.7109449835333993 -0.5783773199518862 0.33091670405834533
476 -0.21800900234417384 -0.16014879040071406 -0.46568732758137726
334 0.09456305406115668 2.1580836966138395 -0.386730474898408
333 0.4045473117851647 -0.5450548625810294 0.4484982603392731
340 -0.02110664616541915 -1.9777116604175171 -1.6627980441516081
339 -1.8182429034819692 -2.0586825316355055 -0.7930332218974961
485 0.6034346734871284 0.19739302968182623 -0.6464980504319428
131 0.24696448716048003 -0.5472886723084325 0.11199748099322779
130 -0.8000137954033012 1.055819582612052 -0.6914282013236996
204 2.4806097077696374 0.07510901058423593 1.0017004422347358
189 0.666403309910926 0.11271036984202168 0.7309216582561786
190 -1.3291650052589903 -0.5692281724782894 2.0483687702282234
187 0.37660140348449267 -0.861620284328868 0.6843917114717573
186 1.8140471778447163 -0.5898691515366763 -1.4140218699025824
332 -0.7333454472901182 -0.3552816052055503 -0.16046440378884844
184 -2.62018297746152 -0.3499305665197119 -1.2323271577222434
329 0.17454989132024848 -0.9861597371634331 -0.08519104986643936
331 -0.022204736097828963 -1.02608066446775 -1.2398797684646297
336 -1.112820133772542 0.3492113904238158 -2.1281827959664494
338 -1.072688914175936 1.1860681698272844 -0.6890838425007377
379 0.6942055499170028 -1.1930426027280885 -0.06717024883253746
29 0.08180094534890314 -0.015246197317617333 1.2902676107816156
23 0.30187218138423944 -1.283509943379556 -0.9504827848405427
22 -1.1861114286819818 1.0172764503465361 -0.25019712560950697
191 1.1870034855920082 -0.8664787706792941 -0.7055154551606037
380 0.15490688062304253 -0.31362419324674023 0.067593715538393
34 0.18452079478703667 -0.050601363969484225 0.1230424900887534
30 0.233025997330771 1.5335653158576936 1.215619199281544
31 -0.0673744119336591 1.8480554167547985 0.8266381133493769
33 -0.7920551454257947 -0.9419885614446483 0.7727563985426229
35 -0.2538546895239202 0.7784985823869705 0.21289032912262604
32 -0.033480300986813906 -1.0169455687630624 -0.3900880463182463
27 0.22475873192881574 1.4356824751328259 2.0513788301560423
36 0.5130655525983333 0.0856132191983837 0.08974887206563768
26 -0.39011841805864167 0.36362088847873664 1.274001667194836
25 -0.5998213170900504 -1.3250630723351144 -0.3686170186956755
82 -0.490386611834814 -1.5563253758020077 -1.219273125875588
346 0.9165940004562034 0.5723872342216508 1.6359656384286523
83 0.9471889327869574 1.4540652358871526 0.9224416132178787
81 1.8707351583536187 0.39636912293362153 -2.7114016112646415
94 -0.8700991775915445 0.7062256391150888 0.2759723631761919
343 0.7087527482314409 0.05973380694241162 -0.6807019927359992
86 -0.4206266249815516 -0.9123115049501201 -0.4949266425692511
348 -1.704673871148396 -1.2017516030463602 1.2880623882548063
344 -0.6704450853138716 -0.49846497945946255 2.6738009225581147
95 -0.09315044937550318 -0.3825357058211998 1.362773188073655
85 -1.2637164889609707 1.151456089198467 -0.9519732913896403
88 -0.5657547278530168 -0.8258149034351463 0.04762834603296135
87 -1.3294895317235653 0.7427944035482257 1.3593440349628996
89 0.15182994824001933 1.1311675206169085 1.7574093418991965
90 -0.8817235427643051 -1.9015308896562133 0.13066247224495445
461 1.2254851713981447 0.22455224162843793 1.0238894250540271
499 -0.16177174568783415 1.8046111043031767 0.5323454264172136
498 -0.6932055525261679 0.9868889871170627 -0.25901065285668623
463 -1.1771319007949723 1.0112481408268656 0.7009999794296436
462 0.5946547931058501 1.0451770324597909 0.4768060045328961
465 1.9213907502043859 1.0327975811761851 -0.8979612336721733
323 1.0323579636870852 -1.369035421742349 0.506487517753974
369 1.3556971154191253 0.6235585478939032 -0.6935421278335933
324 -1.0725730949048045 -2.1099552194524316 1.63297010130915
370 3.3580342755534858 -0.022566814328303555 1.6822985300151483
464 1.1802820123913402 -1.0408558199038989 -0.2999716675412478
479 0.28799743305998277 1.1423310310660826 0.8450016328547063
478 0.7075275725201127 -0.7886270896897672 1.3634852742169874
183 0.517456634846861 -1.5809351243648455 0.49914089036316944
182 0.7315899890699512 0.5974946387150333 1.691286496162749
181 0.4252517083516648 0.300310193414897 -2.2338367609642726
136 0.9631331695010724 0.7748667666920526 -0.34675592227501095
134 -1.587212889002208 -0.4224891210124684 1.5818807734506042
135 -0.6601133757415393 -0.3216059471532088 1.15192732446145
484 -1.385882979492499 -0.9432832840618919 0.9131673629634944
372 0.3852449246826695 1.2208365372251218 0.5602282905871904
371 -0.36416799328931726 -1.0419403072445084 0.16886207621198282
201 1.1468126476915188 -0.11057965181194387 0.347546363512935
205 -0.6207181172417167 1.4783841267395685 0.9090881069438036
202 -0.05724398821921109 0.6158514797835652 -1.538211530943868
206 1.311437604917805 0.6466880821018138 0.11157974851972324
208 0.6308686603347881 -1.1115015125196066 0.7602400563430665
477 1.221495940851797 1.2367033479440783 0.7777447007803029
481 0.2586711442299923 -0.9141044532872209 0.2139993875915125
133 -0.15643515891166326 0.5655121858802407 -1.7871213779070685
132 1.1813638271042723 -0.826601224798893 -1.856846456903152
483 -0.04910919369941524 -0.10828949523605759 -0.9920265733267786
482 -0.19612825637874828 2.2069382267354505 0.6076669732861151
203 -0.3344994468863756 1.5072695904864566 -0.6645222263702991
196 1.255642828489798 0.5843698047613629 -1.711427775206457
195 0.7006937940229097 0.541225279826106 -0.12580964105925593
194 -0.2689863966586134 -1.103934806208713 -1.5122788042616075
192 -0.6148549497437961 0.2567185255000038 -0.6486901414882927
193 -0.7783825532612693 1.17154633707412 0.5860551529806445
185 0.1968071206578193 -1.636932580490758 0.16321711767434327
219 0.2455529966875394 -1.1225603010113083 -0.6985204557363079
335 0.2186790994649499 -1.4119749847104295 0.12571886430543938
377 0.9007471262242153 0.9545530337152963 2.160605828924203
378 -1.0397731756669162 -0.08465503655607705 1.463931984243446
376 -0.4585264549047457 0.39936698533916454 0.8532660807303974
28 -0.9370705606990668 0.9126117641910607 -0.950132220355168
197 0.17029197334604582 -1.5926412263942138 -0.9394965970138595
218 -0.2690906691183226 0.20340924734211072 0.07188717930089736
21 -0.5489493380169319 -0.908810626617846 -0.13999675403553277
37 0.4090819468664143 -1.6068918838592803 0.13817430934912203
100 -1.6199205681561883 -1.0966313318407923 0.34763559483529377
347 0.3633044357314987 0.14035957216367184 -1.2885493736159657
97 -0.40463146329510763 -1.800656063940811 -0.20315923223508311
98 -0.9285464750468057 -0.6878413832407096 1.5081582882131526
99 -1.692080770256872 -1.3048812589530376 0.31471060210354085
93 -0.386229914824003 -2.1356533542459415 0.8402854495483936
349 0.9126345115415452 0.470204849594811 -0.29199363168113934
96 0.1758778588675213 -1.4660252214362557 0.11053290739745983
357 -0.5814668617563634 -1.2550392341772947 -0.25160057342521686
356 2.48714634130522 0.8811147414183822 -1.4281529643051896
353 -0.7188070810185164 1.478521321525351 0.4270131975300748
91 -1.8794595691742446 -0.05594405324212692 1.8736050475576063
92 -1.1705720088457512 0.6665234738584983 0.28469891250666124
355 0.353885287550983 -0.8241593885371981 -0.35414080837135953
114 0.38935976155703006 -0.15069466901136874 -0.1713259275191605
115 -0.8703684075021481 1.0508869883391443 -0.4193555173191561
113 0.3853080114741587 0.8549373083778538 -1.8009007000389445
322 -0.22264370727426372 1.8295031435019358 -0.9039104039500847
480 -0.7650677590328525 0.3521134561837705 -0.03641064719503438
137 -0.04570764052919847 -0.10984362778774905 0.4591024962530902
321 -0.48902360147937374 0.9542132226901578 -1.6293027317805573
138 0.9644577780664447 -0.8988044403968123 0.7250561587582453
373 2.0012645584976014 0.4632382775306608 -0.40776432166804033
207 -0.3750990934453745 0.927079283069675 0.19665806389690021
209 -1.1071859388072833 0.6122690707609417 -2.3911502615997264
140 -0.946670877773362 -0.3764059644191558 -0.18327746618058785
374 0.5768457171524178 -0.9162148047720706 0.6403595242750164
139 1.4491626554203545 -0.8367540338409848 0.8170757541708006
200 0.7579941525719632 0.8770199729789847 2.161665174084374
199 -0.298456267743539 0.7839684260503732 -0.9666595775552206
211 0.48856156747014423 1.1274743411682389 -0.6325586572526358
198 -1.2578492388803213 -0.8805056928300625 0.35074535343800417
210 -0.451546922308103 1.4538222360435933 0.49006475907806374
220 -1.8869852200061934 -0.5131727307986874 -1.0062838006887254
375 -0.6412299705765776 -1.6644054244190254 0.12822928620038396
214 0.6440903326090186 -0.6809427230932271 0.02191919141211202
216 -0.13599436216117292 0.13715834852660808 1.0759117194864236
217 -1.2147630510001248 -1.634921787640102 -0.26714081430619613
350 -0.7747187150348402 0.7802318951102579 0.16191905807659923
359 -0.9381916503209624 0.5019657577818835 0.7117400073948544
360 1.3963106509065404 0.33768799021575674 0.4027895257199174
354 1.0941768995425045 0.9372287154661232 -1.0356526092011398
358 -0.4867641544162384 -1.501983998873176 -1.028637792078973
351 -1.9054531131225239 -0.8075455587032293 -0.46991607524954504
352 -1.019512820257187 0.4424137915734963 0.11934465017563028
106 0.602929366064818 -1.281253426091221 0.07365109583175668
107 -0.44685234901004284 1.0055497631872545 -0.4706574784658998
108 0.851992190595261 0.7732342150929146 -0.7396058744907971
105 0.23928939650606118 0.29493169598063307 -0.6389736550336381
104 -0.41876390151396603 0.0445243503852352 -1.0013877551350765
116 -1.9144702631565382 0.013200072758430183 0.1165076397036941
112 0.5111338688739476 -0.6375480089391781 -0.5458058320359253
119 -1.0450706778468493 -1.144811333988975 0.6016832998154622
120 -1.7796558345823876 -0.31718910723417876 0.9747960196893325
212 -0.7569285764603411 -0.5610462431249709 0.14878171113097977
213 -0.10835670510134715 -0.43130487230896414 0.11490323487307977
215 1.5787875319865334 -1.0658462657210928 -0.4891000354018749
102 -0.23797800358936802 0.4431956172859027 -1.1778349242121695
109 0.18408028892545608 0.7520466263467234 -0.4998873672941984
101 -0.5348129049926912 -0.44022403699706386 -1.787447314065168
117 1.1004853089702418 -0.20795346643924445 -0.16133980726882102
103 0.9741877844298096 -0.8689712436371916 -0.36103337834391364
110 0.39233954609331767 -0.11439315409084667 -0.4877666943732041
111 -0.6909445107230857 -0.5840844277152341 -0.43566643725233073
118 -1.0348585238925125 0.9250163107618901 0.14921024454438417
50 1.4318719066168737 -0.5717056163821349 -0.3056367967137481
53 0.7979343600857829 0.9679375749576099 0.4809004661088126
54 0.7802255003277885 -0.21192385680235293 -0.40226141693888895
48 0.08151741368546059 -1.5863708230441298 0.49806878728705506
46 1.2358924292857316 0.051156372188840726 -0.2542255551871255
52 -0.04127093491958885 -0.4001012565479426 0.7651765629342695
49 0.9036939842731724 0.1502864896837814 0.48197729278015083
51 1.3932841839530001 -0.40356700559604824 -1.0020363750289754
57 -0.9223547530954742 1.2860872660866034 0.029609440128687818
59 1.2911167546230118 1.2846982424812254 0.7926646966213488
60 -2.498079979410522 0.23691214463235533 0.786702660491225
43 1.7261140409068882 0.11236177041437131 0.7808924457454841
42 0.5872054042652037 -0.2155299334372117 0.8861779983944448
55 -1.5602283559243137 0.6076286817726821 -0.31985914897755735
56 -0.08753834406608473 -0.7531782615377889 -0.1228816005112194
45 0.25778851274664644 1.012072593755049 -0.7539758381174286
44 0.7050911177983864 0.3810756486571233 -0.10059281751947087
58 0.005834081616585684 -0.7424941151921642 -0.3504898398339276
47 -0.9943773485764561 -0.9751319557736647 0.45418715572084045
41 2.3145577728960203 1.0113545124815713 -0.524474936071386

Bonds

1 1 301 302
2 1 12 13
3 1 14 15
4 1 13 14
5 1 427 428
6 1 424 425
7 1 423 424
8 1 426 427
9 1 428 429
10 1 429 430
11 1 430 431
12 1 422 423
13 1 421 422
14 1 431 432
15 1 309 310
16 1 310 311
17 1 311 312
18 1 319 320
19 1 304 305
20 1 305 306
21 1 308 309
22 1 302 303
23 1 11 12
24 1 10 11
25 1 15 16
26 1 16 17
27 1 18 19
28 1 19 20
29 1 5 6
30 1 425 426
31 1 439 440
32 1 436 437
33 1 313 314
34 1 433 434
35 1 314 315
36 1 432 433
37 1 438 439
38 1 316 317
39 1 307 308
40 1 306 307
41 1 312 313
42 1 318 319
43 1 303 304
44 1 442 443
45 1 443 444
46 1 441 442
47 1 454 455
48 1 453 454
49 1 455 456
50 1 456 457
51 1 458 459
52 1 457 458
53 1 9 10
54 1 242 243
55 1 7 8
56 1 8 9
57 1 17 18
58 1 158 159
59 1 156 157
60 1 157 158
61 1 4 5
62 1 6 7
63 1 3 4
64 1 159 160
65 1 1 2
66 1 2 3
67 1 437 438
68 1 435 436
69 1 434 435
70 1 317 318
71 1 315 316
72 1 444 445
73 1 299 300
74 1 292 293
75 1 298 299
76 1 297 298
77 1 452 453
78 1 446 447
79 1 451 452
80 1 445 446
81 1 459 460
82 1 245 246
83 1 244 245
84 1 243 244
85 1 162 163
86 1 173 174
87 1 172 173
88 1 171 172
89 1 178 179
90 1 177 178
91 1 241 242
92 1 161 162
93 1 174 175
94 1 175 176
95 1 155 156
96 1 145 146
97 1 149 150
98 1 150 151
99 1 148 149
100 1 146 147
101 1 154 155
102 1 143 144
103 1 144 145
104 1 141 142
105 1 295 296
106 1 294 295
107 1 296 297
108 1 291 292
109 1 448 449
110 1 447 448
111 1 449 450
112 1 450 451
113 1 246 247
114 1 248 249
115 1 247 248
116 1 249 250
117 1 251 252
118 1 250 251
119 1 163 164
120 1 176 177
121 1 179 180
122 1 165 166
123 1 164 165
124 1 169 170
125 1 170 171
126 1 168 169
127 1 151 152
128 1 153 154
129 1 152 153
130 1 147 148
131 1 142 143
132 1 284 285
133 1 293 294
134 1 289 290
135 1 283 284
136 1 290 291
137 1 281 282
138 1 282 283
139 1 252 253
140 1 253 254
141 1 259 260
142 1 254 255
143 1 255 256
144 1 256 257
145 1 167 168
146 1 166 167
147 1 287 288
148 1 285 286
149 1 288 289
150 1 286 287
151 1 257 258
152 1 258 259
153 1 263 264
154 1 390 391
155 1 264 265
156 1 265 266
157 1 382 383
158 1 262 263
159 1 261 262
160 1 393 394
161 1 270 271
162 1 269 270
163 1 391 392
164 1 389 390
165 1 388 389
166 1 268 269
167 1 267 268
168 1 266 267
169 1 381 382
170 1 399 400
171 1 398 399
172 1 394 395
173 1 392 393
174 1 395 396
175 1 383 384
176 1 384 385
177 1 386 387
178 1 277 278
179 1 279 280
180 1 278 279
181 1 387 388
182 1 397 398
183 1 396 397
184 1 276 277
185 1 272 273
186 1 271 272
187 1 385 386
188 1 275 276
189 1 274 275
190 1 273 274
191 1 221 222
192 1 222 223
193 1 225 226
194 1 224 225
195 1 223 224
196 1 230 231
197 1 228 229
198 1 231 232
199 1 233 234
200 1 229 230
201 1 226 227
202 1 227 228
203 1 79 80
204 1 78 79
205 1 76 77
206 1 74 75
207 1 75 76
208 1 61 62
209 1 239 240
210 1 232 233
211 1 234 235
212 1 238 239
213 1 236 237
214 1 235 236
215 1 237 238
216 1 67 68
217 1 69 70
218 1 66 67
219 1 77 78
220 1 64 65
221 1 70 71
222 1 73 74
223 1 72 73
224 1 65 66
225 1 63 64
226 1 62 63
227 1 68 69
228 1 71 72
229 1 407 408
230 1 410 411
231 1 401 402
232 1 409 410
233 1 408 409
234 1 419 420
235 1 406 407
236 1 418 419
237 1 495 496
238 1 417 418
239 1 416 417
240 1 124 125
241 1 402 403
242 1 403 404
243 1 405 406
244 1 413 414
245 1 493 494
246 1 414 415
247 1 415 416
248 1 364 365
249 1 123 124
250 1 122 123
251 1 472 473
252 1 404 405
253 1 411 412
254 1 412 413
255 1 487 488
256 1 365 366
257 1 486 487
258 1 188 189
259 1 330 331
260 1 337 338
261 1 24 25
262 1 39 40
263 1 38 39
264 1 345 346
265 1 84 85
266 1 341 342
267 1 342 343
268 1 496 497
269 1 497 498
270 1 494 495
271 1 125 126
272 1 362 363
273 1 126 127
274 1 466 467
275 1 326 327
276 1 325 326
277 1 492 493
278 1 491 492
279 1 490 491
280 1 361 362
281 1 368 369
282 1 363 364
283 1 128 129
284 1 127 128
285 1 121 122
286 1 467 468
287 1 473 474
288 1 470 471
289 1 469 470
290 1 471 472
291 1 468 469
292 1 489 490
293 1 327 328
294 1 328 329
295 1 488 489
296 1 366 367
297 1 367 368
298 1 129 130
299 1 475 476
300 1 474 475
301 1 476 477
302 1 334 335
303 1 333 334
304 1 339 340
305 1 485 486
306 1 131 132
307 1 130 131
308 1 204 205
309 1 189 190
310 1 190 191
311 1 187 188
312 1 186 187
313 1 332 333
314 1 184 185
315 1 329 330
316 1 331 332
317 1 336 337
318 1 338 339
319 1 379 380
320 1 29 30
321 1 23 24
322 1 22 23
323 1 191 192
324 1 34 35
325 1 30 31
326 1 31 32
327 1 33 34
328 1 35 36
329 1 32 33
330 1 27 28
331 1 36 37
332 1 26 27
333 1 25 26
334 1 82 83
335 1 346 347
336 1 83 84
337 1 81 82
338 1 94 95
339 1 343 344
340 1 86 87
341 1 348 349
342 1 344 345
343 1 95 96
344 1 85 86
345 1 88 89
346 1 87 88
347 1 89 90
348 1 90 91
349 1 461 462
350 1 499 500
351 1 498 499
352 1 463 464
353 1 462 463
354 1 465 466
355 1 323 324
356 1 369 370
357 1 324 325
358 1 370 371
359 1 464 465
360 1 479 480
361 1 478 479
362 1 183 184
363 1 182 183
364 1 181 182
365 1 136 137
366 1 134 135
367 1 135 136
368 1 484 485
369 1 372 373
370 1 371 372
371 1 201 202
372 1 205 206
373 1 202 203
374 1 206 207
375 1 208 209
376 1 477 478
377 1 481 482
378 1 133 134
379 1 132 133
380 1 483 484
381 1 482 483
382 1 203 204
383 1 196 197
384 1 195 196
385 1 194 195
386 1 192 193
387 1 193 194
388 1 185 186
389 1 219 220
390 1 335 336
391 1 377 378
392 1 378 379
393 1 376 377
394 1 28 29
395 1 197 198
396 1 218 219
397 1 21 22
398 1 37 38
399 1 347 348
400 1 97 98
401 1 98 99
402 1 99 100
403 1 93 94
404 1 349 350
405 1 96 97
406 1 357 358
407 1 356 357
408 1 353 354
409 1 91 92
410 1 92 93
411 1 355 356
412 1 114 115
413 1 115 116
414 1 113 114
415 1 322 323
416 1 137 138
417 1 321 322
418 1 138 139
419 1 373 374
420 1 207 208
421 1 209 210
422 1 374 375
423 1 139 140
424 1 199 200
425 1 211 212
426 1 198 199
427 1 210 211
428 1 375 376
429 1 214 215
430 1 216 217
431 1 217 218
432 1 350 351
433 1 359 360
434 1 354 355
435 1 358 359
436 1 351 352
437 1 352 353
438 1 106 107
439 1 107 108
440 1 108 109
441 1 105 106
442 1 104 105
443 1 116 117
444 1 112 113
445 1 119 120
446 1 212 213
447 1 213 214
448 1 215 216
449 1 102 103
450 1 109 110
451 1 101 102
452 1 117 118
453 1 103 104
454 1 110 111
455 1 111 112
456 1 118 119
457 1 50 51
458 1 53 54
459 1 54 55
460 1 48 49
461 1 46 47
462 1 52 53
463 1 49 50
464 1 51 52
465 1 57 58
466 1 59 60
467 1 43 44
468 1 42 43
469 1 55 56
470 1 56 57
471 1 45 46
472 1 44 45
473 1 58 59
474 1 47 48
475 1 41 42
