LAMMPS data file

20 atoms
19 bonds

1 atom types
1 bond types

0.0 20.0 xlo xhi
0.0 20.0 ylo yhi
0.0 20.0 zlo zhi

Masses

1 1.0

Atoms

1 1 1 10.000 10.000 10.000
2 1 1 10.256 9.126 9.586
3 1 1 9.572 9.711 10.023
4 1 1 10.255 8.992 9.887
5 1 1 9.397 8.479 9.897
6 1 1 8.581 7.960 10.155
7 1 1 8.733 7.019 10.456
8 1 1 9.203 6.269 10.920
9 1 1 9.666 5.896 10.116
10 1 1 10.387 5.638 9.474
11 1 1 9.644 6.279 9.665
12 1 1 10.441 6.875 9.759
13 1 1 11.404 6.628 9.865
14 1 1 12.058 6.863 10.583
15 1 1 12.212 7.269 9.682
16 1 1 11.711 6.881 8.909
17 1 1 11.206 6.127 8.489
18 1 1 11.792 5.543 7.928
19 1 1 11.286 5.137 8.689
20 1 1 11.679 5.426 7.816

Bonds

1 1 1 2
2 1 2 3
3 1 3 4
4 1 4 5
5 1 5 6
6 1 6 7
7 1 7 8
8 1 8 9
9 1 9 10
10 1 10 11
11 1 11 12
12 1 12 13
13 1 13 14
14 1 14 15
15 1 15 16
16 1 16 17
17 1 17 18
18 1 18 19
19 1 19 20
