LAMMPS data file

20 atoms
19 bonds

1 atom types
1 bond types

0.0 20.0 xlo xhi
0.0 20.0 ylo yhi
0.0 20.0 zlo zhi

Masses

1 1.0

Atoms

1 1 1 10.000 10.000 10.000
2 1 1 10.256 9.126 9.586
3 1 1 10.939 8.408 9.450
4 1 1 10.081 7.895 9.460
5 1 1 9.265 7.376 9.718
6 1 1 9.417 6.434 10.019
7 1 1 9.887 5.684 10.484
8 1 1 10.350 5.311 9.679
9 1 1 11.071 5.053 9.037
10 1 1 11.868 5.650 9.131
11 1 1 12.831 5.402 9.237
12 1 1 13.486 5.638 9.955
13 1 1 13.639 6.044 9.054
14 1 1 13.138 5.656 8.281
15 1 1 12.633 4.902 7.861
16 1 1 13.220 4.318 7.300
17 1 1 12.713 3.912 8.061
18 1 1 13.253 3.119 7.777
19 1 1 14.209 3.392 7.888
20 1 1 14.595 4.111 8.466

Bonds

1 1 1 2
2 1 2 3
3 1 3 4
4 1 4 5
5 1 5 6
6 1 6 7
7 1 7 8
8 1 8 9
9 1 9 10
10 1 10 11
11 1 11 12
12 1 12 13
13 1 13 14
14 1 14 15
15 1 15 16
16 1 16 17
17 1 17 18
18 1 18 19
19 1 19 20
